14
 geom =           0 
  C        -1.94541          2.27185        -0.12280 
  C        -0.07240          1.32512        -0.32184 
  C         1.56420          0.49324         0.99242 
  C         1.55562         -0.87623         1.17358 
  C        -0.12945         -1.58997         0.24024 
  C        -0.76260         -1.64068        -1.90566 
  H         0.42134          1.16489        -1.75081 
  H         2.69464          0.98260         2.25278 
  H         2.70523         -1.42313         2.70564 
  H        -0.91906         -2.24680         1.45981 
  H        -2.24179         -2.27904        -2.14307 
  H         0.14620         -1.27567        -2.92695 
  H        -2.72620          2.88880        -1.42981 
  H        -2.58208          2.38717         1.16576 
14
 geom =           1 
  C        -2.02507          2.20157         2.07913 
  C        -1.27247          0.98061         1.45049 
  C         0.74123          1.36633         0.87133 
  C         1.73692          0.01881        -0.39536 
  C         0.98206         -1.99110        -1.43266 
  C        -0.01123         -2.50501        -2.61092 
  H        -2.11450         -0.42920         1.30056 
  H         1.39523          2.57675         1.98892 
  H         3.10265          0.32053        -0.49906 
  H         1.28279         -3.32731        -1.23794 
  H        -0.88342         -4.27169        -3.21069 
  H        -0.11859         -1.38644        -2.83780 
  H        -3.41231          2.03464         2.34893 
  H        -1.05641          3.63419         2.59989 
14
 geom =           2 
  C        -0.43509          2.54834        -1.64372 
  C        -0.33151          1.37056         0.06556 
  C         1.22251          0.37646         1.17403 
  C         1.17573         -0.93821         1.34878 
  C        -0.38691         -1.74252         0.60506 
  C        -1.08190         -1.65128        -1.38130 
  H        -1.65664          1.19122         0.67882 
  H         2.35219          0.67466         2.12797 
  H         2.16830         -1.44499         2.21816 
  H        -1.16413         -2.29614         1.95528 
  H        -2.51663         -2.29095        -1.63195 
  H        -0.33099         -1.43709        -2.53334 
  H        -1.67391          3.05645        -2.35674 
  H         0.88142          2.98354        -2.46494 
14
 geom =           3 
  C        -0.86505          2.18469        -1.24283 
  C        -0.44107          1.35199         0.47342 
  C         1.15312          0.68937         1.19995 
  C         1.29084         -0.64606         1.03873 
  C        -0.13166         -1.69119         0.23841 
  C        -0.85552         -1.87584        -1.60914 
  H        -1.49971          1.03754         1.42945 
  H         2.17056          1.28323         2.14670 
  H         2.30654         -1.12667         2.11993 
  H        -0.60822         -2.61807         1.17804 
  H        -2.19134         -2.54964        -1.91906 
  H        -0.10641         -1.24658        -2.46558 
  H        -2.01883          2.40766        -1.43282 
  H         0.15214          2.65807        -2.23095 
14
 geom =           4 
  C         0.79578          2.67693        -0.18525 
  C         0.23099          1.41967        -0.18655 
  C         1.00141          0.10492        -0.60813 
  C         0.63368         -1.20087        -0.28833 
  C        -0.65920         -1.72021         0.66158 
  C        -1.94708         -1.38602         0.54770 
  H        -0.85285          1.36520         0.05687 
  H         2.06457          0.27177        -1.04300 
  H         1.37607         -1.97018        -0.60062 
  H        -0.57020         -2.27864         1.75118 
  H        -2.90601         -1.64183         1.15328 
  H        -2.13647         -0.92123        -0.50561 
  H         0.27707          3.58899         0.18865 
  H         2.08566          2.84408        -0.29793 
14
 geom =           5 
  C         0.04243          1.50602         3.11055 
  C        -0.58629          1.28580         1.07496 
  C         0.32221          1.18276        -1.31581 
  C         0.85459         -0.17589        -2.27175 
  C         0.64133         -1.76488        -0.96002 
  C        -1.26482         -1.95271         0.10990 
  H        -2.09136          1.05685         1.17998 
  H         1.02999          2.06287        -2.30621 
  H         1.91904         -0.14392        -4.03601 
  H         2.18131         -2.95743        -1.02499 
  H        -1.14104         -3.25647         1.21562 
  H        -2.72668         -1.03248         0.01852 
  H        -0.87885          1.80260         4.71587 
  H         1.59499          1.50166         3.24188 
14
 geom =           6 
  C        -2.12624          0.22544         1.41173 
  C        -1.39221          1.41500         2.03108 
  C         0.55618          1.94114         0.93945 
  C         1.70858          0.54969        -0.53130 
  C         1.23415         -1.69291        -1.46405 
  C         0.13486         -2.21161        -2.35577 
  H        -2.20297          1.88569         3.50260 
  H         1.12458          3.54791         1.49935 
  H         3.21804          1.10275        -0.98712 
  H         2.08356         -3.32087        -1.46390 
  H        -0.41677         -4.10805        -2.85430 
  H        -0.35977         -1.10046        -2.53712 
  H        -3.57269         -0.50264         2.41454 
  H        -1.24801         -0.20607         0.05503 
14
 geom =           7 
  C        -1.11524          2.12678         1.92182 
  C         1.32396          1.57167        -0.24798 
  C         1.23997          0.16448        -2.86587 
  C         0.71981         -1.20121        -2.53454 
  C         0.12107         -1.58047         0.56190 
  C        -2.15299         -1.19615         2.80851 
  H         3.61235          1.90478         0.22826 
  H         2.13354          0.37135        -5.36257 
  H         1.24323         -2.09635        -4.63123 
  H         1.91822         -2.19642         0.97939 
  H        -1.96402         -1.08989         5.01774 
  H        -4.09805         -0.48219         2.38927 
  H        -0.91611          2.99075         3.99800 
  H        -3.55654          1.96700         1.62518 
14
 geom =           8 
  C         1.25126          0.92987         2.35794 
  C         0.92480          1.76466        -0.68654 
  C         0.92062          0.22669        -3.05605 
  C         0.25039         -1.07581        -2.49442 
  C        -0.52156         -1.17275         0.60143 
  C        -2.77423         -0.70681         2.86564 
  H         0.48627          4.04023        -1.52286 
  H         1.85487          0.30966        -5.08260 
  H         0.80139         -1.91043        -4.35152 
  H         0.87471         -1.71178         1.42441 
  H        -2.82590         -0.69014         5.20950 
  H        -4.67764         -0.52039         2.14285 
  H         1.39564          2.49492         3.80895 
  H         1.47968         -1.60507         3.28045 
14
 geom =           9 
  C        -0.06216          2.38408        -1.56637 
  C         1.20263          1.69050        -0.77903 
  C         1.44071         -0.26638        -1.20272 
  C         0.66244         -1.54769        -0.13638 
  C        -0.79015         -1.42026         1.69629 
  C        -2.33726         -0.99338         1.95477 
  H         2.16100          2.65734         0.28473 
  H         2.73132         -0.53330        -2.49052 
  H         1.17985         -2.70130        -0.34271 
  H        -0.42695         -1.51764         2.87383 
  H        -3.18404         -0.56006         3.32165 
  H        -2.84262         -0.89962         0.75755 
  H        -0.18951          3.79506        -1.18383 
  H        -0.81368          1.58415        -2.82225 
14
 geom =          10 
  C         0.99369          2.50453        -0.03331 
  C         0.61287          1.53785        -1.00734 
  C         1.26123         -0.15746        -0.96761 
  C         0.55803         -1.45083        -0.14028 
  C        -0.95661         -1.43784         1.10854 
  C        -2.37278         -1.13389         0.98832 
  H         0.15235          2.11455        -2.11865 
  H         2.36265         -0.24844        -1.77032 
  H         1.19999         -2.56981        -0.06674 
  H        -0.92506         -1.83024         2.27984 
  H        -3.33495         -0.95108         1.88055 
  H        -2.66828         -0.98945        -0.34336 
  H         0.74390          3.89933        -0.40797 
  H         1.32021          2.21537         1.16246 
14
 geom =          11 
  C        -1.38292          0.30221         1.99202 
  C        -1.12419          1.47023         1.35344 
  C         0.72521          1.68269         0.45640 
  C         1.47537          0.27871        -0.62137 
  C         0.79417         -1.61248        -1.20314 
  C        -0.33267         -1.96091        -1.96403 
  H        -2.26138          2.35467         1.49164 
  H         1.28079          2.91552         0.83366 
  H         2.74197          0.39983        -1.04742 
  H         1.30855         -2.81835        -0.85908 
  H        -0.76269         -3.66123        -2.21393 
  H        -0.78477         -0.76647        -2.40023 
  H        -2.89003          0.16882         2.47322 
  H        -0.47910         -0.50467         1.56319 
14
 geom =          12 
  C        -3.40508          1.89601         0.70523 
  C        -0.53832          1.30975         0.16172 
  C         1.58784          0.91693         1.81942 
  C         2.10769         -0.44364         1.53613 
  C         0.45313         -1.71013        -0.59645 
  C         0.11904         -1.99604        -3.49030 
  H         0.36938          1.21661        -1.91819 
  H         2.56515          1.72774         3.74198 
  H         3.56914         -0.58873         3.35856 
  H        -0.53448         -2.40758         0.57537 
  H        -1.56916         -2.91769        -4.76300 
  H         1.43579         -1.31892        -4.72367 
  H        -4.99610          2.39420        -0.72790 
  H        -4.70408          2.21742         2.83923 
14
 geom =          13 
  C         1.02354          2.37253         0.25333 
  C         0.49316          1.54241        -0.72758 
  C         1.12836         -0.02268        -0.94935 
  C         0.51860         -1.33906        -0.15360 
  C        -0.85374         -1.50995         0.82980 
  C        -2.22340         -1.10988         0.63231 
  H        -0.27523          2.14403        -1.46489 
  H         2.26347         -0.12554        -1.52080 
  H         1.25019         -2.32125        -0.37594 
  H        -0.94992         -1.98080         1.92400 
  H        -3.11141         -1.13080         1.64745 
  H        -2.57813         -1.02894        -0.32266 
  H         0.60217          3.47135         0.29030 
  H         1.76786          1.76574         1.19400 
14
 geom =          14 
  C        -0.25670          1.20164         2.79387 
  C        -0.55077          1.39004         0.85002 
  C         0.48860          1.17761        -1.07727 
  C         1.03703         -0.17727        -1.87729 
  C         0.55865         -1.66475        -0.84415 
  C        -1.21740         -1.86828        -0.07936 
  H        -1.76021          1.89092         0.85895 
  H         1.11183          2.11659        -1.72886 
  H         2.07721         -0.15669        -3.15941 
  H         1.95898         -2.73822        -0.69501 
  H        -1.13783         -2.89232         0.72868 
  H        -2.60892         -0.81862        -0.44788 
  H        -1.07774          1.67320         4.32160 
  H         0.72859          0.22219         2.91234 
14
 geom =          15 
  C         0.44535          2.93171        -2.11534 
  C         2.33379          1.84195        -1.90443 
  C         1.94103         -1.03414        -2.25422 
  C         0.20616         -2.38362        -0.25775 
  C        -1.51395         -1.25134         2.80227 
  C        -3.28721         -0.37758         3.63219 
  H         4.49275          3.46865        -1.54454 
  H         3.43045         -1.97901        -4.08091 
  H         0.38080         -4.38123        -0.77189 
  H        -1.32748         -0.94249         4.37186 
  H        -4.36107          0.93705         5.63831 
  H        -3.61094         -0.59385         2.10173 
  H         0.91260          5.33179        -1.66508 
  H        -1.40864          1.41230        -2.89026 
14
 geom =          16 
  C        -1.30432          1.79699         0.28374 
  C        -0.16531          1.37203         0.69721 
  C         1.03535          0.78781        -0.18048 
  C         1.23702         -0.55454        -0.52546 
  C         0.32486         -1.67138        -0.05191 
  C        -0.99559         -1.71565        -0.24428 
  H         0.14958          1.59989         1.66903 
  H         1.96956          1.42281        -0.30510 
  H         2.23776         -0.89328        -1.18365 
  H         0.79895         -2.58254         0.49469 
  H        -1.91648         -2.66687         0.26990 
  H        -1.21513         -0.96807        -0.85276 
  H        -1.94796          2.14164         0.97638 
  H        -1.64921          1.76466        -0.81608 
14
 geom =          17 
  C         0.02202          2.52542        -0.93748 
  C         0.02763          1.39799        -0.18144 
  C         1.17037          0.30945         0.17334 
  C         0.94180         -1.05653         0.49329 
  C        -0.46749         -1.67609         0.71553 
  C        -1.52861         -1.52994        -0.19853 
  H        -0.92089          1.01846         0.07004 
  H         2.28118          0.39027         0.28589 
  H         1.90272         -1.68322         0.90799 
  H        -0.78667         -2.22415         1.68350 
  H        -2.76695         -1.82272         0.18373 
  H        -1.23360         -1.37716        -1.25845 
  H        -1.15521          3.05813        -1.28360 
  H         0.70480          2.99435        -1.36016 
14
 geom =          18 
  C        -1.30261          2.22429         0.76624 
  C        -0.24295          1.23625         0.76135 
  C         0.97686          0.74893        -0.40281 
  C         1.29850         -0.53760        -0.74105 
  C         0.46837         -1.72870        -0.26419 
  C        -1.04342         -1.94065        -0.18738 
  H        -0.36710          0.50494         1.69328 
  H         1.75794          1.43684        -0.68137 
  H         2.31581         -0.79192        -1.35270 
  H         1.25198         -2.81508         0.17171 
  H        -1.19971         -2.73274         0.40335 
  H        -2.03388         -1.00384        -0.97118 
  H        -2.37868          2.37140         1.53894 
  H        -1.19029          3.00046         0.00631 
14
 geom =          19 
  C        -2.17027          2.20659         1.85017 
  C        -1.31864          0.96461         1.58270 
  C         0.67451          1.39833         0.91116 
  C         1.74129          0.09447        -0.46989 
  C         1.14084         -2.07306        -1.41030 
  C         0.09908         -2.52261        -2.43585 
  H        -2.03121         -0.50576         1.75286 
  H         1.31382          2.86987         1.88381 
  H         3.14884          0.37427        -0.63060 
  H         1.48114         -3.33428        -1.20749 
  H        -0.50501         -4.30134        -3.11140 
  H        -0.19127         -1.26962        -3.02109 
  H        -3.74367          1.77530         2.20245 
  H        -1.46014          3.57746         1.79798 
14
 geom =          20 
  C         1.01164          2.67818        -0.38745 
  C         0.82443          1.57218        -1.23625 
  C         1.34136         -0.31236        -0.91484 
  C         0.54196         -1.63342         0.20813 
  C        -1.19016         -1.42388         1.32579 
  C        -2.44158         -0.99760         0.90881 
  H         0.29298          2.12605        -2.43126 
  H         2.67843         -0.65819        -1.36224 
  H         1.17102         -2.87839         0.44019 
  H        -1.38527         -1.53280         2.78056 
  H        -3.47042         -0.58631         1.92414 
  H        -2.30012         -0.92569        -0.38536 
  H         0.59241          3.94554        -0.88804 
  H         1.37644          1.90271         1.06364 
14
 geom =          21 
  C         0.09955          2.72787        -0.59497 
  C         0.08285          1.35836        -0.36843 
  C         1.20352          0.16858        -0.03335 
  C         0.90089         -1.17903         0.43900 
  C        -0.55557         -1.58381         0.73993 
  C        -1.61417         -1.58331        -0.17817 
  H        -1.00983          0.99969        -0.19898 
  H         2.34526          0.46844         0.01223 
  H         1.76333         -1.92339         1.06455 
  H        -0.72650         -2.08150         1.87666 
  H        -2.68710         -1.87183         0.20092 
  H        -1.41444         -1.24107        -1.40437 
  H        -0.88678          3.43771        -0.91918 
  H         1.22098          3.30042        -0.67954 
14
 geom =          22 
  C        -0.87231          2.53034         0.02957 
  C         0.25589          1.41633        -0.57175 
  C         1.42217          0.16016         0.22306 
  C         1.16453         -1.17593         0.70579 
  C        -0.46783         -1.59750         0.53604 
  C        -1.33047         -1.42144        -0.87082 
  H         0.32171          1.29936        -1.83863 
  H         2.66744          0.28994         0.63815 
  H         2.10053         -1.83235         1.74124 
  H        -1.10199         -2.10322         1.71907 
  H        -2.68639         -1.56118        -0.92587 
  H        -0.88807         -1.16279        -2.15759 
  H        -1.42237          3.80870        -0.76529 
  H        -1.04008          2.31057         0.97060 
14
 geom =          23 
  C        -2.01486         -0.41329         3.37994 
  C        -2.37025          1.27070         2.32263 
  C         0.16007          2.56373         1.53152 
  C         1.97076          1.15734        -0.66415 
  C         1.62070         -1.70516        -2.52082 
  C         0.76639         -2.60138        -4.03003 
  H        -4.72551          1.54174         1.86742 
  H         0.47024          4.56352         2.97105 
  H         3.63338          2.19092        -0.83475 
  H         2.08546         -3.54402        -2.72865 
  H         0.38964         -5.02171        -4.99449 
  H         0.51416         -0.92330        -4.09633 
  H        -4.20426         -1.26687         4.24587 
  H         0.25447         -0.78061         3.34238 
14
 geom =          24 
  C        -2.00476          2.06796        -0.22857 
  C        -1.24669          1.17327         1.48957 
  C         0.85668          1.31569         1.67350 
  C         1.74842         -0.09163         0.67873 
  C         0.78071         -1.95626        -0.76891 
  C         0.06224         -2.45380        -2.60449 
  H        -2.27655          0.23527         2.87343 
  H         1.68186          2.58527         2.91215 
  H         3.07120          0.19053         1.15098 
  H         0.53474         -3.24125        -0.27896 
  H        -0.79869         -3.95468        -3.88887 
  H         0.37319         -1.34586        -3.64840 
  H        -3.77681          1.62711        -0.42314 
  H        -1.15158          3.24569        -1.55498 
14
 geom =          25 
  C         2.02252          1.57283         2.15309 
  C         0.31478          1.60931        -0.16622 
  C         0.52751          0.37683        -2.48546 
  C         0.15370         -0.92451        -2.32712 
  C        -0.44056         -1.51166         0.34250 
  C        -2.56969         -1.13261         2.19294 
  H        -1.39533          2.61505        -0.42399 
  H         1.34819          0.60076        -4.70860 
  H         0.63776         -1.74627        -4.21256 
  H         1.11266         -2.01341         0.88627 
  H        -2.77024         -1.56275         4.21421 
  H        -4.30694         -0.60765         1.72478 
  H         1.56122          2.79131         3.50850 
  H         3.71437          0.03988         2.47006 
14
 geom =          26 
  C        -1.94796          1.19461         1.04484 
  C        -0.63622          1.33348         1.30182 
  C         0.80157          1.26461         0.09206 
  C         1.51819         -0.01782        -0.81609 
  C         0.89220         -1.67811        -0.78360 
  C        -0.44904         -1.95352        -0.92329 
  H        -0.47963          1.36159         2.52269 
  H         1.46261          2.50486        -0.02674 
  H         2.68416         -0.05174        -1.29556 
  H         1.50634         -2.90446        -0.34886 
  H        -1.02854         -3.53885        -0.75824 
  H        -1.18859         -1.11163        -1.11431 
  H        -3.03574          0.98741         2.07898 
  H        -2.05050          1.04568        -0.05395 
14
 geom =          27 
  C         1.36363          2.31865        -2.17466 
  C         0.95189          1.64902        -0.89890 
  C         1.30177         -0.28921        -0.78333 
  C         0.40028         -1.65632         0.39718 
  C        -1.28226         -1.30630         1.78327 
  C        -2.63459         -0.83831         1.64026 
  H         0.22351          2.60184         0.12423 
  H         2.59994         -0.81259        -1.41300 
  H         0.99309         -2.90189         0.77392 
  H        -1.23970         -1.57037         3.14492 
  H        -3.79408         -0.34298         2.82583 
  H        -2.61161         -0.94495         0.44478 
  H         0.63972          3.81562        -2.45115 
  H         1.98885          1.61468        -3.01840 
14
 geom =          28 
  C        -1.70371          2.51358         1.54954 
  C        -0.89525          1.09125         0.83466 
  C         0.92014          1.03598         0.79484 
  C         1.56647         -0.37860        -0.00476 
  C         0.57456         -2.01634        -0.91543 
  C        -0.31572         -2.22812        -2.24530 
  H        -1.60397         -0.07321         0.26519 
  H         1.78354          2.01858         1.72962 
  H         2.82778         -0.36408         0.42226 
  H         0.55418         -2.97607        -0.29706 
  H        -1.12500         -3.42407        -2.82425 
  H        -0.09722         -1.16280        -3.19553 
  H        -3.17116          2.45226         1.34129 
  H        -0.91360          3.31794         2.39698 
14
 geom =          29 
  C         0.97859          2.80839        -1.90453 
  C         0.53153          1.51290        -0.91541 
  C         1.47471         -0.29706         0.16022 
  C         0.60749         -1.58754         1.17837 
  C        -1.23953         -1.50545         1.46919 
  C        -2.18915         -1.09987         0.12822 
  H        -0.80755          1.93725        -0.83142 
  H         2.76197         -0.51859         0.30404 
  H         1.29261         -2.66079         2.18373 
  H        -2.07879         -1.67666         2.99151 
  H        -3.59322         -0.90960         0.19854 
  H        -1.45682         -0.88006        -1.65109 
  H        -0.11390          3.98724        -2.73383 
  H         2.04579          2.73068        -1.84443 
14
 geom =          30 
  C        -2.75067          1.20806        -0.39043 
  C        -0.16006          1.65262        -0.17833 
  C         1.72358          0.81271         1.45591 
  C         1.78494         -0.58142         1.65890 
  C         0.03384         -1.45251         0.13175 
  C        -0.35021         -1.61351        -2.51382 
  H         0.77828          2.91836        -1.22791 
  H         2.86677          1.47070         2.80428 
  H         2.94155         -1.10564         3.36280 
  H        -1.14204         -2.09843         1.27070 
  H        -2.06531         -2.20819        -3.20108 
  H         0.78576         -1.15951        -3.81431 
  H        -3.89562          2.29827        -1.67152 
  H        -3.62274         -0.42479         0.52310 
14
 geom =          31 
  C        -1.75668          1.91579         2.48893 
  C        -0.96182          1.05003         1.47174 
  C         0.60017          1.35876        -0.21695 
  C         1.48041          0.00823        -1.46158 
  C         1.16329         -1.97847        -1.33062 
  C        -0.33685         -2.28603        -1.09827 
  H        -1.61075         -0.11587         1.93863 
  H         1.09886          2.68729        -0.37347 
  H         2.72411          0.32436        -2.30044 
  H         2.07049         -3.33965        -1.28641 
  H        -0.62893         -3.74889        -0.57520 
  H        -1.53362         -1.38300        -1.30121 
  H        -3.08967          1.47314         3.32540 
  H        -1.27679          3.28860         2.32141 
14
 geom =          32 
  C         3.39790          3.21094         1.72720 
  C         0.55566          1.27042        -0.13723 
  C         0.29136         -0.13577        -3.38684 
  C        -0.28204         -1.45689        -3.00248 
  C        -0.77791         -1.76475         0.74902 
  C        -3.29468         -1.28749         3.65525 
  H        -2.03327          0.87524         0.75182 
  H         1.08453         -0.01590        -6.33295 
  H         0.19258         -2.56247        -5.62303 
  H         1.49997         -2.44454         0.98109 
  H        -3.02423         -1.43258         6.31159 
  H        -5.81253         -0.77074         3.41163 
  H         3.15520          4.37039         4.37040 
  H         6.24503          3.92921         0.83719 
14
 geom =          33 
  C         0.56706          2.07166        -2.67981 
  C         1.31645          1.83522        -1.47061 
  C         1.67832         -0.47059        -0.70036 
  C         0.50701         -1.75526         0.86185 
  C        -1.32055         -1.19324         2.20976 
  C        -2.54601         -0.63603         1.73860 
  H         1.35069          3.31813        -0.75244 
  H         3.06932         -0.93412        -1.23406 
  H         1.01536         -3.34436         1.52963 
  H        -1.68003         -1.14518         3.93747 
  H        -3.82582          0.20659         3.12162 
  H        -2.47319         -0.95265         0.22530 
  H        -0.33311          3.68760        -3.08846 
  H         0.46665          0.93035        -3.25566 
14
 geom =          34 
  C        -1.96848          0.57527         2.09853 
  C        -0.73190          1.37067         1.63895 
  C         0.65522          1.55843        -0.34272 
  C         1.51657          0.25375        -1.50835 
  C         1.14026         -1.68525        -1.18243 
  C        -0.45788         -1.98339        -0.77974 
  H        -0.58821          2.01943         2.63935 
  H         1.16380          2.85725        -0.61572 
  H         2.69984          0.40695        -2.85074 
  H         2.39355         -2.88219        -1.15889 
  H        -0.57681         -3.32889        -0.48772 
  H        -1.59256         -0.61702        -0.95522 
  H        -2.96808          0.29061         3.45071 
  H        -2.36415          0.18761         0.88095 
14
 geom =          35 
  C        -1.08402          1.58859         0.20112 
  C         0.33088          1.57647         0.24361 
  C         1.19797          0.59850        -0.56652 
  C         1.10082         -0.75964        -0.49409 
  C        -0.00162         -1.52830         0.34432 
  C        -1.37043         -1.48791         0.24572 
  H         0.71197          2.31007         0.95192 
  H         2.21597          0.96334        -1.24881 
  H         1.95722         -1.49484        -1.04469 
  H         0.50952         -2.37419         0.92469 
  H        -2.11795         -1.89536         0.95142 
  H        -1.84939         -0.73850        -0.50802 
  H        -1.68599          2.34019         0.95461 
  H        -1.80986          1.03577        -0.67326 
14
 geom =          36 
  C        -0.46528          2.23744         2.00993 
  C        -0.49005          1.23514         0.80972 
  C         0.67160          0.86861        -0.72687 
  C         1.03257         -0.46193        -1.39928 
  C         0.42171         -1.89423        -0.60641 
  C        -1.10020         -2.03768        -0.20314 
  H        -1.44488          0.50389         0.87291 
  H         1.28340          1.90953        -1.47901 
  H         2.01493         -0.51461        -2.42656 
  H         1.48095         -2.74195        -0.13027 
  H        -1.26785         -2.87145         0.24856 
  H        -2.09957         -0.87528        -0.77273 
  H        -1.37904          2.32128         2.96332 
  H         0.57375          2.89596         2.10671 
14
 geom =          37 
  C        -2.66523          1.06862         1.33520 
  C        -1.37599          1.15019         1.98989 
  C         0.64347          1.76325         0.86130 
  C         1.85641          0.44805        -0.68078 
  C         1.45911         -1.88402        -1.45354 
  C         0.25104         -2.34935        -2.06805 
  H        -1.56588          0.51777         3.39743 
  H         1.20578          3.12384         1.45278 
  H         3.17276          0.94881        -1.26879 
  H         2.12490         -3.39598        -1.44894 
  H        -0.14029         -4.24976        -2.02871 
  H        -0.38793         -1.38465        -2.20321 
  H        -4.08877          0.28144         2.29826 
  H        -2.33195          1.81408        -0.00833 
14
 geom =          38 
  C        -1.25551          1.57880         1.99935 
  C        -0.78342          1.24045         0.70012 
  C         0.83913          1.17683         0.15376 
  C         1.35363         -0.16852        -0.52255 
  C         0.56761         -1.77281        -0.83467 
  C        -0.62163         -2.01339        -1.59295 
  H        -1.60292          0.93385         0.04475 
  H         1.53089          2.21624         0.56221 
  H         2.55627         -0.27933        -0.52228 
  H         1.10115         -2.75909        -0.34017 
  H        -1.15217         -3.17548        -1.59642 
  H        -0.88810         -1.04764        -2.27538 
  H        -2.49812          1.94578         2.23853 
  H        -0.23632          1.67282         3.04378 
14
 geom =          39 
  C         0.34704          1.16803         1.68399 
  C         1.03201          1.78576        -0.73815 
  C         1.05135          0.18808        -2.52383 
  C         0.44366         -1.16219        -1.92511 
  C        -0.41331         -1.27709         0.77127 
  C        -2.39966         -0.76942         2.38167 
  H         1.60035          3.66397        -1.55759 
  H         2.24404          0.05047        -4.26041 
  H         1.07435         -2.03560        -3.32065 
  H         0.77582         -1.62790         1.70863 
  H        -2.67341         -0.66986         4.42329 
  H        -3.95592         -0.38773         1.50397 
  H         0.50228          2.42961         3.18951 
  H        -0.29545         -0.62669         2.48554 
14
 geom =          40 
  C         1.65925          3.12873         0.75684 
  C         0.41604          1.28788        -0.08311 
  C         0.73929          0.04021        -1.90496 
  C         0.22859         -1.30933        -1.53972 
  C        -0.59294         -1.76160         0.65896 
  C        -2.44097         -1.49995         1.95696 
  H        -0.97817          0.77320         0.69791 
  H         1.72374          0.09733        -3.82042 
  H         0.82145         -2.28578        -3.25915 
  H         0.55008         -2.42852         1.20607 
  H        -2.65613         -1.91278         3.49410 
  H        -3.83852         -0.89177         1.30661 
  H         1.07087          4.02114         2.12482 
  H         3.19636          3.98624         0.09747 
14
 geom =          41 
  C        -1.74571          0.36728         2.00258 
  C        -0.70416          1.41002         1.42817 
  C         0.74393          1.59191        -0.21386 
  C         1.41238          0.18275        -1.37780 
  C         0.96841         -1.61368        -1.09561 
  C        -0.53592         -1.82450        -0.83701 
  H        -1.08521          2.14244         2.31628 
  H         1.31824          2.80660        -0.32585 
  H         2.55540          0.47638        -2.55327 
  H         1.97769         -2.87303        -0.96380 
  H        -0.54551         -3.14676        -0.45293 
  H        -1.67664         -0.63377        -1.32509 
  H        -2.49635          0.59961         3.34008 
  H        -1.70318         -0.72734         1.07902 
14
 geom =          42 
  C         3.44036          2.03144        -0.33704 
  C         1.53675          1.91752        -1.86075 
  C         1.16617         -0.69161        -2.66914 
  C        -0.36726         -2.00133        -0.88648 
  C        -1.98985         -1.13142         2.18313 
  C        -3.81716         -0.29094         3.37339 
  H         0.08370          4.06703        -2.63142 
  H         2.32789         -1.34011        -4.96310 
  H        -0.14100         -3.75146        -1.78880 
  H        -1.37707         -1.14775         3.51118 
  H        -4.52757          0.54578         5.64227 
  H        -4.65383         -0.39807         2.11774 
  H         4.00137          4.09012        -0.12356 
  H         4.65583         -0.08354         0.58174 
14
 geom =          43 
  C         2.31995          2.10828         0.34256 
  C         0.78244          1.68277        -0.88671 
  C         0.91427         -0.24078        -1.96980 
  C         0.08306         -1.53157        -1.03354 
  C        -1.16844         -1.41327         1.17400 
  C        -2.93409         -0.76746         2.17248 
  H        -0.94814          2.79648        -1.23087 
  H         2.10927         -0.43298        -3.48037 
  H         0.54501         -2.59265        -2.00994 
  H        -0.49609         -1.61701         2.24526 
  H        -3.60962         -0.36485         4.07879 
  H        -3.80809         -0.63615         1.07943 
  H         2.31038          3.77153         0.94966 
  H         3.93082          1.00625         0.76329 
14
 geom =          44 
  C        -1.51467          0.89976         2.36509 
  C        -1.08972          1.37810         1.02618 
  C         0.71179          1.46141         0.41322 
  C         1.50462          0.13323        -0.64171 
  C         0.84551         -1.68868        -1.24024 
  C        -0.28643         -2.11971        -2.04568 
  H        -2.49885          1.97299         0.45190 
  H         1.43306          2.48017         1.01128 
  H         2.78448          0.33509        -0.71397 
  H         1.23437         -2.74037        -0.82659 
  H        -0.94250         -3.45534        -1.87540 
  H        -0.69752         -0.95752        -2.44338 
  H        -2.87674          1.36374         2.76907 
  H        -0.47516          0.23725         3.09440 
14
 geom =          45 
  C        -0.61798          1.04230         2.24495 
  C        -0.52183          1.41086         0.78635 
  C         0.74773          1.16299        -0.52327 
  C         1.11526         -0.19984        -1.17282 
  C         0.42631         -1.55664        -0.79569 
  C        -1.02547         -1.79426        -0.65332 
  H        -1.47178          1.94274         0.38836 
  H         1.51562          1.79198        -0.75037 
  H         2.13424         -0.37446        -2.02537 
  H         1.22162         -2.60316        -0.51481 
  H        -1.50414         -2.74238        -0.24373 
  H        -1.94241         -0.81819        -1.20379 
  H        -1.59728          1.62220         3.11401 
  H         0.16647          0.40192         2.59178 
14
 geom =          46 
  C        -0.05953          1.98583         0.44848 
  C         0.85777          1.66012        -0.83002 
  C         1.35789          0.03777        -1.25419 
  C         0.74281         -1.31035        -0.49049 
  C        -0.63223         -1.41269         0.90512 
  C        -2.13280         -1.00623         1.10286 
  H         1.35399          2.73029        -1.45410 
  H         2.51063         -0.04748        -2.05570 
  H         1.41554         -2.27019        -0.98035 
  H        -0.46005         -1.67086         2.09087 
  H        -2.99432         -1.04370         2.27513 
  H        -2.62990         -0.97174        -0.03195 
  H        -0.13569          3.11864         0.61482 
  H        -0.65602          0.69771         0.95005 
14
 geom =          47 
  C         0.93522          1.34205         1.72954 
  C         1.22803          1.85550        -1.02299 
  C         1.15942          0.03527        -2.81206 
  C         0.21355         -1.33287        -1.91193 
  C        -0.74357         -1.23735         0.96077 
  C        -2.78144         -0.73010         2.73474 
  H         1.75514          3.75369        -1.90260 
  H         2.33235         -0.27947        -4.84832 
  H         0.72818         -2.45604        -3.50634 
  H         0.55141         -1.56120         1.75498 
  H        -2.98445         -0.34563         4.85991 
  H        -4.12242         -0.47372         1.71475 
  H         1.32174          2.83590         3.08441 
  H         0.28435         -0.66924         2.67920 
14
 geom =          48 
  C        -0.30728          2.61938         0.81974 
  C        -0.13802          1.23018         0.45871 
  C         0.93548          0.51298        -0.54468 
  C         0.96133         -0.84364        -0.79400 
  C         0.03061         -1.83464        -0.04432 
  C        -1.39244         -1.72742         0.05054 
  H        -0.87991          0.55898         0.89395 
  H         1.70355          1.11591        -0.91076 
  H         1.90184         -1.31943        -1.26649 
  H         0.79292         -2.72908         0.45936 
  H        -1.85301         -2.40786         0.49141 
  H        -2.09202         -0.99141        -0.86150 
  H        -1.30888          2.82087         1.15396 
  H         0.66697          3.46634         0.68365 
14
 geom =          49 
  C        -1.68122          0.26496         1.51179 
  C        -0.95865          1.57547         0.89773 
  C         0.84831          1.49192         0.71444 
  C         1.56784          0.12881        -0.08915 
  C         0.67648         -1.49428        -0.89760 
  C        -0.30898         -1.87272        -2.12279 
  H        -1.72334          2.72247         0.39159 
  H         1.64637          2.54186         1.32276 
  H         2.88019          0.24875         0.11266 
  H         0.71159         -2.58964        -0.31479 
  H        -1.01925         -2.92924        -2.33222 
  H        -0.36948         -0.71907        -3.07222 
  H        -2.97429          0.54177         1.83079 
  H        -0.86510         -0.93893         1.88962 
14
 geom =          50 
  C        -0.45015          2.30724        -1.45886 
  C        -0.26761          1.44037         0.18226 
  C         1.17015          0.49509         0.90083 
  C         1.13124         -0.87815         1.10784 
  C        -0.35844         -1.71114         0.51796 
  C        -1.12737         -1.72619        -1.07740 
  H        -1.14355          1.36935         1.01744 
  H         2.19520          0.89630         1.50237 
  H         2.32947         -1.28340         2.04173 
  H        -0.77888         -2.17582         1.76812 
  H        -2.48155         -2.12126        -1.49886 
  H        -0.44605         -1.14233        -2.27252 
  H        -1.47370          2.84694        -1.94920 
  H         0.63355          2.47743        -2.66620 
14
 geom =          51 
  C        -3.89245          1.11536         1.04252 
  C        -0.75247          1.40213         0.32450 
  C         1.63873          1.28620         2.09599 
  C         2.24281         -0.11804         1.62215 
  C         0.66796         -1.61693        -0.84977 
  C         0.37452         -2.01202        -4.05913 
  H         0.25269          2.03959        -1.89468 
  H         2.62756          2.18946         4.54661 
  H         3.67094         -0.07992         3.51406 
  H        -0.41375         -2.63060         0.10927 
  H        -1.07782         -3.09207        -5.63159 
  H         1.76225         -1.19037        -5.40225 
  H        -5.32950          1.68132        -0.59863 
  H        -4.81815          0.40686         3.25698 
14
 geom =          52 
  C         0.29327          2.51918        -2.14665 
  C         1.68515          1.76945        -1.20618 
  C         1.66318         -0.57181        -1.55881 
  C         0.45005         -1.91680        -0.08140 
  C        -1.14064         -1.34621         2.18971 
  C        -2.78632         -0.60633         2.71739 
  H         2.79825          2.75985         0.13243 
  H         2.99518         -1.20684        -3.12530 
  H         0.89312         -3.29453        -0.33910 
  H        -0.95143         -1.35620         3.61092 
  H        -3.93982         -0.06521         4.33107 
  H        -3.19579         -0.74989         1.63933 
  H         0.09254          4.26964        -1.92168 
  H        -0.65450          1.46058        -3.30378 
14
 geom =          53 
  C        -2.26495         -0.82082         0.90617 
  C        -1.94057          1.58247         1.83457 
  C         0.66392          2.27037         2.23445 
  C         1.96928          0.94828         0.77099 
  C         1.15954         -1.50026        -1.56354 
  C         0.57196         -2.22030        -3.97844 
  H        -3.95748          3.10310         2.62539 
  H         1.26463          3.88568         4.21648 
  H         3.62135          1.50939         1.50238 
  H         0.81729         -3.05585        -1.26896 
  H        -0.31601         -4.07413        -5.51062 
  H         1.25351         -0.77051        -4.73538 
  H        -4.41890         -1.38224         0.72790 
  H        -0.16104         -2.31051         0.00968 
14
 geom =          54 
  C        -2.04499          1.63073         2.04789 
  C        -0.26569          1.19715         1.18618 
  C         0.79268          1.08679        -0.97103 
  C         1.39030         -0.20331        -1.85682 
  C         1.01678         -1.73820        -0.80219 
  C        -0.75050         -1.96847         0.16969 
  H         0.53599          1.01192         2.07640 
  H         1.43888          2.18781        -1.60396 
  H         2.31837         -0.22675        -3.35170 
  H         2.41206         -2.78957        -0.75062 
  H        -0.75847         -3.14886         1.26714 
  H        -2.27033         -1.03433        -0.03045 
  H        -2.52409          1.62742         3.86068 
  H        -2.80355          2.31639         1.22875 
14
 geom =          55 
  C        -1.61201          0.73173         1.41496 
  C        -0.44660          1.50613         1.01464 
  C         0.84385          1.32855        -0.48469 
  C         1.29605         -0.04393        -1.09186 
  C         0.73518         -1.57463        -0.52408 
  C        -0.66625         -1.85482        -0.41401 
  H        -0.33047          2.37863         1.63129 
  H         1.53627          2.30718        -0.93399 
  H         2.36111         -0.21326        -2.21231 
  H         1.73635         -2.75103        -0.29743 
  H        -0.96075         -3.04619         0.16605 
  H        -1.69011         -0.80529        -0.74162 
  H        -2.46191          0.96500         2.79912 
  H        -1.98054          0.05653         0.60225 
14
 geom =          56 
  C        -1.37091          2.74465        -0.38698 
  C         0.19015          1.40793        -0.68074 
  C         1.64869          0.12578         0.58732 
  C         1.32619         -1.21490         1.15434 
  C        -0.45008         -1.65330         0.64307 
  C        -1.11747         -1.48333        -1.22936 
  H         0.21946          1.17814        -2.13804 
  H         2.77267          0.29885         1.44156 
  H         2.29241         -1.83795         2.30785 
  H        -1.11301         -1.96934         2.12833 
  H        -2.71973         -1.87422        -1.35427 
  H        -0.20014         -1.48750        -2.67612 
  H        -2.26855          3.77351        -1.57756 
  H        -1.68278          2.79037         0.82375 
14
 geom =          57 
  C        -2.31761          0.74038         0.96003 
  C        -1.22645          1.33939         1.82957 
  C         0.69254          1.70441         0.88648 
  C         1.76310          0.37902        -0.39814 
  C         1.23447         -1.71950        -1.20383 
  C         0.04946         -2.29621        -1.99882 
  H        -1.92335          1.51636         3.36435 
  H         1.12384          3.20509         1.46346 
  H         3.06426          0.68869        -0.92582 
  H         1.77159         -3.08256        -1.18354 
  H        -0.34909         -3.94305        -2.46759 
  H        -0.41869         -1.11908        -2.51866 
  H        -3.76925          0.17939         1.80381 
  H        -1.82896          0.79778        -0.43315 
14
 geom =          58 
  C        -0.75042          2.55969        -0.02431 
  C         0.26038          1.34443         0.25418 
  C         0.99848          0.41088        -0.87286 
  C         0.97786         -0.89968        -0.75820 
  C         0.11411         -1.79741         0.44581 
  C        -1.47308         -1.65922         0.83592 
  H         0.52046          0.89725         1.30631 
  H         1.83427          0.87977        -1.63372 
  H         1.89454         -1.45043        -1.69208 
  H         0.90787         -2.36582         1.14003 
  H        -2.06203         -2.26406         1.97631 
  H        -2.18605         -1.37084         0.15451 
  H        -1.39130          3.20904         1.10884 
  H        -1.03494          2.95732        -0.93684 
14
 geom =          59 
  C        -2.46725          1.89703         1.21376 
  C        -1.27095          1.04176         1.74744 
  C         0.72477          1.50461         1.02214 
  C         1.80983          0.13706        -0.41498 
  C         1.19676         -2.03678        -1.33526 
  C         0.14685         -2.47593        -2.26872 
  H        -1.72486         -0.21387         2.73219 
  H         1.21303          2.90945         1.79660 
  H         3.22992          0.55026        -0.41212 
  H         1.80852         -3.23520        -0.96178 
  H        -0.46834         -4.05246        -2.74256 
  H        -0.20410         -1.23943        -2.57038 
  H        -3.97915          1.39192         2.01371 
  H        -1.54337          3.08203         0.56883 
14
 geom =          60 
  C        -1.52071          1.27814         1.37185 
  C         0.10191          1.53552         0.49533 
  C         0.99784          0.86359        -1.14364 
  C         1.21141         -0.44478        -1.42345 
  C         0.56779         -1.52566        -0.10868 
  C        -1.18963         -1.66994         0.64714 
  H         0.85940          2.11175         1.21004 
  H         1.67651          1.64640        -2.03275 
  H         2.07170         -0.94310        -2.81433 
  H         1.59887         -2.32794         0.40080 
  H        -1.20564         -2.45784         1.62423 
  H        -2.50333         -0.84437         0.09924 
  H        -1.79929          1.79362         2.68866 
  H        -2.70725          0.58210         0.74805 
14
 geom =          61 
  C        -0.22472          3.57860        -1.53308 
  C         0.52049          1.40884        -1.25356 
  C         1.70026         -0.37888         0.61053 
  C         0.93309         -1.75431         1.74855 
  C        -1.11917         -1.69232         1.39577 
  C        -1.63827         -1.40282        -0.79672 
  H         0.03972          1.10787        -2.54117 
  H         3.05176         -0.60383         1.30922 
  H         1.71747         -2.83224         3.16684 
  H        -2.27044         -1.75618         3.09147 
  H        -3.28380         -1.01518        -0.95484 
  H        -0.42738         -1.18066        -2.69510 
  H        -0.78180          4.85327        -3.10577 
  H        -0.09133          4.29738        -0.31419 
14
 geom =          62 
  C         1.55051          2.57636        -1.67289 
  C         0.78016          1.63896        -0.84834 
  C         1.21099         -0.30283        -0.86756 
  C         0.36678         -1.58755         0.25265 
  C        -1.24529         -1.42490         1.63816 
  C        -2.61820         -1.08574         1.48433 
  H        -0.27756          2.36753        -0.22154 
  H         2.53792         -0.48741        -1.74235 
  H         0.98462         -2.91041         0.37328 
  H        -1.24017         -1.52448         2.90350 
  H        -3.55883         -0.48674         2.76114 
  H        -2.84498         -0.70764         0.08748 
  H         0.98855          3.98007        -1.60941 
  H         2.87492          1.98180        -2.38947 
14
 geom =          63 
  C        -0.52234          2.10094        -1.76418 
  C        -0.31762          1.40796         0.19564 
  C         1.27597          0.47209         1.20768 
  C         1.25474         -0.85011         1.47381 
  C        -0.43285         -1.61613         0.55613 
  C        -1.10216         -1.58983        -1.46023 
  H        -1.30580          1.63593         1.18117 
  H         2.39006          1.10528         2.28433 
  H         2.22291         -1.46318         2.51037 
  H        -1.16613         -2.19480         1.66831 
  H        -2.56163         -2.14250        -1.85988 
  H        -0.23434         -1.03011        -2.57671 
  H        -1.73439          2.83314        -2.72579 
  H         0.53348          2.15088        -2.97037 
14
 geom =          64 
  C        -2.82427          2.87577         0.07659 
  C        -0.40421          1.18178        -0.06889 
  C         1.66569          0.57414         1.72392 
  C         1.92850         -0.80151         1.69819 
  C         0.15939         -1.81499        -0.19896 
  C        -0.24144         -2.03347        -3.08392 
  H         0.18846          0.00298        -1.60888 
  H         2.80518          1.27030         3.61477 
  H         3.22887         -1.22314         3.67000 
  H        -1.16667         -2.54078         1.03552 
  H        -1.81763         -2.82384        -4.22606 
  H         1.16528         -1.55424        -4.55948 
  H        -4.11721          3.09557        -1.52525 
  H        -3.66619          3.99096         1.84866 
14
 geom =          65 
  C        -0.99837          2.49090        -0.42770 
  C         0.35132          1.50632        -0.72907 
  C         1.55294          0.18989         0.21975 
  C         1.10539         -1.20194         0.88838 
  C        -0.51002         -1.58449         0.78474 
  C        -1.31236         -1.47667        -0.70373 
  H         0.74684          1.77720        -1.82146 
  H         2.65928          0.32976         0.69027 
  H         1.99631         -1.95362         1.62623 
  H        -0.99254         -1.90805         2.19757 
  H        -2.81021         -1.62214        -0.46592 
  H        -0.76401         -1.39897        -1.86662 
  H        -1.56153          3.49279        -1.36716 
  H        -1.52503          2.18851         0.62144 
14
 geom =          66 
  C        -1.37064          1.82934         2.68332 
  C        -1.02852          1.08224         1.44399 
  C         0.51626          1.40361        -0.12683 
  C         1.45006          0.01572        -1.30934 
  C         1.00254         -1.93525        -1.42448 
  C        -0.43787         -2.28477        -1.41886 
  H        -2.03302          0.10910         1.51099 
  H         1.10606          2.65927        -0.14191 
  H         2.73738          0.28730        -2.28937 
  H         1.87256         -3.20883        -1.29885 
  H        -0.43835         -4.08578        -1.17986 
  H        -1.54043         -1.28236        -1.63968 
  H        -2.87216          1.66451         4.03608 
  H        -0.40281          2.53521         2.81616 
14
 geom =          67 
  C         2.42232          2.53364        -1.61291 
  C         1.03684          1.70789        -1.23729 
  C         1.21858         -0.52410        -1.35207 
  C         0.09177         -1.82568         0.03418 
  C        -1.62006         -1.32806         1.92734 
  C        -3.11974         -0.73602         2.17317 
  H        -0.43944          2.69028        -1.05938 
  H         2.57356         -1.02293        -2.36320 
  H         0.47109         -3.19999        -0.12488 
  H        -1.62002         -1.49153         3.37783 
  H        -3.93775         -0.23379         3.69989 
  H        -3.44193         -0.80033         0.73214 
  H         2.17670          4.32428        -1.80039 
  H         3.86364          1.78737        -1.65672 
14
 geom =          68 
  C        -0.61643          2.63916        -0.01039 
  C         1.46135          1.56994        -0.67350 
  C         1.44130         -0.29200        -2.21079 
  C         0.64114         -1.60088        -1.35181 
  C        -0.41600         -1.44869         1.28693 
  C        -2.37653         -1.03200         2.69651 
  H         3.43829          2.17279         0.05890 
  H         2.52775         -0.44766        -4.06494 
  H         1.12011         -2.78311        -2.41488 
  H         0.47968         -1.84544         2.21029 
  H        -2.92123         -0.50646         4.84815 
  H        -3.51236         -0.82945         1.94520 
  H        -0.13155          4.08245         1.39754 
  H        -2.60728          2.11674        -0.84588 
14
 geom =          69 
  C        -2.05805          1.80300         3.14931 
  C        -1.61330          0.95180         1.98847 
  C         0.32519          1.76886         0.52242 
  C         1.74505          0.38515        -1.17669 
  C         1.48569         -2.09428        -1.99945 
  C         0.22612         -2.73454        -2.53795 
  H        -2.69311         -0.45415         2.21775 
  H         0.77705          3.40962         1.16007 
  H         3.20545          0.92918        -1.82064 
  H         2.50126         -3.60895        -2.15662 
  H        -0.12782         -4.63523        -3.00275 
  H        -0.49247         -1.44484        -2.77865 
  H        -3.52343          1.48400         3.91848 
  H        -0.96603          3.36731         3.10450 
14
 geom =          70 
  C        -2.42201         -0.54355         3.59225 
  C        -2.46329          1.34334         2.09480 
  C         0.32552          2.54041         1.91591 
  C         2.12731          1.15519        -0.26830 
  C         1.61693         -1.71422        -2.64572 
  C         0.96158         -2.52878        -4.67766 
  H        -4.74250          2.16945         0.96819 
  H         0.80393          4.57950         3.89248 
  H         3.92595          2.20231         0.20435 
  H         1.91197         -3.35300        -2.66538 
  H        -0.09245         -4.68142        -6.05000 
  H         1.29587         -0.98144        -4.84084 
  H        -4.90617         -1.45089         3.86388 
  H         0.06316         -1.49192         4.49297 
14
 geom =          71 
  C        -0.85179          1.14491         1.24057 
  C         0.02279          1.52062         0.14082 
  C         1.05602          0.82847        -0.80477 
  C         1.12392         -0.52263        -0.90630 
  C         0.14093         -1.47038         0.02542 
  C        -1.34284         -1.48877         0.13680 
  H         0.19086          2.62001         0.04588 
  H         2.04205          1.26543        -1.28436 
  H         2.02673         -0.99010        -1.55798 
  H         0.95165         -2.21990         0.67352 
  H        -2.00581         -2.24348         0.99053 
  H        -2.07872         -0.81823        -0.30661 
  H        -1.68905          2.01154         1.95481 
  H        -1.21354          0.22912         1.47955 
14
 geom =          72 
  C        -2.88950         -0.30489         0.91694 
  C        -1.06286          1.63206         0.71568 
  C         1.27677          1.68615         1.89453 
  C         1.97514          0.32365         1.11955 
  C         0.69811         -1.39542        -0.97815 
  C         0.26386         -1.77446        -3.54017 
  H        -1.29161          3.49995        -0.32745 
  H         2.22314          2.85557         3.78494 
  H         3.48451          0.44150         2.44912 
  H        -0.03827         -2.25406        -0.01380 
  H        -1.14858         -2.97928        -4.82359 
  H         1.12794         -0.87409        -4.49025 
  H        -4.73537         -0.20150        -0.00635 
  H        -2.73797         -2.47928         1.89771 
14
 geom =          73 
  C         0.59685          3.11678        -1.13719 
  C         0.62211          1.47220        -1.20058 
  C         1.50408         -0.38990        -0.11138 
  C         0.74115         -1.70580         0.95710 
  C        -1.17004         -1.52579         1.34447 
  C        -2.13194         -1.15018         0.11707 
  H        -0.20387          1.40978        -2.28177 
  H         2.84876         -0.57671         0.05911 
  H         1.45783         -2.96173         1.91126 
  H        -1.91371         -1.52753         2.96937 
  H        -3.56684         -0.78513         0.67901 
  H        -1.65107         -1.19207        -1.36006 
  H        -0.03152          4.32653        -1.98843 
  H         1.12759          3.48367         0.37504 
14
 geom =          74 
  C        -1.01472          2.18583        -0.38426 
  C        -0.36763          1.28024         0.57008 
  C         1.05468          0.68218         0.40167 
  C         1.32783         -0.62781         0.14911 
  C         0.12396         -1.73369         0.03963 
  C        -0.96872         -1.78368        -0.77041 
  H        -0.79532          1.06326         1.59191 
  H         1.86958          1.33226         0.64643 
  H         2.40460         -1.14282         0.37824 
  H         0.22808         -2.56301         0.80713 
  H        -1.81458         -2.64008        -0.74546 
  H        -1.03806         -1.15951        -1.73537 
  H        -2.25510          2.41903        -0.02828 
  H        -0.45088          2.65433        -0.98396 
14
 geom =          75 
  C        -1.20759          2.68351        -0.33769 
  C         0.22423          1.39692        -0.61356 
  C         1.57704          0.15443         0.57352 
  C         1.23587         -1.16332         1.06887 
  C        -0.48790         -1.64341         0.62096 
  C        -1.16711         -1.55107        -1.19898 
  H         0.41068          1.18224        -1.79306 
  H         2.85696          0.54137         1.19742 
  H         2.20573         -1.91558         2.29782 
  H        -1.23153         -2.11301         1.80988 
  H        -2.45114         -1.83528        -1.77758 
  H        -0.27069         -1.12595        -2.76392 
  H        -1.83416          3.91162        -1.28172 
  H        -1.76559          2.81954         0.96312 
14
 geom =          76 
  C        -0.92158          2.41075         0.42020 
  C        -0.39203          1.25413         0.74579 
  C         0.85561          0.68016         0.05992 
  C         1.21870         -0.63081        -0.38721 
  C         0.27653         -1.82995        -0.18810 
  C        -0.96213         -1.92935        -0.62061 
  H        -0.62436          0.64428         1.53893 
  H         1.73753          1.52859        -0.06595 
  H         2.28374         -0.93999        -0.65273 
  H         0.66772         -2.77397         0.39173 
  H        -1.62161         -2.80213        -0.36522 
  H        -1.24758         -1.09719        -1.42542 
  H        -1.80295          2.90947         0.57086 
  H        -0.28733          3.06817        -0.34939 
14
 geom =          77 
  C        -1.86501          0.21792         2.31817 
  C        -0.98496          1.37245         1.73834 
  C         0.61781          1.77578        -0.09196 
  C         1.50831          0.43716        -1.49339 
  C         1.17541         -1.67798        -1.40681 
  C        -0.31072         -1.98534        -1.13680 
  H        -1.48162          2.19066         2.83968 
  H         1.21254          2.99033        -0.24629 
  H         2.84369          0.62476        -2.90169 
  H         2.19200         -3.02031        -1.46882 
  H        -0.33974         -3.43478        -0.95288 
  H        -1.60956         -0.54233        -1.49020 
  H        -2.82824          0.09884         3.67473 
  H        -1.66724         -0.57516         1.40877 
14
 geom =          78 
  C        -0.21701          1.44057         1.42704 
  C         0.19928          1.57428        -0.11720 
  C         1.00531          0.54925        -1.11345 
  C         0.85568         -0.74032        -1.04398 
  C        -0.09503         -1.47816         0.16182 
  C        -1.65200         -1.34900         0.52464 
  H        -0.15130          2.67035        -0.75259 
  H         1.91287          0.99564        -1.78215 
  H         1.70869         -1.31649        -1.71801 
  H         0.64015         -1.95508         1.07442 
  H        -2.08717         -1.84204         1.41440 
  H        -2.46943         -0.92756        -0.32584 
  H        -0.70375          2.42652         1.83616 
  H         0.00313         -0.01101         2.17351 
14
 geom =          79 
  C        -0.84848          1.33344         1.16591 
  C         0.33163          1.59396         0.06402 
  C         1.17452          0.59864        -1.07578 
  C         1.01288         -0.74304        -1.08491 
  C         0.00605         -1.44364         0.23257 
  C        -1.54248         -1.34128         0.56969 
  H         0.92969          2.76328        -0.04268 
  H         2.16842          0.93518        -1.83946 
  H         1.83052         -1.25489        -1.96720 
  H         0.85940         -2.18261         0.80425 
  H        -2.06286         -1.94296         1.62453 
  H        -2.50263         -0.77262        -0.05324 
  H        -1.17487          2.19343         1.91708 
  H        -1.64567          0.28413         1.08785 
14
 geom =          80 
  C        -1.55440          3.38364        -0.51816 
  C        -0.39638          1.10380         0.03425 
  C         1.37669          0.31238         1.58854 
  C         1.56149         -0.98297         1.54951 
  C        -0.16639         -1.92414        -0.00926 
  C        -0.59226         -2.03525        -2.46519 
  H        -0.89070         -0.38683        -0.83503 
  H         2.49858          0.90921         3.17588 
  H         2.69421         -1.44657         3.13886 
  H        -1.27187         -2.42420         1.21937 
  H        -2.08736         -2.33648        -3.28834 
  H         0.55161         -1.20557        -4.01388 
  H        -2.73198          3.63741        -2.00685 
  H        -1.48842          4.95143         0.46910 
14
 geom =          81 
  C        -1.47690          2.48249         1.80196 
  C         0.62280          1.29197         0.34808 
  C         1.03756          0.41735        -2.17318 
  C         0.99249         -0.97936        -2.29508 
  C         0.56750         -1.74389         0.11700 
  C        -1.58248         -1.53235         1.95114 
  H         2.47094          0.90668         0.99475 
  H         1.71038          1.06415        -4.05079 
  H         1.75607         -1.52893        -4.42108 
  H         2.11030         -2.40003         0.42731 
  H        -1.45483         -2.06109         3.93498 
  H        -3.72124         -0.87999         1.69295 
  H        -1.50997          2.62925         3.64691 
  H        -3.27972          3.02990         0.75468 
14
 geom =          82 
  C        -1.20466          0.58380         2.59623 
  C         0.11597          1.60795         0.74230 
  C         0.76102          1.08311        -1.79983 
  C         1.00378         -0.22083        -2.29979 
  C         0.69734         -1.46426        -0.50061 
  C        -1.28917         -1.51137         0.95211 
  H         0.94051          2.89449         1.26550 
  H         1.59371          1.72061        -3.22639 
  H         1.79446         -0.47246        -4.25840 
  H         2.43360         -2.43804        -0.40050 
  H        -1.08452         -2.52918         2.45443 
  H        -3.06336         -0.42988         0.78469 
  H        -1.49722          0.91629         4.67874 
  H        -2.12145         -0.59599         2.39086 
14
 geom =          83 
  C        -1.32263          1.89237         0.95261 
  C         0.58834          1.47974         0.13217 
  C         1.10539          0.47649        -1.55626 
  C         1.02566         -0.90075        -1.49415 
  C         0.28620         -1.58306         0.30654 
  C        -1.50500         -1.38398         1.45319 
  H         1.94656          1.90558         0.88475 
  H         1.87081          1.05177        -3.08646 
  H         1.82288         -1.41944        -2.83832 
  H         1.32596         -2.33709         0.90169 
  H        -1.93716         -1.95343         2.95481 
  H        -2.80407         -1.07200         0.86968 
  H        -1.63007          2.49308         2.35768 
  H        -2.71548          1.56011         0.40961 
14
 geom =          84 
  C         2.24972          2.67189        -3.69084 
  C         2.03185          1.95635        -1.82801 
  C         1.68206         -1.08014        -1.85727 
  C        -0.14287         -2.40519         0.32519 
  C        -2.06890         -1.18202         3.19623 
  C        -3.69567         -0.16248         3.76664 
  H         1.97260          3.86773         0.02023 
  H         3.19686         -2.16613        -3.54512 
  H         0.06328         -4.44494         0.32302 
  H        -1.98467         -0.73564         4.96085 
  H        -4.68652          1.11293         5.74876 
  H        -3.94590         -0.51305         2.24653 
  H         2.25948          4.78772        -3.53831 
  H         2.45543          0.49342        -5.16664 
14
 geom =          85 
  C        -1.96296          0.83464         0.19115 
  C        -0.98400          1.35038         1.34542 
  C         0.87494          1.46926         1.09607 
  C         1.61634          0.16533         0.16999 
  C         0.81301         -1.65072        -0.77564 
  C        -0.18022         -2.05323        -1.95308 
  H        -1.60795          1.58319         2.86338 
  H         1.65095          2.54837         1.92253 
  H         2.96868          0.08242         0.49580 
  H         0.97216         -2.72072        -0.38796 
  H        -0.94468         -3.40558        -2.24130 
  H        -0.28172         -1.00260        -2.61877 
  H        -3.31868          0.70201         0.54313 
  H        -1.54925          0.83488        -1.45731 
14
 geom =          86 
  C        -1.52123          2.33362        -0.11981 
  C         0.06630          1.46084        -0.44860 
  C         1.49298          0.33862         0.58752 
  C         1.34343         -0.99057         0.89135 
  C        -0.20504         -1.63159         0.43429 
  C        -0.97683         -1.57356        -1.30451 
  H         0.58348          1.74665        -1.71609 
  H         2.61257          0.74528         1.27580 
  H         2.35960         -1.62399         1.71930 
  H        -0.90891         -2.08661         1.75444 
  H        -2.44324         -2.07002        -1.17404 
  H        -0.38580         -1.38964        -2.40874 
  H        -2.35328          3.32626        -1.01758 
  H        -1.84281          2.09832         1.08740 
14
 geom =          87 
  C        -3.18929          1.34800         1.58132 
  C        -1.87757          0.99344         2.62175 
  C         0.47308          2.05404         1.49048 
  C         2.15631          0.68739        -0.49357 
  C         1.81746         -2.04599        -2.00051 
  C         0.80338         -2.83457        -3.09229 
  H        -2.52983         -0.26464         4.30928 
  H         0.82537          3.90359         2.62874 
  H         3.77364          1.48118        -0.92838 
  H         2.32027         -3.92664        -2.30356 
  H         0.68272         -5.22614        -3.98738 
  H         0.33864         -1.34917        -3.53952 
  H        -5.02156          0.35543         2.44896 
  H        -2.57412          2.61575         0.09477 
14
 geom =          88 
  C        -1.95945          2.33885         0.40787 
  C        -0.13846          1.33458        -0.10799 
  C         1.42108          0.53868         0.90200 
  C         1.59625         -0.82806         0.92966 
  C        -0.00405         -1.67951        -0.08742 
  C        -0.68761         -1.75608        -1.98892 
  H         0.13417          1.08777        -1.38990 
  H         2.50956          0.97531         2.06348 
  H         2.62778         -1.23657         1.97983 
  H        -0.61504         -2.24608         1.06730 
  H        -1.94265         -2.33318        -2.42382 
  H         0.10896         -1.18985        -3.54149 
  H        -2.92691          2.89025        -0.41417 
  H        -2.60979          2.66647         2.00102 
14
 geom =          89 
  C        -2.03468         -0.28228         3.06892 
  C        -2.27406          1.30806         2.59768 
  C         0.11670          2.54341         1.18148 
  C         1.89369          1.15651        -0.98451 
  C         1.74601         -1.77792        -2.52030 
  C         0.64850         -2.64734        -3.43227 
  H        -4.26072          1.67066         3.49350 
  H         0.52493          4.28308         2.22342 
  H         3.56205          2.23721        -1.34971 
  H         2.63031         -3.53958        -2.74605 
  H         0.35080         -5.03546        -4.25844 
  H        -0.13114         -1.10611        -3.30476 
  H        -3.72805         -1.16268         4.93033 
  H        -0.09392         -0.92710         2.07224 
14
 geom =          90 
  C         0.23851          2.40726        -0.89363 
  C         1.64096          1.77160        -1.65228 
  C         1.74374         -0.52740        -1.67588 
  C         0.52237         -1.88009        -0.03044 
  C        -1.26430         -1.27100         1.93874 
  C        -2.71724         -0.66206         2.23200 
  H         2.96177          3.20680        -2.14918 
  H         3.10070         -1.11966        -2.91255 
  H         0.90376         -3.57284        -0.25455 
  H        -1.34650         -1.12018         3.41728 
  H        -3.71507          0.19997         3.65306 
  H        -3.05702         -0.71376         0.76776 
  H         0.29938          4.07757        -0.86102 
  H        -1.10157          0.96858        -0.68982 
14
 geom =          91 
  C        -1.90101          0.51863         0.39643 
  C        -0.97699          1.50290         1.28734 
  C         0.83820          1.51893         1.04059 
  C         1.70317          0.11923         0.06574 
  C         0.78568         -1.60149        -0.77272 
  C        -0.25354         -1.94027        -1.94197 
  H        -1.73951          2.22827         2.47958 
  H         1.53323          2.73919         1.69418 
  H         2.89316          0.22685         0.24182 
  H         0.76343         -2.75253        -0.22865 
  H        -0.80181         -3.12796        -2.32216 
  H        -0.39770         -0.85254        -2.69868 
  H        -3.28551          0.35533         0.74162 
  H        -1.29493         -0.22192        -0.80620 
14
 geom =          92 
  C         1.05183          2.47497        -1.80704 
  C         0.78319          1.55606        -0.64248 
  C         1.20138         -0.20704        -0.85265 
  C         0.48412         -1.55626         0.06247 
  C        -0.98771         -1.46921         1.52190 
  C        -2.43502         -0.90182         1.67703 
  H         0.12355          2.19933         0.42494 
  H         2.38785         -0.27098        -1.91370 
  H         1.17256         -2.70706        -0.21229 
  H        -0.79086         -1.80317         2.77678 
  H        -3.52336         -0.72610         3.22187 
  H        -2.73902         -1.20545         0.66830 
  H         0.33700          3.90129        -1.53739 
  H         1.86691          1.84292        -2.94275 
14
 geom =          93 
  C         0.51516          2.76157        -1.67981 
  C         1.67555          1.79667        -1.93502 
  C         1.87088         -0.84770        -1.13138 
  C         0.45574         -2.18136         0.70802 
  C        -1.59097         -1.23007         2.24572 
  C        -2.77509         -0.56447         1.76488 
  H         2.64429          3.24265        -3.02251 
  H         3.19348         -1.35010        -2.22842 
  H         0.89395         -3.83801         1.20581 
  H        -2.11012         -0.89300         3.97210 
  H        -4.17359          0.35825         3.06662 
  H        -2.49420         -0.86596         0.11858 
  H         0.59774          5.00321        -1.94630 
  H        -0.35413          1.50482        -0.83724 
14
 geom =          94 
  C        -1.62593          1.49968         1.99299 
  C         0.34870          1.47350         0.61314 
  C         0.90955          0.80471        -1.81818 
  C         1.07712         -0.51170        -2.21540 
  C         0.68751         -1.62976        -0.18535 
  C        -1.26093         -1.62781         1.30902 
  H         1.83212          2.06367         1.19043 
  H         1.67891          1.32367        -3.19345 
  H         2.02302         -0.84946        -4.05311 
  H         2.31452         -2.44407         0.10265 
  H        -1.35842         -2.29173         2.84111 
  H        -2.98165         -0.92396         1.06724 
  H        -1.86065          1.93953         3.94823 
  H        -3.26866          1.07951         1.71655 
14
 geom =          95 
  C        -2.38155          0.26279         1.30491 
  C        -0.87082          1.61592         0.61410 
  C         1.07724          1.44352         1.18514 
  C         1.80487          0.15329         0.53850 
  C         0.60583         -1.53668        -0.80160 
  C        -0.05018         -1.87577        -2.76577 
  H        -1.14703          3.12214        -0.53372 
  H         1.95673          2.42108         2.47983 
  H         3.14719          0.23806         1.11711 
  H         0.26683         -2.41727         0.05584 
  H        -1.21907         -3.00318        -3.52202 
  H         0.55610         -0.91240        -3.69445 
  H        -3.94155          0.79772         0.87605 
  H        -1.82821         -0.99777         2.32441 
14
 geom =          96 
  C        -0.42216          2.62128         0.36294 
  C        -0.25587          1.31495         0.40099 
  C         0.90846          0.53316        -0.22422 
  C         1.04947         -0.84615        -0.40088 
  C         0.07872         -1.83265         0.08892 
  C        -1.24503         -1.80305        -0.24452 
  H        -1.05645          0.60958         0.78103 
  H         1.85915          1.02420        -0.32385 
  H         2.02775         -1.18323        -0.80836 
  H         0.57257         -2.55820         0.70622 
  H        -2.03526         -2.55759         0.26008 
  H        -1.65681         -1.42568        -0.99837 
  H        -1.46567          3.03053         0.67108 
  H         0.40118          3.20895        -0.08791 
14
 geom =          97 
  C        -2.02067          0.38404        -0.18714 
  C        -1.34103          1.44401         1.54100 
  C         0.89741          1.65796         1.83885 
  C         1.82302          0.34463         0.78680 
  C         0.77705         -1.56742        -0.95302 
  C         0.06728         -2.10752        -2.86047 
  H        -2.56907          2.14095         3.04361 
  H         1.67340          2.83635         3.36320 
  H         3.09933          0.49911         1.52521 
  H         0.35487         -2.86763        -0.47214 
  H        -0.82905         -3.50942        -3.92651 
  H         0.33936         -0.83698        -3.72576 
  H        -3.84508         -0.03168         0.02063 
  H        -0.64337         -0.08601        -1.80643 
14
 geom =          98 
  C        -2.36763          3.34863        -0.40111 
  C        -0.25692          1.24615        -0.28691 
  C         1.61779          0.31693         1.67410 
  C         1.75882         -1.05104         1.91277 
  C        -0.11858         -1.94653         0.18859 
  C        -0.37735         -2.03782        -2.86900 
  H         0.37266          0.14460        -2.02576 
  H         2.84868          0.87744         3.43793 
  H         3.00571         -1.44783         3.65988 
  H        -1.40518         -2.49831         1.47936 
  H        -2.07080         -2.68462        -3.85976 
  H         1.09757         -1.58860        -4.32322 
  H        -3.57407          4.20371        -2.32033 
  H        -3.32650          4.46740         1.34898 
14
 geom =          99 
  C        -0.52655          1.99906        -0.21633 
  C         1.12779          1.67908        -0.74753 
  C         1.50606         -0.01697        -1.41195 
  C         0.80916         -1.42085        -0.61654 
  C        -0.57580         -1.39421         1.20916 
  C        -2.20109         -0.93482         1.65065 
  H         2.32738          2.69338        -0.54634 
  H         2.66377         -0.27143        -2.49459 
  H         1.49774         -2.41143        -1.24902 
  H        -0.11026         -1.74060         2.24997 
  H        -2.87944         -0.83652         3.03539 
  H        -2.79497         -0.72833         0.67452 
  H        -0.59697          3.24712         0.62657 
  H        -1.77043          1.10496        -0.71719 
