17
asd
  C          -0.21098235118591     -0.02303988191631      0.02494924977023
  C          -0.09852100146396     -0.17043626012210      1.52540425985594
  C          -1.01305728170323     -1.00441164820938      2.15193412604910
  C          -1.19564323886564     -1.27515616236865      3.59652122260917
  O          -2.43279474566260     -0.71526763092146      4.09809410212680
  O          -2.27929683294416      0.73212554914739      4.14405974086004
  C           0.93752780277448      0.53301041002223      2.11043978213790
  O           1.24498729039428      0.45490144667160      3.43258212947799
  H          -1.75174460993231     -1.47279598336034      1.50993310032733
  H           1.57250341608132      1.17266775647271      1.51160610610670
  H           0.45138327926246      0.74752766012073     -0.36348714583206
  H           0.04243301856674     -0.95558342661148     -0.47887279460747
  H          -1.22671059958423      0.23798367349790     -0.26812858871577
  H          -0.37058743692635     -0.93897739283007      4.21401077940271
  H          -1.35867223783999     -2.34207376109937      3.77424140979839
  H           1.95151293948662      1.07838873008288      3.62956165169477
  H          -2.48519741045751      0.97054692142370      3.22497086893814
