2
Coordinates from ORCA-job opt_O2_B97-3c E -150.273303635645
  O       0.000000      0.000000      0.000000
  O       0.000000      0.000000      1.200000
2
Coordinates from ORCA-job opt_O2_B97-3c E -150.273670201967
  O       0.000000      0.000000     -0.006537
  O       0.000000      0.000000      1.206537
2
Coordinates from ORCA-job opt_O2_B97-3c E -150.273687144372
  O       0.000000      0.000000     -0.008212
  O       0.000000      0.000000      1.208212
2
Coordinates from ORCA-job opt_O2_B97-3c E -150.273687200749
  O       0.000000      0.000000     -0.008314
  O       0.000000      0.000000      1.208314
2
Coordinates from ORCA-job opt_O2_B97-3c E -150.273687200719
  O       0.000000      0.000000     -0.008315
  O       0.000000      0.000000      1.208315
