2
Coordinates from ORCA-job opt_O2_wB97X-3ch-3c E -31.982111580974
  O       0.000000      0.000000      0.000000
  O       0.000000      0.000000      1.200000
2
Coordinates from ORCA-job opt_O2_wB97X-3ch-3c E -31.982115789234
  O       0.000000      0.000000      0.000740
  O       0.000000      0.000000      1.199260
2
Coordinates from ORCA-job opt_O2_wB97X-3ch-3c E -31.982115807187
  O       0.000000      0.000000      0.000791
  O       0.000000      0.000000      1.199209
2
Coordinates from ORCA-job opt_O2_wB97X-3ch-3c E -31.982115807195
  O       0.000000      0.000000      0.000791
  O       0.000000      0.000000      1.199209
