2
Coordinates from ORCA-job opt_O2_PEBh-3c E -150.013343743235
  O       0.000000      0.000000      0.000000
  O       0.000000      0.000000      1.200000
2
Coordinates from ORCA-job opt_O2_PEBh-3c E -150.013532692679
  O       0.000000      0.000000      0.004977
  O       0.000000      0.000000      1.195023
2
Coordinates from ORCA-job opt_O2_PEBh-3c E -150.013533117705
  O       0.000000      0.000000      0.005231
  O       0.000000      0.000000      1.194769
2
Coordinates from ORCA-job opt_O2_PEBh-3c E -150.013533118255
  O       0.000000      0.000000      0.005222
  O       0.000000      0.000000      1.194778
