16
Coordinates from ORCA-job 15-hexadiene_m062xD3_ma-def2-TZVP_opt_freq
  C   1.51605244074021      0.10762243370442     -0.21363676702396
  C   -1.51607826904787      0.10671648972492      0.21364303463076
  C   0.71841433455704     -1.06158260105698      0.27423657571441
  C   -2.09286946994258      1.01060962426333     -0.56275905297060
  C   2.09220198710156      1.01191721337762      0.56277387520346
  C   -0.71773669633559     -1.06200129186578     -0.27425110043566
  H   1.20702042197164     -1.98967752425909     -0.03631982656046
  H   -2.65365648022583      1.83912591474552     -0.15054685437614
  H   0.69624161603367     -1.06039074620053      1.36711224469947
  H   -2.02153235630425      0.95128334035850     -1.64312534850329
  H   2.02082632910075      0.95257973959871      1.64313712796493
  H   -0.69556645504927     -1.06078657575901     -1.36712627699101
  H   2.65247625752097      1.84078117507809      0.15056307431116
  H   -1.20579395612227     -1.99038812838697      0.03629909075421
  H   1.60089882166881      0.20552684385500     -1.29372278899770
  H   -1.60090552566699      0.20460009282225      1.29373199258041
