13
This is a temporary strucutre for Sparrow to calculate energy and gradient
  C         0.00000          0.00000         1.33500
  C         0.00000          0.00000         0.00000
  C        -1.29904          0.00000        -0.75000
  C        -1.29904          0.00000        -2.08500
  C        -2.59808          0.00000         0.00000
  H         0.94310          0.00000        -0.54450
  H         0.94310          0.00000         1.87950
  H        -0.94310          0.00000         1.87950
  H        -2.24214          0.00000        -2.62950
  H        -0.35594          0.00000        -2.62950
  H        -3.41136          0.00000        -0.69532
  H        -2.65476         -0.87365         0.61516
  H        -2.65476          0.87365         0.61410
