14
 step=          21 Ene =          -57.38914775 GradMax =            0.00029208 
  C         0.01861          0.00004         0.00496
  C        -0.00043          0.00006         1.40835
  C         1.21112          0.00002         2.10138
  C         2.42238         -0.00002         1.39923
  C         2.43043          0.00002        -0.00084
  C         1.22733          0.00005        -0.70843
  H        -0.95727          0.00012         1.94128
  H         1.21222         -0.00000         3.19174
  H         3.36658         -0.00010         1.94688
  H         3.37750          0.00001        -0.54124
  H         1.21489          0.00006        -1.80358
  N        -1.26178         -0.00004        -0.73750
  O        -1.20936         -0.00004        -1.95695
  O        -2.29406         -0.00017        -0.08607
