13
 step=           1 Ene =          -26.46065122 GradMax =            0.02951834 
  C         0.00420          0.00000         1.33153
  C        -0.02038         -0.00000         0.00212
  C        -1.27836         -0.00000        -0.74558
  C        -1.29751          0.00000        -2.08880
  C        -2.58077          0.00000        -0.00713
  H         0.94216         -0.00000        -0.54934
  H         0.93701          0.00000         1.88208
  H        -0.93743         -0.00000         1.88349
  H        -2.23593         -0.00000        -2.63270
  H        -0.36282         -0.00000        -2.63148
  H        -3.42539         -0.00000        -0.70134
  H        -2.65839         -0.88429         0.62383
  H        -2.65839          0.88429         0.62383
13
 step=           2 Ene =          -26.46503609 GradMax =            0.01531611 
  C         0.00316          0.00000         1.33706
  C        -0.01150         -0.00000         0.00029
  C        -1.28170         -0.00000        -0.75811
  C        -1.29392          0.00000        -2.08336
  C        -2.57781          0.00000        -0.00775
  H         0.93375         -0.00000        -0.55079
  H         0.93296          0.00000         1.88516
  H        -0.93001         -0.00000         1.88921
  H        -2.23000          0.00000        -2.63612
  H        -0.36718         -0.00000        -2.63749
  H        -3.42869          0.00000        -0.70082
  H        -2.66053         -0.88738         0.62660
  H        -2.66053          0.88738         0.62660
13
 step=           3 Ene =          -26.46578614 GradMax =            0.01628953 
  C         0.00335          0.00000         1.33451
  C        -0.01292         -0.00000         0.00278
  C        -1.27991         -0.00000        -0.75187
  C        -1.29312          0.00000        -2.09045
  C        -2.57745          0.00000        -0.00780
  H         0.93183         -0.00000        -0.55249
  H         0.93161          0.00000         1.88723
  H        -0.92736         -0.00000         1.89240
  H        -2.22694          0.00000        -2.63787
  H        -0.36886         -0.00000        -2.64058
  H        -3.42982         -0.00000        -0.69999
  H        -2.66121         -0.88805         0.62732
  H        -2.66121          0.88805         0.62732
13
 step=           4 Ene =          -26.46622146 GradMax =            0.00762439 
  C         0.00366          0.00000         1.33522
  C        -0.01331          0.00000         0.00267
  C        -1.27929         -0.00000        -0.75369
  C        -1.29231          0.00000        -2.08950
  C        -2.57738          0.00000        -0.00755
  H         0.93016         -0.00000        -0.55377
  H         0.93049         -0.00000         1.88874
  H        -0.92521         -0.00000         1.89488
  H        -2.22496          0.00000        -2.63955
  H        -0.36975         -0.00000        -2.64333
  H        -3.43053         -0.00000        -0.69932
  H        -2.66178         -0.88848         0.62784
  H        -2.66178          0.88848         0.62784
13
 step=           5 Ene =          -26.46642701 GradMax =            0.00727190 
  C         0.00399          0.00000         1.33554
  C        -0.01380          0.00000         0.00307
  C        -1.27891         -0.00000        -0.75411
  C        -1.29128          0.00000        -2.09008
  C        -2.57718          0.00000        -0.00735
  H         0.92809         -0.00000        -0.55543
  H         0.92921          0.00000         1.89077
  H        -0.92252         -0.00000         1.89816
  H        -2.22237          0.00000        -2.64169
  H        -0.37091         -0.00000        -2.64685
  H        -3.43139         -0.00000        -0.69838
  H        -2.66247         -0.88892         0.62842
  H        -2.66247          0.88892         0.62842
13
 step=           6 Ene =          -26.46666090 GradMax =            0.00695534 
  C         0.00691          0.00000         1.33893
  C        -0.01793         -0.00000         0.00669
  C        -1.27811         -0.00000        -0.75786
  C        -1.28238          0.00000        -2.09468
  C        -2.57594         -0.00000        -0.00557
  H         0.91063          0.00000        -0.56989
  H         0.91939          0.00000         1.90843
  H        -0.89977         -0.00000         1.92703
  H        -2.20060          0.00000        -2.66081
  H        -0.38010         -0.00000        -2.67758
  H        -3.43814         -0.00000        -0.68974
  H        -2.66798         -0.89161         0.63277
  H        -2.66798          0.89161         0.63277
13
 step=           7 Ene =          -26.46810139 GradMax =            0.00435748 
  C         0.00942         -0.00000         1.34550
  C        -0.02453         -0.00000         0.01155
  C        -1.29187          0.00000        -0.75851
  C        -1.27732          0.00000        -2.09996
  C        -2.58246         -0.00000        -0.00438
  H         0.90144          0.00000        -0.58045
  H         0.92530          0.00000         1.92256
  H        -0.88825          0.00000         1.95305
  H        -2.19021          0.00000        -2.68069
  H        -0.37923         -0.00000        -2.70001
  H        -3.43838          0.00000        -0.67873
  H        -2.66796         -0.88408         0.63029
  H        -2.66796          0.88408         0.63029
13
 step=           8 Ene =          -26.46847909 GradMax =            0.00886089 
  C         0.01149         -0.00000         1.34641
  C        -0.02954         -0.00000         0.01214
  C        -1.27700          0.00000        -0.76842
  C        -1.27884          0.00000        -2.09673
  C        -2.57939         -0.00000        -0.00670
  H         0.89496          0.00000        -0.57891
  H         0.92317          0.00000         1.92084
  H        -0.88388          0.00000         1.95582
  H        -2.18635          0.00000        -2.68310
  H        -0.38183         -0.00000        -2.69837
  H        -3.44668          0.00000        -0.68163
  H        -2.66906         -0.88890         0.63458
  H        -2.66906          0.88890         0.63458
13
 step=           9 Ene =          -26.46852631 GradMax =            0.01440463 
  C         0.01049         -0.00000         1.34579
  C        -0.02700         -0.00000         0.01374
  C        -1.28274          0.00000        -0.75972
  C        -1.27752          0.00000        -2.10546
  C        -2.57821         -0.00000        -0.00781
  H         0.89401          0.00000        -0.57854
  H         0.92376          0.00000         1.92076
  H        -0.88274          0.00000         1.95700
  H        -2.18572          0.00000        -2.68380
  H        -0.38229         -0.00000        -2.69867
  H        -3.44656          0.00000        -0.68105
  H        -2.66873         -0.88836         0.63413
  H        -2.66873          0.88836         0.63413
13
 step=          10 Ene =          -26.46868816 GradMax =            0.01038004 
  C         0.01060         -0.00000         1.34675
  C        -0.02706         -0.00000         0.01346
  C        -1.28326          0.00000        -0.76365
  C        -1.27733          0.00000        -2.10179
  C        -2.57880         -0.00000        -0.00758
  H         0.89360          0.00000        -0.57853
  H         0.92392          0.00000         1.92067
  H        -0.88216          0.00000         1.95774
  H        -2.18567          0.00000        -2.68460
  H        -0.38190         -0.00000        -2.69919
  H        -3.44660          0.00000        -0.68081
  H        -2.66867         -0.88816         0.63401
  H        -2.66867          0.88816         0.63401
13
 step=          11 Ene =          -26.46877333 GradMax =            0.00201776 
  C         0.01060         -0.00000         1.34685
  C        -0.02739         -0.00000         0.01364
  C        -1.28366          0.00000        -0.76352
  C        -1.27718          0.00000        -2.10202
  C        -2.57907         -0.00000        -0.00761
  H         0.89327          0.00000        -0.57853
  H         0.92415          0.00000         1.92063
  H        -0.88167          0.00000         1.95847
  H        -2.18537          0.00000        -2.68517
  H        -0.38178         -0.00000        -2.69948
  H        -3.44674          0.00000        -0.68058
  H        -2.66858         -0.88801         0.63391
  H        -2.66858          0.88801         0.63391
13
 step=          12 Ene =          -26.46878383 GradMax =            0.00198885 
  C         0.01065         -0.00000         1.34715
  C        -0.02804         -0.00000         0.01389
  C        -1.28429          0.00000        -0.76363
  C        -1.27695          0.00000        -2.10218
  C        -2.57955         -0.00000        -0.00767
  H         0.89260          0.00000        -0.57851
  H         0.92456          0.00000         1.92051
  H        -0.88075          0.00000         1.95986
  H        -2.18476          0.00000        -2.68624
  H        -0.38156         -0.00000        -2.69997
  H        -3.44707          0.00000        -0.68020
  H        -2.66843         -0.88777         0.63376
  H        -2.66843          0.88777         0.63376
13
 step=          13 Ene =          -26.46880206 GradMax =            0.00193616 
  C         0.01087         -0.00000         1.34792
  C        -0.03022         -0.00000         0.01480
  C        -1.28580          0.00000        -0.76421
  C        -1.27639          0.00000        -2.10285
  C        -2.58072         -0.00000        -0.00804
  H         0.89029          0.00000        -0.57838
  H         0.92594          0.00000         1.91998
  H        -0.87780          0.00000         1.96442
  H        -2.18265          0.00000        -2.68960
  H        -0.38087         -0.00000        -2.70133
  H        -3.44856          0.00000        -0.67919
  H        -2.66804         -0.88729         0.63349
  H        -2.66804          0.88729         0.63349
13
 step=          14 Ene =          -26.46885454 GradMax =            0.00171043 
  C         0.01124         -0.00000         1.35034
  C        -0.03377         -0.00000         0.01552
  C        -1.28743          0.00000        -0.76588
  C        -1.27538          0.00000        -2.10482
  C        -2.58189         -0.00000        -0.00925
  H         0.88534          0.00000        -0.57774
  H         0.92872          0.00000         1.91810
  H        -0.87242         -0.00000         1.97284
  H        -2.17845          0.00000        -2.69554
  H        -0.37989         -0.00000        -2.70240
  H        -3.45258          0.00000        -0.67799
  H        -2.66775         -0.88743         0.63366
  H        -2.66775          0.88743         0.63366
13
 step=          15 Ene =          -26.46893108 GradMax =            0.00258646 
  C         0.01116         -0.00000         1.34803
  C        -0.03452         -0.00000         0.01856
  C        -1.28833          0.00000        -0.76628
  C        -1.27525          0.00000        -2.10467
  C        -2.58265         -0.00000        -0.00924
  H         0.88493          0.00000        -0.57784
  H         0.92959          0.00000         1.91761
  H        -0.87158         -0.00000         1.97446
  H        -2.17789          0.00000        -2.69675
  H        -0.37920         -0.00000        -2.70262
  H        -3.45290          0.00000        -0.67753
  H        -2.66767         -0.88713         0.63338
  H        -2.66767          0.88713         0.63338
13
 step=          16 Ene =          -26.46892926 GradMax =            0.00548145 
  C         0.01125         -0.00000         1.34998
  C        -0.03484         -0.00000         0.01668
  C        -1.28837          0.00000        -0.76602
  C        -1.27515          0.00000        -2.10486
  C        -2.58277         -0.00000        -0.00931
  H         0.88460          0.00000        -0.57773
  H         0.92967          0.00000         1.91734
  H        -0.87120          0.00000         1.97482
  H        -2.17768          0.00000        -2.69706
  H        -0.37908         -0.00000        -2.70260
  H        -3.45309          0.00000        -0.67745
  H        -2.66767         -0.88712         0.63335
  H        -2.66767          0.88712         0.63335
13
 step=          17 Ene =          -26.46895253 GradMax =            0.00122165 
  C         0.01126         -0.00000         1.35001
  C        -0.03503         -0.00000         0.01679
  C        -1.28852          0.00000        -0.76608
  C        -1.27510          0.00000        -2.10492
  C        -2.58287         -0.00000        -0.00935
  H         0.88438          0.00000        -0.57769
  H         0.92987          0.00000         1.91716
  H        -0.87093         -0.00000         1.97524
  H        -2.17748          0.00000        -2.69736
  H        -0.37895         -0.00000        -2.70258
  H        -3.45328          0.00000        -0.67737
  H        -2.66768         -0.88710         0.63332
  H        -2.66768          0.88710         0.63332
13
 step=          18 Ene =          -26.46895608 GradMax =            0.00119724 
  C         0.01133         -0.00000         1.35023
  C        -0.03573         -0.00000         0.01705
  C        -1.28899          0.00000        -0.76627
  C        -1.27494          0.00000        -2.10512
  C        -2.58325         -0.00000        -0.00949
  H         0.88362          0.00000        -0.57758
  H         0.93055          0.00000         1.91652
  H        -0.87000          0.00000         1.97669
  H        -2.17677          0.00000        -2.69839
  H        -0.37849         -0.00000        -2.70250
  H        -3.45392          0.00000        -0.67713
  H        -2.66771         -0.88706         0.63324
  H        -2.66771          0.88706         0.63324
13
 step=          19 Ene =          -26.46896796 GradMax =            0.00112184 
  C         0.01192          0.00000         1.35310
  C        -0.04307         -0.00000         0.01924
  C        -1.29387         -0.00000        -0.76812
  C        -1.27291          0.00000        -2.10745
  C        -2.58739         -0.00000        -0.01127
  H         0.87533         -0.00000        -0.57626
  H         0.93796          0.00000         1.90925
  H        -0.85980          0.00000         1.99195
  H        -2.16909         -0.00000        -2.70927
  H        -0.37366          0.00000        -2.70100
  H        -3.46090          0.00000        -0.67462
  H        -2.66826         -0.88683         0.63247
  H        -2.66826          0.88683         0.63247
13
 step=          20 Ene =          -26.46906303 GradMax =            0.00127277 
  C         0.01278          0.00000         1.34592
  C        -0.04510         -0.00000         0.02769
  C        -1.29513         -0.00000        -0.77128
  C        -1.27337          0.00000        -2.10493
  C        -2.58886         -0.00000        -0.01082
  H         0.87408         -0.00000        -0.57669
  H         0.94077          0.00000         1.90591
  H        -0.85741          0.00000         1.99516
  H        -2.16656         -0.00000        -2.71131
  H        -0.37076         -0.00000        -2.69859
  H        -3.46322         -0.00000        -0.67487
  H        -2.66962         -0.88691         0.63215
  H        -2.66962          0.88691         0.63215
13
 step=          21 Ene =          -26.46874475 GradMax =            0.02232414 
  C         0.01288          0.00000         1.35308
  C        -0.04540         -0.00000         0.02002
  C        -1.29513         -0.00000        -0.76822
  C        -1.27280          0.00000        -2.10716
  C        -2.58892         -0.00000        -0.01123
  H         0.87352         -0.00000        -0.57634
  H         0.94060          0.00000         1.90556
  H        -0.85683          0.00000         1.99494
  H        -2.16647         -0.00000        -2.71140
  H        -0.37094         -0.00000        -2.69829
  H        -3.46321         -0.00000        -0.67476
  H        -2.66965         -0.88692         0.63215
  H        -2.66965          0.88692         0.63215
13
 step=          22 Ene =          -26.46908480 GradMax =            0.00074896 
  C         0.01279          0.00000         1.35295
  C        -0.04525         -0.00000         0.02010
  C        -1.29538         -0.00000        -0.76816
  C        -1.27260          0.00000        -2.10718
  C        -2.58904         -0.00000        -0.01135
  H         0.87338         -0.00000        -0.57632
  H         0.94081          0.00000         1.90547
  H        -0.85670          0.00000         1.99508
  H        -2.16644         -0.00000        -2.71153
  H        -0.37090         -0.00000        -2.69815
  H        -3.46321         -0.00000        -0.67471
  H        -2.66972         -0.88693         0.63215
  H        -2.66972          0.88693         0.63215
13
 step=          23 Ene =          -26.46908645 GradMax =            0.00050824 
  C         0.01275          0.00000         1.35292
  C        -0.04520         -0.00000         0.02009
  C        -1.29563         -0.00000        -0.76814
  C        -1.27239          0.00000        -2.10714
  C        -2.58923         -0.00000        -0.01147
  H         0.87318         -0.00000        -0.57632
  H         0.94110          0.00000         1.90529
  H        -0.85649          0.00000         1.99530
  H        -2.16634         -0.00000        -2.71174
  H        -0.37079         -0.00000        -2.69792
  H        -3.46327         -0.00000        -0.67466
  H        -2.66984         -0.88694         0.63214
  H        -2.66984          0.88694         0.63214
