14
 step=          16 Ene =          -21.19392677 GradMax =            0.00023474 
  C         0.01343          0.00003         0.00204
  C        -0.00266          0.00005         1.40457
  C         1.20721          0.00002         2.09739
  C         2.41610         -0.00001         1.39557
  C         2.42503          0.00002        -0.00225
  C         1.22287          0.00004        -0.70838
  H        -0.96680          0.00008         1.92945
  H         1.20899          0.00002         3.19479
  H         3.36580         -0.00007         1.94639
  H         3.37844          0.00001        -0.54562
  H         1.19975          0.00005        -1.80598
  N        -1.23592         -0.00004        -0.72252
  O        -1.19259         -0.00002        -1.95200
  O        -2.28151         -0.00014        -0.07424
