14
 step=           1 Ene =          -21.01424020 GradMax =            0.11103644 
  C         0.03358          0.00012         0.01352
  C         0.01001          0.00011         1.42803
  C         1.22951          0.00002         2.12349
  C         2.44816         -0.00002         1.41421
  C         2.45878          0.00006         0.00421
  C         1.24970          0.00004        -0.70927
  H        -0.96719          0.00014         1.93137
  H         1.23147         -0.00004         3.22301
  H         3.39987         -0.00014         1.96621
  H         3.41421         -0.00001        -0.53990
  H         1.20169          0.00005        -1.80742
  N        -1.31898         -0.00007        -0.77064
  O        -1.23810         -0.00007        -2.05671
  O        -2.39456         -0.00020        -0.06092
14
 step=           2 Ene =          -21.03034811 GradMax =            0.03484892 
  C         0.02554          0.00011         0.00886
  C         0.01012          0.00011         1.42227
  C         1.23014          0.00002         2.12123
  C         2.44557         -0.00002         1.41270
  C         2.45713          0.00006         0.00588
  C         1.24476          0.00005        -0.70629
  H        -0.96280          0.00014         1.93048
  H         1.23157         -0.00004         3.21844
  H         3.39580         -0.00014         1.96385
  H         3.41030         -0.00001        -0.53756
  H         1.20309          0.00005        -1.80317
  N        -1.30771         -0.00007        -0.76409
  O        -1.24507         -0.00007        -2.03622
  O        -2.38027         -0.00020        -0.07718
14
 step=           3 Ene =          -21.03402025 GradMax =            0.02168396 
  C         0.01144          0.00009         0.00068
  C         0.01154          0.00010         1.41362
  C         1.22598          0.00003         2.11284
  C         2.44224         -0.00002         1.41077
  C         2.44781          0.00004         0.00641
  C         1.23795          0.00006        -0.70075
  H        -0.95364          0.00014         1.92861
  H         1.23153         -0.00004         3.20911
  H         3.38731         -0.00013         1.95893
  H         3.40219         -0.00001        -0.53297
  H         1.20599          0.00005        -1.79427
  N        -1.28189         -0.00005        -0.74911
  O        -1.25294         -0.00007        -2.00520
  O        -2.35734         -0.00020        -0.09947
14
 step=           4 Ene =          -21.03743991 GradMax =            0.00881915 
  C         0.01126          0.00008         0.00062
  C         0.00651          0.00010         1.40653
  C         1.22546          0.00002         2.10801
  C         2.43525         -0.00001         1.40668
  C         2.44334          0.00004         0.00838
  C         1.22933          0.00006        -0.70161
  H        -0.94722          0.00014         1.92780
  H         1.23001         -0.00004         3.19977
  H         3.38264         -0.00013         1.95622
  H         3.39335         -0.00000        -0.52966
  H         1.20846          0.00005        -1.78828
  N        -1.27492         -0.00005        -0.74507
  O        -1.24178         -0.00007        -1.99559
  O        -2.34351         -0.00020        -0.09459
14
 step=           5 Ene =          -21.03830072 GradMax =            0.00861405 
  C         0.00863          0.00008        -0.00095
  C         0.01065          0.00010         1.40876
  C         1.21926          0.00003         2.10444
  C         2.43673         -0.00002         1.40758
  C         2.43718          0.00004         0.00472
  C         1.23328          0.00007        -0.69908
  H        -0.94724          0.00014         1.92815
  H         1.22934         -0.00004         3.19739
  H         3.37959         -0.00013         1.95445
  H         3.39094         -0.00000        -0.52906
  H         1.20876          0.00005        -1.78848
  N        -1.27266         -0.00006        -0.74377
  O        -1.23756         -0.00006        -1.99246
  O        -2.33874         -0.00019        -0.09249
14
 step=           6 Ene =          -21.03856691 GradMax =            0.00681013 
  C         0.00930          0.00008        -0.00054
  C         0.00822          0.00010         1.40694
  C         1.22129          0.00003         2.10459
  C         2.43440         -0.00002         1.40621
  C         2.43833          0.00004         0.00644
  C         1.23050          0.00006        -0.70031
  H        -0.94662          0.00014         1.92821
  H         1.22869         -0.00004         3.19583
  H         3.37885         -0.00013         1.95402
  H         3.38927         -0.00000        -0.52886
  H         1.20911          0.00005        -1.78796
  N        -1.27128         -0.00005        -0.74299
  O        -1.23545         -0.00006        -1.99101
  O        -2.33645         -0.00019        -0.09138
14
 step=           7 Ene =          -21.03874632 GradMax =            0.00536240 
  C         0.00924          0.00008        -0.00057
  C         0.00803          0.00010         1.40665
  C         1.22061          0.00003         2.10383
  C         2.43376         -0.00002         1.40584
  C         2.43733          0.00003         0.00622
  C         1.23015          0.00007        -0.70032
  H        -0.94642          0.00013         1.92834
  H         1.22818         -0.00003         3.19467
  H         3.37780         -0.00012         1.95341
  H         3.38801         -0.00000        -0.52872
  H         1.20932          0.00005        -1.78786
  N        -1.27008         -0.00005        -0.74231
  O        -1.23348         -0.00006        -1.98961
  O        -2.33429         -0.00019        -0.09037
14
 step=           8 Ene =          -21.03883764 GradMax =            0.00503723 
  C         0.00929          0.00007        -0.00054
  C         0.00594          0.00009         1.40463
  C         1.21721          0.00002         2.09956
  C         2.42897         -0.00002         1.40303
  C         2.43189          0.00003         0.00539
  C         1.22738          0.00006        -0.70113
  H        -0.94534          0.00013         1.92918
  H         1.22473         -0.00003         3.18758
  H         3.37133         -0.00012         1.94966
  H         3.38016         -0.00000        -0.52823
  H         1.21055          0.00005        -1.78730
  N        -1.26228         -0.00005        -0.73796
  O        -1.22103         -0.00006        -1.98075
  O        -2.32064         -0.00019        -0.08392
14
 step=           9 Ene =          -21.03926735 GradMax =            0.00303285 
  C         0.01304          0.00006         0.00154
  C         0.00266          0.00008         1.40529
  C         1.21216          0.00003         2.09707
  C         2.42260         -0.00002         1.39961
  C         2.42770          0.00003         0.00198
  C         1.22607          0.00006        -0.70421
  H        -0.94779          0.00012         1.93052
  H         1.21848         -0.00002         3.18316
  H         3.36411         -0.00011         1.94544
  H         3.37306          0.00000        -0.53141
  H         1.21050          0.00005        -1.79014
  N        -1.25290         -0.00006        -0.73387
  O        -1.20662         -0.00005        -1.96931
  O        -2.30488         -0.00017        -0.07648
14
 step=          10 Ene =          -21.03949634 GradMax =            0.00153416 
  C         0.01209          0.00005         0.00190
  C        -0.00069          0.00008         1.40279
  C         1.21592          0.00002         2.10094
  C         2.42037         -0.00002         1.39468
  C         2.42872          0.00002         0.00667
  C         1.22626          0.00005        -0.70607
  H        -0.95152          0.00012         1.92995
  H         1.21446         -0.00001         3.18512
  H         3.36009         -0.00010         1.94336
  H         3.37443          0.00000        -0.53682
  H         1.20799          0.00005        -1.79281
  N        -1.24494         -0.00003        -0.73421
  O        -1.20246         -0.00005        -1.96320
  O        -2.30256         -0.00017        -0.07311
14
 step=          11 Ene =          -21.03936126 GradMax =            0.01334500 
  C         0.01373          0.00005         0.00100
  C         0.00195          0.00008         1.40575
  C         1.21205          0.00002         2.09820
  C         2.42108         -0.00002         1.39895
  C         2.42825          0.00002         0.00104
  C         1.22680          0.00005        -0.70480
  H        -0.95156          0.00012         1.92964
  H         1.21456         -0.00001         3.18564
  H         3.36002         -0.00010         1.94308
  H         3.37361          0.00000        -0.53620
  H         1.20796          0.00005        -1.79275
  N        -1.24465         -0.00004        -0.73553
  O        -1.20199         -0.00005        -1.96281
  O        -2.30365         -0.00017        -0.07205
14
 step=          12 Ene =          -21.03958611 GradMax =            0.00316659 
  C         0.01437          0.00005         0.00172
  C         0.00158          0.00008         1.40554
  C         1.21167          0.00002         2.09843
  C         2.42077         -0.00002         1.39835
  C         2.42848          0.00002         0.00114
  C         1.22677          0.00005        -0.70533
  H        -0.95138          0.00012         1.92939
  H         1.21445         -0.00001         3.18545
  H         3.36038         -0.00010         1.94331
  H         3.37340          0.00000        -0.53621
  H         1.20789          0.00005        -1.79246
  N        -1.24375         -0.00004        -0.73676
  O        -1.20171         -0.00005        -1.96231
  O        -2.30476         -0.00017        -0.07105
14
 step=          13 Ene =          -21.03962384 GradMax =            0.00333842 
  C         0.01470          0.00005         0.00180
  C         0.00147          0.00008         1.40561
  C         1.21146          0.00002         2.09840
  C         2.42061         -0.00002         1.39825
  C         2.42849          0.00002         0.00097
  C         1.22688          0.00005        -0.70540
  H        -0.95133          0.00012         1.92923
  H         1.21438         -0.00001         3.18538
  H         3.36051         -0.00010         1.94338
  H         3.37331          0.00000        -0.53623
  H         1.20783          0.00005        -1.79239
  N        -1.24291         -0.00004        -0.73766
  O        -1.20153         -0.00005        -1.96185
  O        -2.30570         -0.00017        -0.07030
14
 step=          14 Ene =          -21.03965200 GradMax =            0.00363737 
  C         0.01380          0.00005         0.00168
  C         0.00182          0.00008         1.40550
  C         1.21203          0.00002         2.09848
  C         2.42101         -0.00002         1.39851
  C         2.42842          0.00002         0.00136
  C         1.22647          0.00005        -0.70520
  H        -0.95137          0.00012         1.92975
  H         1.21465         -0.00001         3.18561
  H         3.36025         -0.00010         1.94322
  H         3.37355          0.00000        -0.53611
  H         1.20804          0.00005        -1.79256
  N        -1.24627         -0.00004        -0.73432
  O        -1.20214         -0.00005        -1.96365
  O        -2.30209         -0.00017        -0.07306
14
 step=          15 Ene =          -21.03955785 GradMax =            0.00223324 
  C         0.01114          0.00005         0.00051
  C         0.00272          0.00008         1.40467
  C         1.21381          0.00002         2.09850
  C         2.42226         -0.00002         1.39941
  C         2.42853          0.00002         0.00275
  C         1.22584          0.00005        -0.70452
  H        -0.95204          0.00012         1.93090
  H         1.21512         -0.00002         3.18619
  H         3.35906         -0.00011         1.94253
  H         3.37438          0.00000        -0.53608
  H         1.20850          0.00005        -1.79327
  N        -1.24938         -0.00003        -0.73037
  O        -1.20338         -0.00005        -1.96542
  O        -2.29841         -0.00018        -0.07660
14
 step=          16 Ene =          -21.03946660 GradMax =            0.00403415 
  C         0.01089          0.00005         0.00038
  C         0.00279          0.00008         1.40458
  C         1.21398          0.00002         2.09849
  C         2.42236         -0.00002         1.39949
  C         2.42855          0.00002         0.00289
  C         1.22582          0.00006        -0.70446
  H        -0.95213          0.00012         1.93097
  H         1.21514         -0.00002         3.18623
  H         3.35893         -0.00011         1.94246
  H         3.37445          0.00000        -0.53610
  H         1.20852          0.00005        -1.79335
  N        -1.24931         -0.00003        -0.73033
  O        -1.20345         -0.00006        -1.96535
  O        -2.29838         -0.00018        -0.07670
14
 step=          17 Ene =          -21.03945887 GradMax =            0.00433314 
  C         0.01463          0.00005         0.00243
  C         0.00163          0.00008         1.40606
  C         1.21140          0.00002         2.09858
  C         2.42080         -0.00002         1.39827
  C         2.42824          0.00002         0.00077
  C         1.22615          0.00005        -0.70540
  H        -0.95065          0.00012         1.92988
  H         1.21494         -0.00001         3.18562
  H         3.36096         -0.00010         1.94361
  H         3.37340          0.00000        -0.53575
  H         1.20832          0.00005        -1.79222
  N        -1.25044         -0.00004        -0.73099
  O        -1.20240         -0.00005        -1.96640
  O        -2.29881         -0.00017        -0.07526
14
 step=          18 Ene =          -21.03952270 GradMax =            0.00076657 
  C         0.01457          0.00005         0.00280
  C         0.00164          0.00008         1.40608
  C         1.21139          0.00002         2.09869
  C         2.42033         -0.00002         1.39793
  C         2.42814          0.00002         0.00083
  C         1.22657          0.00005        -0.70565
  H        -0.95081          0.00012         1.92955
  H         1.21465         -0.00001         3.18539
  H         3.36103         -0.00010         1.94366
  H         3.37316          0.00000        -0.53595
  H         1.20795          0.00005        -1.79214
  N        -1.24977         -0.00004        -0.73067
  O        -1.20198         -0.00005        -1.96649
  O        -2.29871         -0.00017        -0.07484
14
 step=          19 Ene =          -21.03952846 GradMax =            0.00058363 
  C         0.01486          0.00005         0.00269
  C         0.00161          0.00008         1.40619
  C         1.21131          0.00002         2.09864
  C         2.42035         -0.00002         1.39810
  C         2.42816          0.00002         0.00061
  C         1.22641          0.00005        -0.70554
  H        -0.95090          0.00012         1.92938
  H         1.21451         -0.00001         3.18536
  H         3.36090         -0.00010         1.94357
  H         3.37303          0.00000        -0.53604
  H         1.20775          0.00005        -1.79218
  N        -1.24946         -0.00004        -0.73050
  O        -1.20172         -0.00005        -1.96648
  O        -2.29864         -0.00017        -0.07461
14
 step=           1 Ene =          -21.03872852 GradMax =            0.01058086 
  C         0.01550          0.00004         0.00315
  C        -0.00204          0.00006         1.41110
  C         1.21207          0.00002         2.10178
  C         2.42234         -0.00002         1.39919
  C         2.43129          0.00002        -0.00020
  C         1.22889          0.00005        -0.71118
  H        -0.95451          0.00012         1.93896
  H         1.21220          0.00000         3.19035
  H         3.36520         -0.00010         1.94608
  H         3.37626          0.00001        -0.54056
  H         1.21424          0.00006        -1.80004
  N        -1.25702         -0.00004        -0.73473
  O        -1.20794         -0.00004        -1.96269
  O        -2.29833         -0.00017        -0.08200
14
 step=           2 Ene =          -21.03928870 GradMax =            0.00458878 
  C         0.01595          0.00004         0.00342
  C         0.00050          0.00006         1.40834
  C         1.21103          0.00002         2.10093
  C         2.42189         -0.00002         1.39893
  C         2.43000          0.00002        -0.00070
  C         1.22778          0.00005        -0.70760
  H        -0.95381          0.00012         1.93780
  H         1.21242          0.00000         3.18946
  H         3.36401         -0.00010         1.94539
  H         3.37560          0.00001        -0.53992
  H         1.21358          0.00006        -1.79886
  N        -1.25471         -0.00005        -0.73339
  O        -1.20650         -0.00004        -1.96495
  O        -2.29959         -0.00017        -0.07963
14
 step=           3 Ene =          -21.03940484 GradMax =            0.00284230 
  C         0.01522          0.00004         0.00300
  C        -0.00002          0.00006         1.40833
  C         1.21174          0.00002         2.10053
  C         2.42126         -0.00002         1.39856
  C         2.43002          0.00002         0.00013
  C         1.22750          0.00005        -0.70805
  H        -0.95249          0.00012         1.93637
  H         1.21243          0.00000         3.18869
  H         3.36330         -0.00010         1.94497
  H         3.37493          0.00001        -0.53954
  H         1.21299          0.00006        -1.79699
  N        -1.25341         -0.00005        -0.73265
  O        -1.20553         -0.00004        -1.96572
  O        -2.29979         -0.00017        -0.07841
14
 step=           4 Ene =          -21.03945169 GradMax =            0.00146081 
  C         0.01505          0.00004         0.00290
  C         0.00067          0.00006         1.40788
  C         1.21123          0.00002         2.10013
  C         2.42130         -0.00002         1.39859
  C         2.42941          0.00002        -0.00012
  C         1.22746          0.00005        -0.70722
  H        -0.95195          0.00011         1.93548
  H         1.21249          0.00000         3.18811
  H         3.36268         -0.00010         1.94461
  H         3.37445          0.00001        -0.53920
  H         1.21249          0.00006        -1.79610
  N        -1.25252         -0.00005        -0.73214
  O        -1.20478         -0.00003        -1.96619
  O        -2.29983         -0.00017        -0.07753
14
 step=           5 Ene =          -21.03947788 GradMax =            0.00139527 
  C         0.01498          0.00004         0.00285
  C         0.00070          0.00006         1.40742
  C         1.21147          0.00002         2.09987
  C         2.42088         -0.00002         1.39834
  C         2.42930          0.00002         0.00022
  C         1.22707          0.00005        -0.70697
  H        -0.95139          0.00011         1.93455
  H         1.21250          0.00000         3.18753
  H         3.36224         -0.00009         1.94436
  H         3.37395          0.00001        -0.53891
  H         1.21196          0.00006        -1.79513
  N        -1.25168         -0.00005        -0.73167
  O        -1.20405         -0.00003        -1.96650
  O        -2.29977         -0.00016        -0.07675
14
 step=           6 Ene =          -21.03949732 GradMax =            0.00112024 
  C         0.01484          0.00004         0.00278
  C         0.00117          0.00006         1.40718
  C         1.21111          0.00002         2.09945
  C         2.42085         -0.00002         1.39833
  C         2.42877          0.00002         0.00010
  C         1.22709          0.00005        -0.70644
  H        -0.95098          0.00011         1.93357
  H         1.21252          0.00000         3.18696
  H         3.36171         -0.00009         1.94405
  H         3.37346          0.00001        -0.53861
  H         1.21131          0.00006        -1.79429
  N        -1.25083         -0.00004        -0.73120
  O        -1.20327         -0.00003        -1.96672
  O        -2.29959         -0.00016        -0.07595
14
 step=           7 Ene =          -21.03951284 GradMax =            0.00095187 
  C         0.01492          0.00004         0.00283
  C         0.00103          0.00006         1.40678
  C         1.21142          0.00002         2.09934
  C         2.42045         -0.00002         1.39808
  C         2.42881          0.00002         0.00045
  C         1.22668          0.00004        -0.70635
  H        -0.95071          0.00011         1.93278
  H         1.21249          0.00000         3.18650
  H         3.36145         -0.00009         1.94390
  H         3.37305          0.00001        -0.53842
  H         1.21075          0.00006        -1.79367
  N        -1.25017         -0.00005        -0.73085
  O        -1.20265         -0.00003        -1.96678
  O        -2.29938         -0.00016        -0.07538
14
 step=           8 Ene =          -21.03952210 GradMax =            0.00077650 
  C         0.01487          0.00004         0.00280
  C         0.00132          0.00006         1.40681
  C         1.21111          0.00002         2.09913
  C         2.42054         -0.00002         1.39815
  C         2.42849          0.00002         0.00027
  C         1.22684          0.00004        -0.70612
  H        -0.95068          0.00011         1.93236
  H         1.21249          0.00000         3.18631
  H         3.36124         -0.00009         1.94378
  H         3.37288          0.00001        -0.53832
  H         1.21040          0.00006        -1.79344
  N        -1.24982         -0.00005        -0.73068
  O        -1.20231         -0.00003        -1.96676
  O        -2.29923         -0.00016        -0.07508
14
 step=           9 Ene =          -21.03952636 GradMax =            0.00072732 
  C         0.01493          0.00004         0.00283
  C         0.00129          0.00006         1.40668
  C         1.21119          0.00002         2.09908
  C         2.42042         -0.00002         1.39808
  C         2.42849          0.00002         0.00036
  C         1.22672          0.00004        -0.70608
  H        -0.95065          0.00011         1.93204
  H         1.21247          0.00000         3.18616
  H         3.36115         -0.00009         1.94372
  H         3.37273          0.00001        -0.53826
  H         1.21014          0.00006        -1.79324
  N        -1.24955         -0.00005        -0.73056
  O        -1.20205         -0.00003        -1.96673
  O        -2.29911         -0.00016        -0.07485
14
 step=          10 Ene =          -21.03952917 GradMax =            0.00067391 
  C         0.01497          0.00004         0.00284
  C         0.00136          0.00006         1.40661
  C         1.21113          0.00002         2.09899
  C         2.42038         -0.00002         1.39804
  C         2.42837          0.00002         0.00036
  C         1.22670          0.00005        -0.70598
  H        -0.95065          0.00011         1.93162
  H         1.21245          0.00000         3.18597
  H         3.36101         -0.00009         1.94364
  H         3.37257          0.00001        -0.53819
  H         1.20977          0.00006        -1.79304
  N        -1.24921         -0.00004        -0.73042
  O        -1.20171         -0.00003        -1.96667
  O        -2.29895         -0.00016        -0.07456
14
 step=           1 Ene =          -21.10681710 GradMax =            0.09688627 
  C         0.00955          0.00004        -0.00030
  C        -0.00054          0.00006         1.40995
  C         1.21155          0.00002         2.10345
  C         2.42347         -0.00002         1.39985
  C         2.43245          0.00002        -0.00149
  C         1.22866          0.00005        -0.70931
  H        -0.95583          0.00012         1.94026
  H         1.21239          0.00000         3.19085
  H         3.36559         -0.00010         1.94630
  H         3.37680          0.00001        -0.54065
  H         1.21472          0.00006        -1.80184
  N        -1.23458         -0.00004        -0.72170
  O        -1.21222         -0.00004        -1.97812
  O        -2.31384         -0.00017        -0.07805
14
 step=           2 Ene =          -21.12222101 GradMax =            0.05827863 
  C        -0.00750          0.00004        -0.01018
  C        -0.00080          0.00006         1.40643
  C         1.20997          0.00002         2.10136
  C         2.42309         -0.00002         1.39963
  C         2.42987          0.00002        -0.00182
  C         1.22546          0.00005        -0.70779
  H        -0.95227          0.00012         1.93920
  H         1.21276          0.00000         3.19021
  H         3.36429         -0.00010         1.94555
  H         3.37642          0.00001        -0.54001
  H         1.21556          0.00006        -1.79821
  N        -1.18166         -0.00004        -0.69102
  O        -1.21954         -0.00004        -2.00119
  O        -2.33751         -0.00017        -0.07295
14
 step=           3 Ene =          -21.12836279 GradMax =            0.01885805 
  C         0.00627          0.00004        -0.00219
  C        -0.00088          0.00006         1.40680
  C         1.20659          0.00002         2.09920
  C         2.42218         -0.00002         1.39909
  C         2.42629          0.00002        -0.00368
  C         1.22575          0.00005        -0.70802
  H        -0.95024          0.00012         1.93903
  H         1.21267          0.00000         3.18901
  H         3.36362         -0.00010         1.94516
  H         3.37533          0.00001        -0.53949
  H         1.21641          0.00006        -1.79637
  N        -1.18835         -0.00004        -0.69491
  O        -1.22056         -0.00004        -1.99996
  O        -2.33694         -0.00017        -0.07445
14
 step=           4 Ene =          -21.12862671 GradMax =            0.00938055 
  C         0.00304          0.00004        -0.00407
  C        -0.00098          0.00006         1.40773
  C         1.20735          0.00002         2.09964
  C         2.42071         -0.00002         1.39824
  C         2.42706          0.00002        -0.00325
  C         1.22650          0.00005        -0.70858
  H        -0.94949          0.00012         1.93890
  H         1.21251          0.00000         3.18800
  H         3.36306         -0.00010         1.94484
  H         3.37437          0.00001        -0.53913
  H         1.21667          0.00006        -1.79565
  N        -1.18386         -0.00004        -0.69231
  O        -1.22116         -0.00004        -2.00039
  O        -2.33763         -0.00017        -0.07477
14
 step=           5 Ene =          -21.12873749 GradMax =            0.00164894 
  C         0.00354          0.00004        -0.00377
  C        -0.00074          0.00006         1.40780
  C         1.20701          0.00002         2.09954
  C         2.42033         -0.00002         1.39802
  C         2.42681          0.00002        -0.00349
  C         1.22668          0.00005        -0.70841
  H        -0.94903          0.00011         1.93903
  H         1.21243          0.00000         3.18740
  H         3.36228         -0.00010         1.94438
  H         3.37381          0.00001        -0.53889
  H         1.21701          0.00006        -1.79531
  N        -1.18329         -0.00004        -0.69197
  O        -1.22141         -0.00004        -1.99987
  O        -2.33729         -0.00017        -0.07526
14
 step=           6 Ene =          -21.12875163 GradMax =            0.00140181 
  C         0.00444          0.00004        -0.00326
  C        -0.00059          0.00006         1.40789
  C         1.20684          0.00002         2.09927
  C         2.41927         -0.00002         1.39741
  C         2.42647          0.00002        -0.00352
  C         1.22683          0.00005        -0.70831
  H        -0.94808          0.00011         1.93935
  H         1.21224          0.00000         3.18633
  H         3.36072         -0.00009         1.94348
  H         3.37278          0.00001        -0.53853
  H         1.21775          0.00006        -1.79465
  N        -1.18208         -0.00004        -0.69128
  O        -1.22165         -0.00004        -1.99911
  O        -2.33677         -0.00017        -0.07585
14
 step=           7 Ene =          -21.12876992 GradMax =            0.00107260 
  C         0.00504          0.00004        -0.00285
  C        -0.00024          0.00006         1.40812
  C         1.20622          0.00002         2.09874
  C         2.41831         -0.00002         1.39683
  C         2.42574          0.00002        -0.00373
  C         1.22720          0.00005        -0.70818
  H        -0.94709          0.00011         1.94007
  H         1.21201          0.00000         3.18538
  H         3.35864         -0.00009         1.94227
  H         3.37184          0.00001        -0.53828
  H         1.21886          0.00006        -1.79413
  N        -1.18120         -0.00004        -0.69076
  O        -1.22117         -0.00003        -1.99851
  O        -2.33600         -0.00016        -0.07577
14
 step=           8 Ene =          -21.12878088 GradMax =            0.00073654 
  C         0.00527          0.00004        -0.00286
  C        -0.00096          0.00006         1.40775
  C         1.20682          0.00002         2.09900
  C         2.41739         -0.00002         1.39637
  C         2.42620          0.00002        -0.00349
  C         1.22648          0.00005        -0.70844
  H        -0.94672          0.00011         1.94053
  H         1.21187          0.00000         3.18510
  H         3.35815         -0.00009         1.94198
  H         3.37151          0.00001        -0.53825
  H         1.21944          0.00006        -1.79409
  N        -1.18083         -0.00004        -0.69055
  O        -1.22070         -0.00003        -1.99847
  O        -2.33576         -0.00016        -0.07538
14
 step=           9 Ene =          -21.12878104 GradMax =            0.00159796 
  C         0.00513          0.00004        -0.00283
  C        -0.00053          0.00006         1.40801
  C         1.20619          0.00002         2.09876
  C         2.41763         -0.00002         1.39645
  C         2.42570          0.00002        -0.00382
  C         1.22696          0.00005        -0.70831
  H        -0.94673          0.00011         1.94069
  H         1.21186          0.00000         3.18513
  H         3.35792         -0.00009         1.94185
  H         3.37154          0.00001        -0.53828
  H         1.21957          0.00006        -1.79414
  N        -1.18091         -0.00004        -0.69060
  O        -1.22059         -0.00003        -1.99834
  O        -2.33559         -0.00016        -0.07536
14
 step=          10 Ene =          -21.12878496 GradMax =            0.00035738 
  C         0.00517          0.00004        -0.00282
  C        -0.00058          0.00006         1.40800
  C         1.20616          0.00002         2.09874
  C         2.41753         -0.00002         1.39640
  C         2.42567          0.00002        -0.00384
  C         1.22692          0.00005        -0.70835
  H        -0.94667          0.00011         1.94082
  H         1.21183          0.00001         3.18510
  H         3.35780         -0.00009         1.94177
  H         3.37149          0.00001        -0.53829
  H         1.21970          0.00006        -1.79415
  N        -1.18085         -0.00004        -0.69057
  O        -1.22049         -0.00003        -1.99832
  O        -2.33553         -0.00016        -0.07529
