[Molden Format]
Written by Sparrow, the semiempirical library of the SCINE software package
[Atoms] (AU)
C    1         6                0.0241695971       0.0000000000       2.5567049614
C    2         6               -0.0855101072      -0.0000000000       0.0379834951
C    3         6               -2.4479134284      -0.0000000000      -1.4516120205
C    4         6               -2.4048654673       0.0000000000      -3.9819930970
C    5         6               -4.8925765279      -0.0000000000      -0.0214483915
H    6         1                1.6504490035      -0.0000000000      -1.0890869606
H    7         1                1.7778732361       0.0000000000       3.6008164403
H    8         1               -1.6189283717       0.0000000000       3.7701547984
H    9         1               -4.0939782672      -0.0000000000      -5.1240490810
H    10        1               -0.7008994199      -0.0000000000      -5.0987645454
H    11        1               -6.5445184149      -0.0000000000      -1.2750171141
H    12        1               -5.0450396317      -1.6760547925       1.1945903702
H    13        1               -5.0450396317       1.6760547925       1.1945903702
[GTO]
1 0
s    6    1.00 
    116.0690322429      -0.1046234805
     21.2858804144      -0.1459904193
      5.9817916163      -0.1403997584
      0.8554094819       0.2121298425
      0.3882374328       0.1970386706
      0.1851482379       0.0344592482
p    6    1.00 
     17.0160777741       0.3903657330
      4.4374470513       0.4722439228
      1.5877608354       0.4822910285
      0.6637143790       0.3458254681
      0.3034954267       0.1288339964
      0.1434819294       0.0132401392

2 0
s    6    1.00 
    116.0690322429      -0.1046234805
     21.2858804144      -0.1459904193
      5.9817916163      -0.1403997584
      0.8554094819       0.2121298425
      0.3882374328       0.1970386706
      0.1851482379       0.0344592482
p    6    1.00 
     17.0160777741       0.3903657330
      4.4374470513       0.4722439228
      1.5877608354       0.4822910285
      0.6637143790       0.3458254681
      0.3034954267       0.1288339964
      0.1434819294       0.0132401392

3 0
s    6    1.00 
    116.0690322429      -0.1046234805
     21.2858804144      -0.1459904193
      5.9817916163      -0.1403997584
      0.8554094819       0.2121298425
      0.3882374328       0.1970386706
      0.1851482379       0.0344592482
p    6    1.00 
     17.0160777741       0.3903657330
      4.4374470513       0.4722439228
      1.5877608354       0.4822910285
      0.6637143790       0.3458254681
      0.3034954267       0.1288339964
      0.1434819294       0.0132401392

4 0
s    6    1.00 
    116.0690322429      -0.1046234805
     21.2858804144      -0.1459904193
      5.9817916163      -0.1403997584
      0.8554094819       0.2121298425
      0.3882374328       0.1970386706
      0.1851482379       0.0344592482
p    6    1.00 
     17.0160777741       0.3903657330
      4.4374470513       0.4722439228
      1.5877608354       0.4822910285
      0.6637143790       0.3458254681
      0.3034954267       0.1288339964
      0.1434819294       0.0132401392

5 0
s    6    1.00 
    116.0690322429      -0.1046234805
     21.2858804144      -0.1459904193
      5.9817916163      -0.1403997584
      0.8554094819       0.2121298425
      0.3882374328       0.1970386706
      0.1851482379       0.0344592482
p    6    1.00 
     17.0160777741       0.3903657330
      4.4374470513       0.4722439228
      1.5877608354       0.4822910285
      0.6637143790       0.3458254681
      0.3034954267       0.1288339964
      0.1434819294       0.0132401392

6 0
s    6    1.00 
     37.1831737285       0.0983412856
      6.8174942006       0.1484283848
      1.9072891990       0.1949490512
      0.6552053164       0.1923335159
      0.2544353976       0.1063406754
      0.1047905476       0.0171084112

7 0
s    6    1.00 
     37.1831737285       0.0983412856
      6.8174942006       0.1484283848
      1.9072891990       0.1949490512
      0.6552053164       0.1923335159
      0.2544353976       0.1063406754
      0.1047905476       0.0171084112

8 0
s    6    1.00 
     37.1831737285       0.0983412856
      6.8174942006       0.1484283848
      1.9072891990       0.1949490512
      0.6552053164       0.1923335159
      0.2544353976       0.1063406754
      0.1047905476       0.0171084112

9 0
s    6    1.00 
     37.1831737285       0.0983412856
      6.8174942006       0.1484283848
      1.9072891990       0.1949490512
      0.6552053164       0.1923335159
      0.2544353976       0.1063406754
      0.1047905476       0.0171084112

10 0
s    6    1.00 
     37.1831737285       0.0983412856
      6.8174942006       0.1484283848
      1.9072891990       0.1949490512
      0.6552053164       0.1923335159
      0.2544353976       0.1063406754
      0.1047905476       0.0171084112

11 0
s    6    1.00 
     37.1831737285       0.0983412856
      6.8174942006       0.1484283848
      1.9072891990       0.1949490512
      0.6552053164       0.1923335159
      0.2544353976       0.1063406754
      0.1047905476       0.0171084112

12 0
s    6    1.00 
     37.1831737285       0.0983412856
      6.8174942006       0.1484283848
      1.9072891990       0.1949490512
      0.6552053164       0.1923335159
      0.2544353976       0.1063406754
      0.1047905476       0.0171084112

13 0
s    6    1.00 
     37.1831737285       0.0983412856
      6.8174942006       0.1484283848
      1.9072891990       0.1949490512
      0.6552053164       0.1923335159
      0.2544353976       0.1063406754
      0.1047905476       0.0171084112

[5D]
[7F]
[9G]
[MO]
Sym=      A1        
Ene=      -1.0517789982
Spin=     Alpha     
Occup=    2.0       
   1     -0.2856953744
   2      0.0373486899
   3     -0.0000000000
   4      0.1241457033
   5     -0.4299978519
   6      0.1058584391
   7     -0.0000000000
   8     -0.0074256682
   9     -0.5345657469
  10     -0.0100636432
  11     -0.0000000000
  12     -0.0133961430
  13     -0.3221049881
  14      0.0019808685
  15     -0.0000000000
  16     -0.1589879134
  17     -0.3675678095
  18     -0.1067078395
  19     -0.0000000000
  20      0.0497631192
  21     -0.1560169179
  22     -0.0905955381
  23     -0.1211556071
  24     -0.1135802549
  25     -0.1128304839
  26     -0.1454638949
  27     -0.1538673476
  28     -0.1538673476
Sym=      A1        
Ene=      -0.9601789079
Spin=     Alpha     
Occup=    2.0       
   1     -0.5367391528
   2     -0.0185325741
   3     -0.0000000000
   4      0.1279979849
   5     -0.4031233545
   6     -0.0822490824
   7     -0.0000000000
   8     -0.2384794384
   9      0.2270418758
  10     -0.1532821466
  11      0.0000000000
  12     -0.1807875955
  13      0.3345763981
  14     -0.0450344016
  15     -0.0000000000
  16      0.0785701224
  17      0.2365514679
  18      0.0034127457
  19      0.0000000000
  20     -0.0769754740
  21     -0.1495472533
  22     -0.2243395234
  23     -0.2000378134
  24      0.1528153769
  25      0.1144501310
  26      0.1323889090
  27      0.0793367639
  28      0.0793367639
Sym=      A1        
Ene=      -0.8972525959
Spin=     Alpha     
Occup=    2.0       
   1      0.0356535036
   2     -0.0392781716
   3      0.0000000000
   4      0.0489667133
   5     -0.1542700146
   6     -0.0336291782
   7      0.0000000000
   8      0.1161835964
   9     -0.1222541781
  10     -0.2350500964
  11     -0.0000000000
  12      0.2684294220
  13     -0.4279058069
  14     -0.0763586688
  15     -0.0000000000
  16     -0.0334318791
  17      0.5571561253
  18     -0.0532114304
  19      0.0000000000
  20      0.0687630943
  21     -0.1219374101
  22      0.0110017412
  23      0.0610963354
  24     -0.1540068940
  25     -0.2229473044
  26      0.2488405652
  27      0.2756884774
  28      0.2756884774
Sym=      A1        
Ene=      -0.7737766724
Spin=     Alpha     
Occup=    2.0       
   1      0.4005323434
   2      0.0468049348
   3     -0.0000000000
   4      0.2372908093
   5     -0.3230948765
   6      0.1032486643
   7     -0.0000000000
   8      0.2750151475
   9     -0.2125983217
  10     -0.2069872263
  11      0.0000000000
  12     -0.2258639657
  13      0.3471661005
  14     -0.0918452150
  15      0.0000000000
  16     -0.1711363754
  17      0.0392114558
  18     -0.1108477071
  19      0.0000000000
  20     -0.0179374461
  21     -0.1796972594
  22      0.2809047176
  23      0.2488588247
  24      0.2611875724
  25      0.1739313621
  26      0.0802156268
  27      0.0212967552
  28      0.0212967552
Sym=      A1        
Ene=      -0.6701602732
Spin=     Alpha     
Occup=    2.0       
   1      0.1505972057
   2     -0.1669486723
   3     -0.0000000000
   4      0.2654073581
   5     -0.2409122262
   6     -0.3488309646
   7      0.0000000000
   8      0.0301176827
   9      0.3540739721
  10     -0.0716255582
  11     -0.0000000000
  12      0.0279361895
  13     -0.1417471274
  14     -0.0593220232
  15     -0.0000000000
  16      0.3219761133
  17     -0.1663877616
  18      0.3064443832
  19     -0.0000000000
  20     -0.1288864971
  21     -0.3094138831
  22      0.0736118847
  23      0.2438403450
  24     -0.1564257976
  25     -0.2146567809
  26     -0.1846022876
  27     -0.1348640484
  28     -0.1348640484
Sym=      A1        
Ene=      -0.5941093980
Spin=     Alpha     
Occup=    2.0       
   1      0.0265288196
   2      0.4100156515
   3      0.0000000000
   4      0.0211925921
   5     -0.0044550919
   6      0.3571747816
   7      0.0000000000
   8     -0.0393808684
   9      0.0885446720
  10     -0.2164181083
  11      0.0000000000
  12     -0.2503386191
  13     -0.1106976434
  14     -0.2052637924
  15     -0.0000000000
  16      0.3593176873
  17      0.0105575973
  18     -0.0756980681
  19     -0.0000000000
  20     -0.3191214371
  21      0.2004383903
  22      0.2516409543
  23     -0.2013935268
  24     -0.0780383810
  25     -0.2920516794
  26      0.1681137666
  27     -0.1211658544
  28     -0.1211658544
Sym=      A1        
Ene=      -0.5697571257
Spin=     Alpha     
Occup=    2.0       
   1      0.0390819472
   2      0.0985822970
   3     -0.0000000000
   4      0.4507877693
   5     -0.0800531037
   6      0.0572530677
   7     -0.0000000000
   8     -0.3876528768
   9      0.0045774878
  10      0.2855626656
  11      0.0000000000
  12     -0.1350818286
  13     -0.0373246125
  14      0.4000406962
  15      0.0000000000
  16      0.1656068960
  17      0.0495031391
  18     -0.1984339280
  19      0.0000000000
  20      0.2211368926
  21      0.1456760161
  22      0.2393022529
  23      0.1603189542
  24     -0.2994610928
  25      0.1420042986
  26      0.0311351740
  27      0.1248779829
  28      0.1248779829
Sym=      A1        
Ene=      -0.5296870192
Spin=     Alpha     
Occup=    2.0       
   1     -0.0000000000
   2      0.0000000000
   3      0.1057705234
   4     -0.0000000000
   5     -0.0000000000
   6      0.0000000000
   7      0.1650529932
   8      0.0000000000
   9      0.0000000000
  10     -0.0000000000
  11      0.3296139783
  12     -0.0000000000
  13      0.0000000000
  14     -0.0000000000
  15      0.1856993978
  16      0.0000000000
  17     -0.0000000000
  18      0.0000000000
  19      0.7063293102
  20      0.0000000000
  21     -0.0000000000
  22     -0.0000000000
  23     -0.0000000000
  24      0.0000000000
  25     -0.0000000000
  26     -0.0000000000
  27     -0.3997120028
  28      0.3997120028
Sym=      A1        
Ene=      -0.5026452926
Spin=     Alpha     
Occup=    2.0       
   1     -0.0484492275
   2      0.3732206786
   3     -0.0000000000
   4      0.1880185077
   5     -0.0299186812
   6      0.0820122119
   7     -0.0000000000
   8     -0.1943640548
   9      0.0723506857
  10     -0.1509304732
  11     -0.0000000000
  12      0.3096806332
  13     -0.0013980624
  14     -0.1083982952
  15     -0.0000000000
  16     -0.2708497970
  17      0.0351244238
  18      0.5011254771
  19     -0.0000000000
  20      0.1971060989
  21      0.1140894103
  22      0.2835315366
  23     -0.1470775903
  24      0.1639232327
  25      0.0494206432
  26     -0.3518988989
  27      0.0677692876
  28      0.0677692876
Sym=      A1        
Ene=      -0.4816701712
Spin=     Alpha     
Occup=    2.0       
   1     -0.0315258080
   2     -0.3255880468
   3      0.0000000000
   4      0.3210330886
   5      0.1126272436
   6      0.0894807386
   7      0.0000000000
   8     -0.3885298492
   9     -0.0540720119
  10      0.0695816991
  11      0.0000000000
  12      0.0834609509
  13     -0.0432765684
  14     -0.4483412254
  15      0.0000000000
  16     -0.1330781186
  17     -0.0378923432
  18     -0.1047436768
  19      0.0000000000
  20     -0.0862594130
  21      0.2815278176
  22     -0.1026588472
  23      0.3256358711
  24      0.3110197783
  25     -0.2401911772
  26      0.0951855729
  27     -0.0435712704
  28     -0.0435712704
Sym=      A1        
Ene=      -0.4665259189
Spin=     Alpha     
Occup=    2.0       
   1     -0.0019168931
   2     -0.0916540559
   3      0.0000000000
   4     -0.1228263384
   5     -0.0221420656
   6      0.1592652405
   7      0.0000000000
   8      0.1163070144
   9     -0.0473259236
  10      0.0260521755
  11     -0.0000000000
  12     -0.3529138708
  13      0.0738162728
  14     -0.2536950240
  15     -0.0000000000
  16      0.3307098690
  17     -0.0419972533
  18      0.0538879979
  19     -0.0000000000
  20      0.5770567168
  21      0.0316853610
  22     -0.1140961305
  23      0.0251482193
  24      0.0467189836
  25     -0.2599235250
  26     -0.3178632959
  27      0.2317157932
  28      0.2317157932
Sym=      A1        
Ene=      -0.4295079923
Spin=     Alpha     
Occup=    2.0       
   1      0.0085012872
   2      0.3275931055
   3     -0.0000000000
   4     -0.0054577724
   5      0.0480985398
   6     -0.4487291087
   7     -0.0000000000
   8     -0.0317502172
   9      0.0432501294
  10      0.4188920901
  11     -0.0000000000
  12      0.0629261040
  13      0.0044637758
  14     -0.2839432201
  15     -0.0000000000
  16     -0.0307755914
  17     -0.0646973524
  18     -0.3348575198
  19      0.0000000000
  20      0.1332289142
  21     -0.2874524740
  22      0.2416686489
  23     -0.2244419825
  24      0.2145582508
  25     -0.1892727123
  26      0.1222221499
  27      0.0370128561
  28      0.0370128561
Sym=      A1        
Ene=      -0.4176679110
Spin=     Alpha     
Occup=    2.0       
   1     -0.0000000000
   2      0.0000000000
   3      0.5083740991
   4      0.0000000000
   5      0.0000000000
   6     -0.0000000000
   7      0.5865106304
   8     -0.0000000000
   9      0.0000000000
  10      0.0000000000
  11      0.3784487875
  12      0.0000000000
  13      0.0000000000
  14      0.0000000000
  15      0.3378879826
  16     -0.0000000000
  17      0.0000000000
  18     -0.0000000000
  19     -0.2773835815
  20     -0.0000000000
  21     -0.0000000000
  22      0.0000000000
  23     -0.0000000000
  24      0.0000000000
  25      0.0000000000
  26      0.0000000000
  27      0.1778027432
  28     -0.1778027432
Sym=      A1        
Ene=      -0.3450125399
Spin=     Alpha     
Occup=    2.0       
   1      0.0000000000
   2     -0.0000000000
   3     -0.4902485347
   4     -0.0000000000
   5     -0.0000000000
   6     -0.0000000000
   7     -0.3458454641
   8      0.0000000000
   9     -0.0000000000
  10     -0.0000000000
  11      0.4527814534
  12     -0.0000000000
  13      0.0000000000
  14     -0.0000000000
  15      0.6350656090
  16      0.0000000000
  17      0.0000000000
  18     -0.0000000000
  19     -0.1155192810
  20      0.0000000000
  21     -0.0000000000
  22     -0.0000000000
  23      0.0000000000
  24     -0.0000000000
  25     -0.0000000000
  26     -0.0000000000
  27      0.0958728655
  28     -0.0958728655
Sym=      A1        
Ene=      0.0130427510
Spin=     Alpha     
Occup=    0.0       
   1     -0.0000000000
   2     -0.0000000000
   3     -0.5777118628
   4      0.0000000000
   5      0.0000000000
   6     -0.0000000000
   7      0.4768560513
   8      0.0000000000
   9     -0.0000000000
  10      0.0000000000
  11      0.4186974968
  12     -0.0000000000
  13      0.0000000000
  14      0.0000000000
  15     -0.5062654394
  16      0.0000000000
  17      0.0000000000
  18      0.0000000000
  19     -0.0212426735
  20      0.0000000000
  21     -0.0000000000
  22      0.0000000000
  23     -0.0000000000
  24      0.0000000000
  25      0.0000000000
  26      0.0000000000
  27      0.0582828007
  28     -0.0582828007
Sym=      A1        
Ene=      0.0767211022
Spin=     Alpha     
Occup=    0.0       
   1      0.0000000000
   2      0.0000000000
   3      0.3952962416
   4     -0.0000000000
   5      0.0000000000
   6     -0.0000000000
   7     -0.5302184179
   8      0.0000000000
   9      0.0000000000
  10      0.0000000000
  11      0.5975477420
  12     -0.0000000000
  13      0.0000000000
  14      0.0000000000
  15     -0.4361318788
  16     -0.0000000000
  17      0.0000000000
  18      0.0000000000
  19     -0.0003774259
  20      0.0000000000
  21      0.0000000000
  22     -0.0000000000
  23      0.0000000000
  24      0.0000000000
  25     -0.0000000000
  26     -0.0000000000
  27      0.0875638300
  28     -0.0875638300
Sym=      A1        
Ene=      0.1541587310
Spin=     Alpha     
Occup=    0.0       
   1      0.0349486867
   2      0.0778700913
   3      0.0000000000
   4     -0.0320632831
   5     -0.1368902137
   6      0.3168477373
   7     -0.0000000000
   8      0.0749241595
   9     -0.0773326335
  10      0.6438143724
  11     -0.0000000000
  12     -0.0889570576
  13     -0.0078947385
  14      0.1195935160
  15      0.0000000000
  16     -0.0301121539
  17      0.1658936597
  18      0.4535805252
  19     -0.0000000000
  20     -0.2366244023
  21     -0.1699001994
  22     -0.1215804310
  23      0.0796256182
  24      0.1591901481
  25     -0.1908419932
  26      0.1311740322
  27      0.0503755675
  28      0.0503755675
Sym=      A1        
Ene=      0.1607870677
Spin=     Alpha     
Occup=    0.0       
   1     -0.0098308425
   2      0.0911309551
   3     -0.0000000000
   4      0.0948932069
   5     -0.2517192820
   6      0.3861776582
   7      0.0000000000
   8      0.3040640650
   9      0.4459259019
  10      0.1085520851
  11      0.0000000000
  12      0.4656922478
  13     -0.0157541195
  14      0.0220242012
  15     -0.0000000000
  16      0.0798647437
  17     -0.1467555400
  18     -0.2674987662
  19      0.0000000000
  20      0.2579417817
  21      0.0632112457
  22     -0.1787325463
  23      0.0580276752
  24      0.1161600734
  25      0.0509060812
  26      0.1060463159
  27     -0.0915514253
  28     -0.0915514253
Sym=      A1        
Ene=      0.1976260599
Spin=     Alpha     
Occup=    0.0       
   1      0.1216814009
   2      0.2022285431
   3     -0.0000000000
   4     -0.3255088915
   5     -0.0691498408
   6      0.1978483670
   7      0.0000000000
   8     -0.3390612214
   9      0.3237472556
  10     -0.0691073289
  11      0.0000000000
  12     -0.1826746937
  13     -0.1874587946
  14     -0.0394450156
  15     -0.0000000000
  16     -0.3375517518
  17     -0.0732261522
  18     -0.2411447532
  19     -0.0000000000
  20     -0.1516826907
  21     -0.3022068013
  22     -0.1256332728
  23      0.2854881970
  24     -0.0696218749
  25      0.0171584752
  26     -0.2598831234
  27      0.1379120053
  28      0.1379120053
Sym=      A1        
Ene=      0.2095781917
Spin=     Alpha     
Occup=    0.0       
   1      0.0209109988
   2      0.0923289843
   3     -0.0000000000
   4     -0.3160547993
   5      0.0126008719
   6      0.0685884811
   7      0.0000000000
   8     -0.3587676979
   9     -0.1190438251
  10     -0.1256908469
  11     -0.0000000000
  12      0.0645947861
  13      0.0559857914
  14     -0.0237414185
  15      0.0000000000
  16      0.1222754802
  17      0.0238832091
  18      0.2133764437
  19      0.0000000000
  20      0.4305315481
  21     -0.2556502869
  22      0.0557112682
  23      0.2447542291
  24     -0.0157123359
  25      0.0506731884
  26      0.4406351315
  27     -0.2720127029
  28     -0.2720127029
Sym=      A1        
Ene=      0.2097167714
Spin=     Alpha     
Occup=    0.0       
   1     -0.0000000000
   2     -0.0000000000
   3     -0.0038250415
   4      0.0000000000
   5     -0.0000000000
   6     -0.0000000000
   7      0.0251085756
   8      0.0000000000
   9      0.0000000000
  10      0.0000000000
  11     -0.1036783400
  12     -0.0000000000
  13     -0.0000000000
  14      0.0000000000
  15      0.0390308372
  16     -0.0000000000
  17     -0.0000000000
  18     -0.0000000000
  19      0.6405943774
  20     -0.0000000000
  21      0.0000000000
  22     -0.0000000000
  23     -0.0000000000
  24      0.0000000000
  25     -0.0000000000
  26     -0.0000000000
  27      0.5369921637
  28     -0.5369921637
Sym=      A1        
Ene=      0.2130072983
Spin=     Alpha     
Occup=    0.0       
   1      0.2252080577
   2     -0.3353962441
   3     -0.0000000000
   4     -0.3063220205
   5     -0.4593707446
   6     -0.1073103760
   7     -0.0000000000
   8     -0.1104232910
   9      0.2203609825
  10      0.0743774235
  11      0.0000000000
  12     -0.1652684693
  13     -0.1545615761
  14      0.0922700812
  15     -0.0000000000
  16     -0.2346465422
  17     -0.0255765382
  18      0.0559165007
  19     -0.0000000000
  20      0.1162983178
  21      0.3728468610
  22      0.2570298354
  23     -0.2788584092
  24      0.0777433926
  25     -0.1037526666
  26      0.1380032548
  27     -0.0409861992
  28     -0.0409861992
Sym=      A1        
Ene=      0.2242194894
Spin=     Alpha     
Occup=    0.0       
   1      0.0616453333
   2      0.1564434484
   3      0.0000000000
   4      0.3299500901
   5      0.1575712134
   6     -0.0691049445
   7     -0.0000000000
   8      0.1906740907
   9      0.2118745868
  10     -0.0052931692
  11      0.0000000000
  12     -0.3749476791
  13     -0.0887529378
  14     -0.1774008362
  15     -0.0000000000
  16     -0.4310392062
  17     -0.0295160067
  18      0.1684122583
  19     -0.0000000000
  20      0.2282264972
  21      0.0383395258
  22     -0.3130293146
  23     -0.0951283553
  24     -0.3146713237
  25      0.0038157397
  26      0.2864738309
  27     -0.0875275402
  28     -0.0875275402
Sym=      A1        
Ene=      0.2320308840
Spin=     Alpha     
Occup=    0.0       
   1      0.3322401142
   2      0.3758307855
   3     -0.0000000000
   4     -0.0998347298
   5     -0.3009163746
   6     -0.3071579858
   7      0.0000000000
   8     -0.1129536236
   9     -0.1826696488
  10      0.0503282095
  11     -0.0000000000
  12      0.0887111071
  13     -0.0093700250
  14     -0.1580769297
  15     -0.0000000000
  16      0.2153814937
  17     -0.0046532409
  18      0.0558159978
  19      0.0000000000
  20     -0.0847684207
  21      0.3605448057
  22     -0.4732238261
  23      0.0903710723
  24     -0.0136651341
  25      0.2201855386
  26     -0.0103999751
  27      0.0464211266
  28      0.0464211266
Sym=      A1        
Ene=      0.2321309157
Spin=     Alpha     
Occup=    0.0       
   1     -0.2328660287
   2     -0.1217360722
   3      0.0000000000
   4     -0.1327451579
   5     -0.0811266766
   6      0.0801103797
   7     -0.0000000000
   8      0.1089127539
   9      0.0234795474
  10      0.1876394236
  11     -0.0000000000
  12      0.0370655209
  13     -0.0738553382
  14     -0.4972513915
  15     -0.0000000000
  16      0.0588944636
  17     -0.2024377534
  18      0.1303187744
  19      0.0000000000
  20     -0.1082362740
  21      0.0350052346
  22      0.3031584083
  23      0.1219354376
  24     -0.3207829650
  25      0.4789475764
  26      0.1568116825
  27      0.1740622077
  28      0.1740622077
Sym=      A1        
Ene=      0.2349791089
Spin=     Alpha     
Occup=    0.0       
   1      0.4116083245
   2     -0.2617343487
   3      0.0000000000
   4      0.1392014018
   5      0.0361271614
   6      0.2480928960
   7     -0.0000000000
   8     -0.2421238885
   9     -0.0396800444
  10      0.0886920395
  11      0.0000000000
  12      0.0933845788
  13     -0.0084249392
  14     -0.2395648566
  15     -0.0000000000
  16      0.1140375003
  17      0.1854650188
  18     -0.0539030054
  19     -0.0000000000
  20      0.0014046317
  21     -0.3000687702
  22     -0.1299165547
  23     -0.5198809570
  24     -0.1194039140
  25      0.2540557071
  26     -0.1475070841
  27     -0.0936179310
  28     -0.0936179310
Sym=      A1        
Ene=      0.2446040673
Spin=     Alpha     
Occup=    0.0       
   1     -0.0602562793
   2      0.0192473489
   3     -0.0000000000
   4     -0.1269945177
   5     -0.1487741039
   6     -0.0058611051
   7      0.0000000000
   8      0.0349879324
   9     -0.0444118828
  10      0.1572537368
  11      0.0000000000
  12      0.1545260163
  13      0.4669812761
  14     -0.1658512007
  15     -0.0000000000
  16     -0.1822507238
  17      0.3247652907
  18     -0.1199073332
  19     -0.0000000000
  20     -0.0091680641
  21      0.1235269392
  22      0.0708644493
  23      0.1251680388
  24     -0.5084716188
  25     -0.2787797666
  26     -0.2469886387
  27     -0.1923005550
  28     -0.1923005550
Sym=      A1        
Ene=      0.2512787485
Spin=     Alpha     
Occup=    0.0       
   1      0.1775422205
   2     -0.0459066350
   3     -0.0000000000
   4      0.0140715620
   5     -0.0094748882
   6      0.0650682577
   7      0.0000000000
   8     -0.1522354671
   9     -0.0481552624
  10     -0.1351889186
  11     -0.0000000000
  12      0.2427504038
  13      0.3815224901
  14      0.0789599556
  15      0.0000000000
  16     -0.0587043212
  17     -0.4698112921
  18      0.0865739311
  19      0.0000000000
  20     -0.0816767434
  21     -0.0808872960
  22     -0.0816423779
  23     -0.1683462752
  24     -0.2342476474
  25     -0.3261424887
  26      0.2864545502
  27      0.3034604169
  28      0.3034604169
