10
This is a temporary strucutre for Sparrow to calculate energy and gradient
  C         2.35550         -0.90647        -2.16582
  C         1.99603         -0.20376        -3.20880
  H         1.73651         -1.89475        -1.88669
  H         1.01581         -0.43007        -3.83261
  H         2.42897          0.63779        -3.55099
  C         3.58366         -0.73867        -1.34985
  H         3.65961         -1.62856        -0.82007
  H         4.64836         -0.89542        -2.06092
  H         3.62972          0.15103        -0.60972
  C        -4.02128          2.18963        10.51041
