14
 step=           0     theta[rad]=           0.0000
  C        -1.17710          1.52264        -0.19512
  C         0.05684          1.51500         0.29482
  C         1.17990          0.67186        -0.08712
  C         1.17820         -0.66880        -0.09081
  C         0.06090         -1.53624         0.28108
  C        -1.19099         -1.47115        -0.15143
  H         0.29599          2.25306         1.05889
  H         2.15125          1.14910        -0.18551
  H         2.13125         -1.17522        -0.21554
  H         0.27200         -2.17861         1.13622
  H        -1.92154         -2.24479         0.16684
  H        -1.43836         -1.00204        -1.10109
  H        -1.99713          1.94468         0.40889
  H        -1.49197          0.86337        -0.99406
14
 step=           1     theta[rad]=           0.0105
  C        -1.17710          1.52264        -0.19512
  C         0.05684          1.51500         0.29482
  C         1.17990          0.67186        -0.08712
  C         1.17820         -0.66880        -0.09081
  C         0.06090         -1.53624         0.28108
  C        -1.19099         -1.47115        -0.15144
  H         0.29599          2.25306         1.05889
  H         2.15125          1.14910        -0.18551
  H         2.13125         -1.17522        -0.21554
  H         0.27200         -2.17861         1.13622
  H        -1.92155         -2.24478         0.16685
  H        -1.43836         -1.00204        -1.10109
  H        -1.99712          1.94469         0.40888
  H        -1.49197          0.86337        -0.99406
14
 step=           2     theta[rad]=           0.0209
  C        -1.17710          1.52263        -0.19511
  C         0.05684          1.51501         0.29482
  C         1.17990          0.67186        -0.08713
  C         1.17820         -0.66880        -0.09081
  C         0.06090         -1.53624         0.28108
  C        -1.19099         -1.47116        -0.15145
  H         0.29598          2.25305         1.05891
  H         2.15125          1.14911        -0.18552
  H         2.13126         -1.17521        -0.21553
  H         0.27201         -2.17863         1.13620
  H        -1.92157         -2.24470         0.16690
  H        -1.43837         -1.00200        -1.10107
  H        -1.99711          1.94475         0.40883
  H        -1.49196          0.86340        -0.99409
14
 step=           3     theta[rad]=           0.0314
  C        -1.17711          1.52260        -0.19508
  C         0.05684          1.51502         0.29481
  C         1.17990          0.67186        -0.08713
  C         1.17820         -0.66880        -0.09081
  C         0.06089         -1.53622         0.28110
  C        -1.19098         -1.47120        -0.15148
  H         0.29597          2.25301         1.05895
  H         2.15124          1.14914        -0.18554
  H         2.13128         -1.17520        -0.21551
  H         0.27203         -2.17870         1.13613
  H        -1.92164         -2.24446         0.16709
  H        -1.43841         -1.00189        -1.10098
  H        -1.99708          1.94494         0.40866
  H        -1.49191          0.86349        -0.99416
14
 step=           4     theta[rad]=           0.0419
  C        -1.17714          1.52252        -0.19501
  C         0.05684          1.51506         0.29479
  C         1.17991          0.67185        -0.08714
  C         1.17822         -0.66881        -0.09081
  C         0.06088         -1.53619         0.28113
  C        -1.19096         -1.47131        -0.15156
  H         0.29593          2.25291         1.05906
  H         2.15121          1.14919        -0.18559
  H         2.13132         -1.17516        -0.21545
  H         0.27208         -2.17887         1.13597
  H        -1.92182         -2.24387         0.16754
  H        -1.43849         -1.00161        -1.10077
  H        -1.99699          1.94540         0.40826
  H        -1.49181          0.86370        -0.99433
14
 step=           5     theta[rad]=           0.0524
  C        -1.17720          1.52237        -0.19487
  C         0.05684          1.51513         0.29476
  C         1.17993          0.67185        -0.08716
  C         1.17825         -0.66883        -0.09081
  C         0.06085         -1.53611         0.28119
  C        -1.19092         -1.47151        -0.15172
  H         0.29586          2.25273         1.05928
  H         2.15116          1.14930        -0.18568
  H         2.13141         -1.17509        -0.21534
  H         0.27217         -2.17919         1.13565
  H        -1.92217         -2.24272         0.16841
  H        -1.43865         -1.00108        -1.10038
  H        -1.99682          1.94630         0.40748
  H        -1.49160          0.86412        -0.99466
14
 step=           6     theta[rad]=           0.0628
  C        -1.17730          1.52210        -0.19464
  C         0.05684          1.51526         0.29471
  C         1.17996          0.67184        -0.08720
  C         1.17830         -0.66886        -0.09080
  C         0.06081         -1.53599         0.28130
  C        -1.19085         -1.47185        -0.15200
  H         0.29573          2.25241         1.05965
  H         2.15108          1.14948        -0.18584
  H         2.13156         -1.17497        -0.21515
  H         0.27232         -2.17975         1.13511
  H        -1.92276         -2.24073         0.16991
  H        -1.43893         -1.00016        -1.09969
  H        -1.99652          1.94786         0.40613
  H        -1.49125          0.86483        -0.99523
14
 step=           7     theta[rad]=           0.0733
  C        -1.17745          1.52169        -0.19426
  C         0.05685          1.51546         0.29463
  C         1.18000          0.67183        -0.08726
  C         1.17838         -0.66890        -0.09079
  C         0.06074         -1.53579         0.28148
  C        -1.19075         -1.47239        -0.15243
  H         0.29553          2.25191         1.06023
  H         2.15095          1.14977        -0.18610
  H         2.13180         -1.17477        -0.21484
  H         0.27257         -2.18064         1.13426
  H        -1.92370         -2.23760         0.17228
  H        -1.43937         -0.99871        -1.09860
  H        -1.99605          1.95031         0.40400
  H        -1.49070          0.86596        -0.99614
14
 step=           8     theta[rad]=           0.0838
  C        -1.17768          1.52108        -0.19370
  C         0.05686          1.51575         0.29451
  C         1.18007          0.67182        -0.08735
  C         1.17849         -0.66897        -0.09078
  C         0.06063         -1.53550         0.28174
  C        -1.19059         -1.47320        -0.15307
  H         0.29524          2.25117         1.06110
  H         2.15075          1.15021        -0.18648
  H         2.13215         -1.17449        -0.21439
  H         0.27294         -2.18195         1.13300
  H        -1.92509         -2.23297         0.17580
  H        -1.44003         -0.99657        -1.09699
  H        -1.99536          1.95394         0.40085
  H        -1.48987          0.86763        -0.99747
14
 step=           9     theta[rad]=           0.0942
  C        -1.17800          1.52021        -0.19291
  C         0.05687          1.51616         0.29435
  C         1.18017          0.67180        -0.08747
  C         1.17866         -0.66907        -0.09076
  C         0.06049         -1.53509         0.28210
  C        -1.19038         -1.47433        -0.15398
  H         0.29483          2.25013         1.06232
  H         2.15047          1.15082        -0.18701
  H         2.13264         -1.17408        -0.21376
  H         0.27346         -2.18379         1.13122
  H        -1.92705         -2.22644         0.18074
  H        -1.44095         -0.99354        -1.09473
  H        -1.99439          1.95905         0.39641
  H        -1.48872          0.86999        -0.99936
14
 step=          10     theta[rad]=           0.1047
  C        -1.17843          1.51905        -0.19185
  C         0.05688          1.51672         0.29412
  C         1.18030          0.67177        -0.08763
  C         1.17888         -0.66920        -0.09073
  C         0.06029         -1.53453         0.28260
  C        -1.19008         -1.47586        -0.15520
  H         0.29427          2.24872         1.06396
  H         2.15009          1.15164        -0.18773
  H         2.13331         -1.17354        -0.21291
  H         0.27416         -2.18628         1.12882
  H        -1.92969         -2.21763         0.18742
  H        -1.44219         -0.98946        -1.09167
  H        -1.99307          1.96594         0.39042
  H        -1.48715          0.87316        -1.00190
14
 step=          11     theta[rad]=           0.1152
  C        -1.17900          1.51753        -0.19046
  C         0.05690          1.51744         0.29382
  C         1.18047          0.67173        -0.08785
  C         1.17917         -0.66937        -0.09069
  C         0.06003         -1.53381         0.28324
  C        -1.18970         -1.47785        -0.15680
  H         0.29355          2.24689         1.06611
  H         2.14960          1.15271        -0.18867
  H         2.13418         -1.17283        -0.21180
  H         0.27507         -2.18952         1.12569
  H        -1.93313         -2.20616         0.19611
  H        -1.44381         -0.98415        -1.08768
  H        -1.99136          1.97493         0.38261
  H        -1.48512          0.87730        -1.00522
14
 step=          12     theta[rad]=           0.1257
  C        -1.17971          1.51561        -0.18871
  C         0.05692          1.51836         0.29345
  C         1.18069          0.67168        -0.08812
  C         1.17953         -0.66959        -0.09065
  C         0.05970         -1.53290         0.28405
  C        -1.18922         -1.48036        -0.15880
  H         0.29263          2.24457         1.06881
  H         2.14898          1.15406        -0.18985
  H         2.13528         -1.17194        -0.21040
  H         0.27621         -2.19361         1.12174
  H        -1.93747         -2.19169         0.20707
  H        -1.44585         -0.97745        -1.08266
  H        -1.98920          1.98626         0.37277
  H        -1.48255          0.88252        -1.00939
14
 step=          13     theta[rad]=           0.1361
  C        -1.18058          1.51327        -0.18657
  C         0.05695          1.51948         0.29300
  C         1.18096          0.67163        -0.08845
  C         1.17997         -0.66985        -0.09059
  C         0.05930         -1.53178         0.28504
  C        -1.18863         -1.48344        -0.16126
  H         0.29151          2.24174         1.07212
  H         2.14821          1.15571        -0.19129
  H         2.13663         -1.17084        -0.20869
  H         0.27762         -2.19861         1.11691
  H        -1.94278         -2.17398         0.22050
  H        -1.44835         -0.96924        -1.07651
  H        -1.98656          2.00013         0.36071
  H        -1.47940          0.88891        -1.01451
14
 step=          14     theta[rad]=           0.1466
  C        -1.18162          1.51048        -0.18403
  C         0.05698          1.52081         0.29245
  C         1.18127          0.67156        -0.08885
  C         1.18050         -0.67017        -0.09052
  C         0.05883         -1.53045         0.28621
  C        -1.18793         -1.48710        -0.16419
  H         0.29018          2.23837         1.07606
  H         2.14731          1.15768        -0.19302
  H         2.13823         -1.16954        -0.20665
  H         0.27929         -2.20457         1.11116
  H        -1.94910         -2.15289         0.23648
  H        -1.45133         -0.95947        -1.06919
  H        -1.98342          2.01664         0.34637
  H        -1.47566          0.89652        -1.02060
14
 step=          15     theta[rad]=           0.1571
  C        -1.18282          1.50725        -0.18108
  C         0.05702          1.52235         0.29182
  C         1.18164          0.67148        -0.08931
  C         1.18111         -0.67053        -0.09045
  C         0.05827         -1.52892         0.28758
  C        -1.18712         -1.49134        -0.16758
  H         0.28864          2.23447         1.08062
  H         2.14626          1.15996        -0.19501
  H         2.14008         -1.16803        -0.20429
  H         0.28123         -2.21146         1.10451
  H        -1.95642         -2.12849         0.25497
  H        -1.45477         -0.94817        -1.06072
  H        -1.97978          2.03575         0.32977
  H        -1.47133          0.90532        -1.02765
14
 step=          16     theta[rad]=           0.1676
  C        -1.18417          1.50362        -0.17777
  C         0.05706          1.52409         0.29112
  C         1.18205          0.67139        -0.08982
  C         1.18180         -0.67094        -0.09036
  C         0.05766         -1.52719         0.28911
  C        -1.18621         -1.49610        -0.17138
  H         0.28690          2.23008         1.08574
  H         2.14509          1.16252        -0.19725
  H         2.14216         -1.16633        -0.20164
  H         0.28340         -2.21921         1.09704
  H        -1.96464         -2.10107         0.27576
  H        -1.45864         -0.93547        -1.05119
  H        -1.97568          2.05722         0.31111
  H        -1.46646          0.91521        -1.03556
14
 step=          17     theta[rad]=           0.1780
  C        -1.18565          1.49966        -0.17416
  C         0.05711          1.52598         0.29035
  C         1.18250          0.67129        -0.09038
  C         1.18255         -0.67138        -0.09027
  C         0.05698         -1.52531         0.29078
  C        -1.18521         -1.50128        -0.17553
  H         0.28501          2.22531         1.09132
  H         2.14380          1.16531        -0.19969
  H         2.14443         -1.16449        -0.19875
  H         0.28577         -2.22765         1.08889
  H        -1.97360         -2.07119         0.29840
  H        -1.46285         -0.92163        -1.04082
  H        -1.97123          2.08062         0.29079
  H        -1.46116          0.92599        -1.04419
14
 step=          18     theta[rad]=           0.1885
  C        -1.18719          1.49550        -0.17037
  C         0.05716          1.52796         0.28954
  C         1.18297          0.67119        -0.09097
  C         1.18334         -0.67185        -0.09017
  C         0.05627         -1.52333         0.29254
  C        -1.18417         -1.50674        -0.17989
  H         0.28303          2.22028         1.09720
  H         2.14245          1.16824        -0.20226
  H         2.14682         -1.16255        -0.19571
  H         0.28826         -2.23653         1.08032
  H        -1.98303         -2.03976         0.32221
  H        -1.46729         -0.90708        -1.02991
  H        -1.96654          2.10523         0.26940
  H        -1.45558          0.93733        -1.05327
14
 step=          19     theta[rad]=           0.1990
  C        -1.18876          1.49130        -0.16653
  C         0.05721          1.52997         0.28872
  C         1.18345          0.67108        -0.09157
  C         1.18414         -0.67233        -0.09007
  C         0.05555         -1.52133         0.29431
  C        -1.18311         -1.51225        -0.18430
  H         0.28102          2.21521         1.10313
  H         2.14109          1.17121        -0.20485
  H         2.14923         -1.16058        -0.19264
  H         0.29078         -2.24549         1.07167
  H        -1.99254         -2.00802         0.34627
  H        -1.47177         -0.89237        -1.01889
  H        -1.96180          2.13008         0.24781
  H        -1.44995          0.94878        -1.06243
14
 step=          20     theta[rad]=           0.2094
  C        -1.19026          1.48727        -0.16285
  C         0.05725          1.53189         0.28794
  C         1.18391          0.67098        -0.09214
  C         1.18490         -0.67278        -0.08997
  C         0.05487         -1.51941         0.29601
  C        -1.18210         -1.51754        -0.18853
  H         0.27909          2.21034         1.10882
  H         2.13978          1.17405        -0.20734
  H         2.15154         -1.15870        -0.18969
  H         0.29320         -2.25410         1.06336
  H        -2.00168         -1.97755         0.36936
  H        -1.47607         -0.87826        -1.00831
  H        -1.95726          2.15394         0.22708
  H        -1.44454          0.95977        -1.07123
14
 step=          21     theta[rad]=           0.2199
  C        -1.19160          1.48365        -0.15955
  C         0.05730          1.53362         0.28724
  C         1.18432          0.67089        -0.09265
  C         1.18559         -0.67319        -0.08988
  C         0.05425         -1.51769         0.29754
  C        -1.18119         -1.52228        -0.19232
  H         0.27737          2.20597         1.11392
  H         2.13861          1.17660        -0.20957
  H         2.15361         -1.15701        -0.18705
  H         0.29536         -2.26182         1.05591
  H        -2.00988         -1.95023         0.39007
  H        -1.47992         -0.86560        -0.99882
  H        -1.95318          2.17534         0.20849
  H        -1.43969          0.96963        -1.07912
14
 step=          22     theta[rad]=           0.2304
  C        -1.19269          1.48073        -0.15689
  C         0.05733          1.53502         0.28667
  C         1.18465          0.67082        -0.09306
  C         1.18614         -0.67352        -0.08981
  C         0.05375         -1.51629         0.29878
  C        -1.18045         -1.52611        -0.19538
  H         0.27597          2.20244         1.11805
  H         2.13766          1.17866        -0.21137
  H         2.15529         -1.15565        -0.18492
  H         0.29711         -2.26806         1.04989
  H        -2.01650         -1.92815         0.40680
  H        -1.48304         -0.85538        -0.99116
  H        -1.94989          2.19263         0.19347
  H        -1.43578          0.97759        -1.08550
14
 step=          23     theta[rad]=           0.2409
  C        -1.19341          1.47879        -0.15511
  C         0.05735          1.53595         0.28629
  C         1.18487          0.67077        -0.09334
  C         1.18651         -0.67374        -0.08977
  C         0.05342         -1.51537         0.29960
  C        -1.17996         -1.52866        -0.19742
  H         0.27504          2.20009         1.12079
  H         2.13703          1.18003        -0.21257
  H         2.15641         -1.15474        -0.18350
  H         0.29828         -2.27221         1.04589
  H        -2.02090         -1.91346         0.41793
  H        -1.48511         -0.84857        -0.98606
  H        -1.94770          2.20413         0.18347
  H        -1.43317          0.98289        -1.08974
14
 step=          24     theta[rad]=           0.2513
  C        -1.19367          1.47809        -0.15447
  C         0.05736          1.53628         0.28615
  C         1.18495          0.67076        -0.09344
  C         1.18664         -0.67382        -0.08975
  C         0.05330         -1.51504         0.29989
  C        -1.17979         -1.52958        -0.19816
  H         0.27471          2.19924         1.12178
  H         2.13681          1.18053        -0.21301
  H         2.15681         -1.15441        -0.18298
  H         0.29870         -2.27370         1.04444
  H        -2.02249         -1.90817         0.42194
  H        -1.48586         -0.84612        -0.98422
  H        -1.94691          2.20827         0.17987
  H        -1.43223          0.98480        -1.09127
14
 step=          25     theta[rad]=           0.2618
  C        -1.19339          1.47885        -0.15517
  C         0.05735          1.53592         0.28630
  C         1.18486          0.67078        -0.09333
  C         1.18650         -0.67373        -0.08977
  C         0.05343         -1.51540         0.29957
  C        -1.17998         -1.52859        -0.19736
  H         0.27507          2.20016         1.12071
  H         2.13705          1.17999        -0.21254
  H         2.15637         -1.15477        -0.18354
  H         0.29824         -2.27208         1.04601
  H        -2.02077         -1.91390         0.41759
  H        -1.48505         -0.84878        -0.98621
  H        -1.94776          2.20378         0.18378
  H        -1.43325          0.98273        -1.08961
14
 step=          26     theta[rad]=           0.2723
  C        -1.19252          1.48119        -0.15730
  C         0.05733          1.53480         0.28676
  C         1.18460          0.67083        -0.09300
  C         1.18606         -0.67347        -0.08982
  C         0.05383         -1.51651         0.29858
  C        -1.18057         -1.52551        -0.19490
  H         0.27619          2.20299         1.11740
  H         2.13781          1.17834        -0.21109
  H         2.15503         -1.15586        -0.18525
  H         0.29684         -2.26708         1.05083
  H        -2.01546         -1.93161         0.40418
  H        -1.48255         -0.85698        -0.99236
  H        -1.95041          2.18992         0.19582
  H        -1.43639          0.97634        -1.08450
14
 step=          27     theta[rad]=           0.2827
  C        -1.19106          1.48512        -0.16089
  C         0.05728          1.53292         0.28752
  C         1.18415          0.67093        -0.09244
  C         1.18531         -0.67302        -0.08992
  C         0.05450         -1.51838         0.29692
  C        -1.18155         -1.52036        -0.19079
  H         0.27806          2.20773         1.11186
  H         2.13908          1.17557        -0.20867
  H         2.15278         -1.15769        -0.18812
  H         0.29449         -2.25870         1.05892
  H        -2.00657         -1.96126         0.38170
  H        -1.47837         -0.87072        -1.00266
  H        -1.95483          2.16670         0.21600
  H        -1.44165          0.96564        -1.07594
14
 step=          28     theta[rad]=           0.2932
  C        -1.18907          1.49046        -0.16576
  C         0.05722          1.53037         0.28856
  C         1.18354          0.67106        -0.09168
  C         1.18430         -0.67242        -0.09005
  C         0.05541         -1.52092         0.29467
  C        -1.18290         -1.51336        -0.18518
  H         0.28062          2.21419         1.10432
  H         2.14082          1.17180        -0.20537
  H         2.14971         -1.16019        -0.19202
  H         0.29128         -2.24729         1.06993
  H        -1.99446         -2.00164         0.35110
  H        -1.47267         -0.88942        -1.01668
  H        -1.96085          2.13508         0.24347
  H        -1.44882          0.95108        -1.06428
14
 step=          29     theta[rad]=           0.3037
  C        -1.18668          1.49688        -0.17162
  C         0.05714          1.52731         0.28981
  C         1.18282          0.67122        -0.09077
  C         1.18308         -0.67170        -0.09020
  C         0.05651         -1.52398         0.29196
  C        -1.18451         -1.50493        -0.17845
  H         0.28368          2.22194         1.09526
  H         2.14290          1.16727        -0.20141
  H         2.14603         -1.16319        -0.19671
  H         0.28744         -2.23359         1.08315
  H        -1.97991         -2.05015         0.31434
  H        -1.46582         -0.91189        -1.03352
  H        -1.96809          2.09709         0.27647
  H        -1.45743          0.93358        -1.05027
14
 step=          30     theta[rad]=           0.3142
  C        -1.18409          1.50385        -0.17798
  C         0.05706          1.52398         0.29116
  C         1.18203          0.67139        -0.08979
  C         1.18176         -0.67091        -0.09037
  C         0.05769         -1.52730         0.28901
  C        -1.18626         -1.49579        -0.17114
  H         0.28701          2.23036         1.08542
  H         2.14516          1.16236        -0.19711
  H         2.14203         -1.16644        -0.20181
  H         0.28326         -2.21872         1.09751
  H        -1.96412         -2.10281         0.27444
  H        -1.45839         -0.93628        -1.05180
  H        -1.97594          2.05586         0.31229
  H        -1.46677          0.91459        -1.03506
14
 step=          31     theta[rad]=           0.3246
  C        -1.18154          1.51068        -0.18422
  C         0.05698          1.52071         0.29249
  C         1.18125          0.67156        -0.08882
  C         1.18046         -0.67014        -0.09053
  C         0.05886         -1.53055         0.28613
  C        -1.18798         -1.48683        -0.16397
  H         0.29028          2.23862         1.07577
  H         2.14738          1.15754        -0.19289
  H         2.13811         -1.16963        -0.20680
  H         0.27917         -2.20413         1.11159
  H        -1.94863         -2.15446         0.23530
  H        -1.45111         -0.96020        -1.06973
  H        -1.98365          2.01542         0.34743
  H        -1.47594          0.89595        -1.02015
14
 step=          32     theta[rad]=           0.3351
  C        -1.17934          1.51660        -0.18962
  C         0.05691          1.51789         0.29364
  C         1.18058          0.67171        -0.08798
  C         1.17934         -0.66948        -0.09067
  C         0.05987         -1.53337         0.28363
  C        -1.18947         -1.47907        -0.15777
  H         0.29310          2.24577         1.06741
  H         2.14930          1.15336        -0.18924
  H         2.13471         -1.17240        -0.21113
  H         0.27562         -2.19149         1.12378
  H        -1.93522         -2.19917         0.20141
  H        -1.44480         -0.98091        -1.08526
  H        -1.99032          1.98040         0.37785
  H        -1.48388          0.87982        -1.00723
14
 step=          33     theta[rad]=           0.3456
  C        -1.17778          1.52081        -0.19345
  C         0.05686          1.51588         0.29446
  C         1.18010          0.67181        -0.08738
  C         1.17854         -0.66900        -0.09077
  C         0.06059         -1.53537         0.28185
  C        -1.19053         -1.47355        -0.15336
  H         0.29511          2.25085         1.06148
  H         2.15066          1.15040        -0.18664
  H         2.13230         -1.17436        -0.21420
  H         0.27310         -2.18252         1.13245
  H        -1.92570         -2.23094         0.17733
  H        -1.44031         -0.99563        -1.09629
  H        -1.99506          1.95552         0.39947
  H        -1.48951          0.86836        -0.99806
14
 step=          34     theta[rad]=           0.3560
  C        -1.17711          1.52261        -0.19510
  C         0.05684          1.51502         0.29481
  C         1.17990          0.67186        -0.08713
  C         1.17820         -0.66880        -0.09081
  C         0.06090         -1.53623         0.28109
  C        -1.19098         -1.47119        -0.15147
  H         0.29597          2.25302         1.05893
  H         2.15124          1.14913        -0.18553
  H         2.13127         -1.17520        -0.21552
  H         0.27202         -2.17867         1.13616
  H        -1.92161         -2.24456         0.16701
  H        -1.43839         -1.00193        -1.10101
  H        -1.99709          1.94486         0.40873
  H        -1.49193          0.86345        -0.99413
14
 step=          35     theta[rad]=           0.3665
  C        -1.17750          1.52155        -0.19413
  C         0.05685          1.51552         0.29461
  C         1.18002          0.67183        -0.08728
  C         1.17840         -0.66892        -0.09079
  C         0.06072         -1.53573         0.28154
  C        -1.19071         -1.47258        -0.15258
  H         0.29547          2.25174         1.06043
  H         2.15090          1.14987        -0.18618
  H         2.13188         -1.17471        -0.21474
  H         0.27266         -2.18093         1.13397
  H        -1.92401         -2.23655         0.17308
  H        -1.43952         -0.99823        -1.09823
  H        -1.99590          1.95113         0.40328
  H        -1.49051          0.86634        -0.99644
14
 step=          36     theta[rad]=           0.3770
  C        -1.17900          1.51753        -0.19046
  C         0.05690          1.51744         0.29382
  C         1.18047          0.67173        -0.08785
  C         1.17917         -0.66937        -0.09069
  C         0.06003         -1.53381         0.28324
  C        -1.18970         -1.47785        -0.15680
  H         0.29355          2.24689         1.06611
  H         2.14960          1.15271        -0.18867
  H         2.13418         -1.17283        -0.21180
  H         0.27507         -2.18952         1.12569
  H        -1.93313         -2.20616         0.19611
  H        -1.44381         -0.98415        -1.08768
  H        -1.99136          1.97493         0.38261
  H        -1.48512          0.87730        -1.00522
14
 step=          37     theta[rad]=           0.3875
  C        -1.18147          1.51089        -0.18440
  C         0.05698          1.52061         0.29253
  C         1.18123          0.67157        -0.08879
  C         1.18042         -0.67012        -0.09053
  C         0.05890         -1.53065         0.28604
  C        -1.18803         -1.48656        -0.16376
  H         0.29038          2.23887         1.07548
  H         2.14744          1.15739        -0.19276
  H         2.13799         -1.16973        -0.20695
  H         0.27904         -2.20369         1.11202
  H        -1.94817         -2.15601         0.23412
  H        -1.45089         -0.96092        -1.07027
  H        -1.98388          2.01420         0.34849
  H        -1.47622          0.89539        -1.01970
14
 step=          38     theta[rad]=           0.3979
  C        -1.18460          1.50246        -0.17671
  C         0.05708          1.52464         0.29089
  C         1.18218          0.67136        -0.08998
  C         1.18202         -0.67107        -0.09033
  C         0.05746         -1.52664         0.28960
  C        -1.18591         -1.49761        -0.17260
  H         0.28635          2.22869         1.08738
  H         2.14471          1.16334        -0.19796
  H         2.14283         -1.16579        -0.20079
  H         0.28409         -2.22168         1.09465
  H        -1.96727         -2.09232         0.28239
  H        -1.45987         -0.93142        -1.04816
  H        -1.97438          2.06407         0.30516
  H        -1.46491          0.91837        -1.03809
14
 step=          39     theta[rad]=           0.4084
  C        -1.18795          1.49348        -0.16852
  C         0.05718          1.52893         0.28915
  C         1.18320          0.67114        -0.09126
  C         1.18373         -0.67208        -0.09012
  C         0.05593         -1.52236         0.29339
  C        -1.18366         -1.50939        -0.18202
  H         0.28206          2.21784         1.10005
  H         2.14180          1.16967        -0.20351
  H         2.14798         -1.16160        -0.19423
  H         0.28947         -2.24085         1.07615
  H        -1.98761         -2.02447         0.33380
  H        -1.46945         -0.89999        -1.02460
  H        -1.96426          2.11720         0.25900
  H        -1.45287          0.94284        -1.05768
14
 step=          40     theta[rad]=           0.4189
  C        -1.19093          1.48546        -0.16120
  C         0.05728          1.53276         0.28759
  C         1.18411          0.67094        -0.09239
  C         1.18525         -0.67299        -0.08993
  C         0.05456         -1.51854         0.29678
  C        -1.18164         -1.51991        -0.19043
  H         0.27823          2.20815         1.11138
  H         2.13920          1.17533        -0.20846
  H         2.15258         -1.15785        -0.18837
  H         0.29428         -2.25797         1.05963
  H        -2.00579         -1.96386         0.37974
  H        -1.47800         -0.87192        -1.00356
  H        -1.95522          2.16466         0.21776
  H        -1.44211          0.96471        -1.07519
14
 step=          41     theta[rad]=           0.4294
  C        -1.19299          1.47992        -0.15614
  C         0.05734          1.53540         0.28651
  C         1.18474          0.67080        -0.09318
  C         1.18630         -0.67361        -0.08979
  C         0.05361         -1.51591         0.29912
  C        -1.18025         -1.52718        -0.19624
  H         0.27558          2.20146         1.11920
  H         2.13740          1.17923        -0.21187
  H         2.15576         -1.15527        -0.18432
  H         0.29760         -2.26979         1.04822
  H        -2.01834         -1.92201         0.41145
  H        -1.48391         -0.85253        -0.98903
  H        -1.94897          2.19743         0.18929
  H        -1.43469          0.97980        -1.08727
14
 step=          42     theta[rad]=           0.4398
  C        -1.19367          1.47810        -0.15448
  C         0.05736          1.53627         0.28616
  C         1.18495          0.67076        -0.09344
  C         1.18664         -0.67381        -0.08975
  C         0.05330         -1.51504         0.29989
  C        -1.17979         -1.52957        -0.19815
  H         0.27471          2.19926         1.12177
  H         2.13681          1.18052        -0.21300
  H         2.15680         -1.15442        -0.18299
  H         0.29869         -2.27368         1.04447
  H        -2.02246         -1.90825         0.42188
  H        -1.48585         -0.84616        -0.98425
  H        -1.94692          2.20821         0.17993
  H        -1.43225          0.98477        -1.09124
14
 step=          43     theta[rad]=           0.4503
  C        -1.19273          1.48062        -0.15679
  C         0.05733          1.53507         0.28665
  C         1.18466          0.67082        -0.09308
  C         1.18616         -0.67353        -0.08981
  C         0.05373         -1.51624         0.29882
  C        -1.18043         -1.52626        -0.19550
  H         0.27592          2.20231         1.11820
  H         2.13763          1.17874        -0.21144
  H         2.15535         -1.15560        -0.18484
  H         0.29718         -2.26829         1.04967
  H        -2.01674         -1.92732         0.40742
  H        -1.48316         -0.85499        -0.99087
  H        -1.94977          2.19327         0.19291
  H        -1.43563          0.97789        -1.08574
14
 step=          44     theta[rad]=           0.4608
  C        -1.19026          1.48727        -0.16285
  C         0.05725          1.53189         0.28794
  C         1.18391          0.67098        -0.09214
  C         1.18490         -0.67278        -0.08997
  C         0.05487         -1.51941         0.29601
  C        -1.18210         -1.51754        -0.18853
  H         0.27909          2.21034         1.10882
  H         2.13978          1.17405        -0.20734
  H         2.15154         -1.15870        -0.18969
  H         0.29320         -2.25410         1.06336
  H        -2.00168         -1.97755         0.36936
  H        -1.47607         -0.87826        -1.00831
  H        -1.95726          2.15394         0.22708
  H        -1.44454          0.95977        -1.07123
14
 step=          45     theta[rad]=           0.4712
  C        -1.18668          1.49688        -0.17162
  C         0.05714          1.52731         0.28981
  C         1.18282          0.67122        -0.09077
  C         1.18308         -0.67170        -0.09020
  C         0.05651         -1.52398         0.29196
  C        -1.18451         -1.50493        -0.17845
  H         0.28368          2.22194         1.09526
  H         2.14290          1.16727        -0.20141
  H         2.14603         -1.16319        -0.19671
  H         0.28744         -2.23359         1.08315
  H        -1.97991         -2.05015         0.31434
  H        -1.46582         -0.91189        -1.03352
  H        -1.96809          2.09709         0.27647
  H        -1.45743          0.93358        -1.05027
14
 step=          46     theta[rad]=           0.4817
  C        -1.18274          1.50747        -0.18128
  C         0.05702          1.52225         0.29187
  C         1.18162          0.67148        -0.08927
  C         1.18107         -0.67051        -0.09045
  C         0.05831         -1.52902         0.28748
  C        -1.18717         -1.49104        -0.16734
  H         0.28874          2.23474         1.08031
  H         2.14633          1.15980        -0.19487
  H         2.13995         -1.16813        -0.20445
  H         0.28109         -2.21099         1.10497
  H        -1.95592         -2.13016         0.25371
  H        -1.45453         -0.94895        -1.06130
  H        -1.98003          2.03444         0.33091
  H        -1.47163          0.90472        -1.02716
14
 step=          47     theta[rad]=           0.4922
  C        -1.17934          1.51660        -0.18962
  C         0.05691          1.51789         0.29364
  C         1.18058          0.67171        -0.08798
  C         1.17934         -0.66948        -0.09067
  C         0.05987         -1.53337         0.28363
  C        -1.18947         -1.47907        -0.15777
  H         0.29310          2.24577         1.06741
  H         2.14930          1.15336        -0.18924
  H         2.13471         -1.17240        -0.21113
  H         0.27562         -2.19149         1.12378
  H        -1.93522         -2.19917         0.20141
  H        -1.44480         -0.98091        -1.08526
  H        -1.99032          1.98040         0.37785
  H        -1.48388          0.87982        -1.00723
14
 step=          48     theta[rad]=           0.5027
  C        -1.17736          1.52194        -0.19449
  C         0.05685          1.51534         0.29468
  C         1.17997          0.67184        -0.08722
  C         1.17833         -0.66888        -0.09080
  C         0.06078         -1.53591         0.28137
  C        -1.19081         -1.47206        -0.15217
  H         0.29565          2.25222         1.05988
  H         2.15103          1.14960        -0.18594
  H         2.13165         -1.17489        -0.21503
  H         0.27242         -2.18010         1.13478
  H        -1.92313         -2.23950         0.17085
  H        -1.43911         -0.99959        -1.09926
  H        -1.99634          1.94882         0.40529
  H        -1.49103          0.86528        -0.99559
14
 step=          49     theta[rad]=           0.5131
  C        -1.17738          1.52188        -0.19443
  C         0.05685          1.51536         0.29467
  C         1.17998          0.67184        -0.08723
  C         1.17834         -0.66888        -0.09080
  C         0.06077         -1.53588         0.28140
  C        -1.19080         -1.47214        -0.15223
  H         0.29563          2.25214         1.05996
  H         2.15101          1.14964        -0.18598
  H         2.13169         -1.17486        -0.21498
  H         0.27246         -2.18023         1.13466
  H        -1.92326         -2.23905         0.17119
  H        -1.43917         -0.99938        -1.09910
  H        -1.99627          1.94917         0.40499
  H        -1.49095          0.86544        -0.99572
14
 step=          50     theta[rad]=           0.5236
  C        -1.17952          1.51612        -0.18917
  C         0.05691          1.51812         0.29355
  C         1.18063          0.67170        -0.08805
  C         1.17943         -0.66953        -0.09066
  C         0.05979         -1.53314         0.28383
  C        -1.18935         -1.47970        -0.15828
  H         0.29287          2.24518         1.06810
  H         2.14914          1.15371        -0.18954
  H         2.13499         -1.17217        -0.21077
  H         0.27591         -2.19253         1.12278
  H        -1.93633         -2.19549         0.20420
  H        -1.44532         -0.97921        -1.08398
  H        -1.98977          1.98328         0.37535
  H        -1.48322          0.88115        -1.00830
14
 step=          51     theta[rad]=           0.5341
  C        -1.18332          1.50590        -0.17985
  C         0.05703          1.52300         0.29156
  C         1.18179          0.67144        -0.08950
  C         1.18137         -0.67068        -0.09041
  C         0.05805         -1.52828         0.28815
  C        -1.18678         -1.49310        -0.16899
  H         0.28799          2.23284         1.08252
  H         2.14583          1.16091        -0.19584
  H         2.14085         -1.16740        -0.20331
  H         0.28203         -2.21433         1.10174
  H        -1.95946         -2.11833         0.26267
  H        -1.45620         -0.94347        -1.05719
  H        -1.97826          2.04370         0.32286
  H        -1.46953          0.90898        -1.03058
14
 step=          52     theta[rad]=           0.5445
  C        -1.18778          1.49393        -0.16892
  C         0.05718          1.52872         0.28923
  C         1.18315          0.67115        -0.09119
  C         1.18364         -0.67203        -0.09013
  C         0.05600         -1.52257         0.29320
  C        -1.18377         -1.50881        -0.18155
  H         0.28227          2.21838         1.09942
  H         2.14194          1.16936        -0.20323
  H         2.14772         -1.16181        -0.19456
  H         0.28921         -2.23990         1.07707
  H        -1.98660         -2.02783         0.33126
  H        -1.46897         -0.90155        -1.02577
  H        -1.96476          2.11457         0.26129
  H        -1.45347          0.94163        -1.05671
14
 step=          53     theta[rad]=           0.5550
  C        -1.19160          1.48365        -0.15955
  C         0.05730          1.53362         0.28724
  C         1.18432          0.67089        -0.09265
  C         1.18559         -0.67319        -0.08988
  C         0.05425         -1.51769         0.29754
  C        -1.18119         -1.52228        -0.19232
  H         0.27737          2.20597         1.11392
  H         2.13861          1.17660        -0.20957
  H         2.15361         -1.15701        -0.18705
  H         0.29536         -2.26182         1.05591
  H        -2.00988         -1.95023         0.39007
  H        -1.47992         -0.86560        -0.99882
  H        -1.95318          2.17534         0.20849
  H        -1.43969          0.96963        -1.07912
14
 step=          54     theta[rad]=           0.5655
  C        -1.19357          1.47836        -0.15472
  C         0.05736          1.53615         0.28621
  C         1.18492          0.67076        -0.09340
  C         1.18659         -0.67378        -0.08976
  C         0.05335         -1.51517         0.29978
  C        -1.17986         -1.52922        -0.19787
  H         0.27484          2.19958         1.12140
  H         2.13690          1.18033        -0.21284
  H         2.15665         -1.15454        -0.18318
  H         0.29853         -2.27311         1.04501
  H        -2.02187         -1.91024         0.42037
  H        -1.48557         -0.84708        -0.98494
  H        -1.94722          2.20665         0.18128
  H        -1.43260          0.98405        -1.09067
14
 step=          55     theta[rad]=           0.5760
  C        -1.19296          1.48001        -0.15623
  C         0.05734          1.53536         0.28653
  C         1.18473          0.67081        -0.09316
  C         1.18628         -0.67360        -0.08980
  C         0.05363         -1.51595         0.29908
  C        -1.18027         -1.52706        -0.19614
  H         0.27563          2.20157         1.11906
  H         2.13743          1.17917        -0.21182
  H         2.15570         -1.15531        -0.18439
  H         0.29754         -2.26959         1.04841
  H        -2.01812         -1.92272         0.41091
  H        -1.48381         -0.85286        -0.98927
  H        -1.94908          2.19688         0.18977
  H        -1.43481          0.97955        -1.08707
14
 step=          56     theta[rad]=           0.5864
  C        -1.18983          1.48843        -0.16391
  C         0.05724          1.53134         0.28817
  C         1.18377          0.67101        -0.09197
  C         1.18468         -0.67265        -0.09000
  C         0.05506         -1.51996         0.29553
  C        -1.18239         -1.51602        -0.18731
  H         0.27965          2.21173         1.10719
  H         2.14016          1.17323        -0.20662
  H         2.15088         -1.15924        -0.19054
  H         0.29250         -2.25163         1.06574
  H        -1.99906         -1.98629         0.36273
  H        -1.47483         -0.88231        -1.01135
  H        -1.95856          2.14710         0.23303
  H        -1.44610          0.95662        -1.06871
14
 step=          57     theta[rad]=           0.5969
  C        -1.18512          1.50106        -0.17544
  C         0.05709          1.52531         0.29062
  C         1.18234          0.67132        -0.09018
  C         1.18229         -0.67123        -0.09030
  C         0.05722         -1.52597         0.29019
  C        -1.18556         -1.49945        -0.17406
  H         0.28568          2.22700         1.08935
  H         2.14426          1.16432        -0.19883
  H         2.14363         -1.16514        -0.19977
  H         0.28493         -2.22466         1.09177
  H        -1.97043         -2.08176         0.29038
  H        -1.46136         -0.92653        -1.04449
  H        -1.97281          2.07234         0.29798
  H        -1.46304          0.92218        -1.04114
14
 step=          58     theta[rad]=           0.6074
  C        -1.18044          1.51365        -0.18692
  C         0.05694          1.51930         0.29307
  C         1.18091          0.67163        -0.08840
  C         1.17990         -0.66981        -0.09060
  C         0.05937         -1.53196         0.28488
  C        -1.18873         -1.48294        -0.16087
  H         0.29169          2.24220         1.07159
  H         2.14834          1.15545        -0.19106
  H         2.13641         -1.17102        -0.20897
  H         0.27739         -2.19781         1.11769
  H        -1.94192         -2.17683         0.21834
  H        -1.44795         -0.97056        -1.07750
  H        -1.98699          1.99790         0.36265
  H        -1.47991          0.88788        -1.01369
14
 step=          59     theta[rad]=           0.6178
  C        -1.17750          1.52155        -0.19413
  C         0.05685          1.51552         0.29461
  C         1.18002          0.67183        -0.08728
  C         1.17840         -0.66892        -0.09079
  C         0.06072         -1.53573         0.28154
  C        -1.19071         -1.47258        -0.15258
  H         0.29547          2.25174         1.06043
  H         2.15090          1.14987        -0.18618
  H         2.13188         -1.17471        -0.21474
  H         0.27266         -2.18093         1.13397
  H        -1.92401         -2.23655         0.17308
  H        -1.43952         -0.99823        -1.09823
  H        -1.99590          1.95113         0.40328
  H        -1.49051          0.86634        -0.99644
14
 step=          60     theta[rad]=           0.6283
  C        -1.17750          1.52155        -0.19413
  C         0.05685          1.51552         0.29461
  C         1.18002          0.67183        -0.08728
  C         1.17840         -0.66892        -0.09079
  C         0.06072         -1.53573         0.28154
  C        -1.19071         -1.47258        -0.15258
  H         0.29547          2.25174         1.06043
  H         2.15090          1.14987        -0.18618
  H         2.13188         -1.17471        -0.21474
  H         0.27266         -2.18093         1.13397
  H        -1.92401         -2.23655         0.17308
  H        -1.43952         -0.99823        -1.09823
  H        -1.99590          1.95113         0.40328
  H        -1.49051          0.86634        -0.99644
14
 step=          61     theta[rad]=           0.6388
  C        -1.18058          1.51327        -0.18657
  C         0.05695          1.51948         0.29300
  C         1.18096          0.67163        -0.08845
  C         1.17997         -0.66985        -0.09059
  C         0.05930         -1.53178         0.28504
  C        -1.18863         -1.48344        -0.16126
  H         0.29151          2.24174         1.07212
  H         2.14821          1.15571        -0.19129
  H         2.13663         -1.17084        -0.20869
  H         0.27762         -2.19861         1.11691
  H        -1.94278         -2.17398         0.22050
  H        -1.44835         -0.96924        -1.07651
  H        -1.98656          2.00013         0.36071
  H        -1.47940          0.88891        -1.01451
14
 step=          62     theta[rad]=           0.6493
  C        -1.18565          1.49966        -0.17416
  C         0.05711          1.52598         0.29035
  C         1.18250          0.67129        -0.09038
  C         1.18255         -0.67138        -0.09027
  C         0.05698         -1.52531         0.29078
  C        -1.18521         -1.50128        -0.17553
  H         0.28501          2.22531         1.09132
  H         2.14380          1.16531        -0.19969
  H         2.14443         -1.16449        -0.19875
  H         0.28577         -2.22765         1.08889
  H        -1.97360         -2.07119         0.29840
  H        -1.46285         -0.92163        -1.04082
  H        -1.97123          2.08062         0.29079
  H        -1.46116          0.92599        -1.04419
14
 step=          63     theta[rad]=           0.6597
  C        -1.19067          1.48617        -0.16184
  C         0.05727          1.53242         0.28772
  C         1.18403          0.67096        -0.09229
  C         1.18511         -0.67291        -0.08994
  C         0.05468         -1.51888         0.29648
  C        -1.18182         -1.51899        -0.18969
  H         0.27856          2.20900         1.11038
  H         2.13943          1.17483        -0.20802
  H         2.15217         -1.15818        -0.18889
  H         0.29386         -2.25646         1.06108
  H        -2.00419         -1.96919         0.37569
  H        -1.47725         -0.87439        -1.00541
  H        -1.95601          2.16048         0.22139
  H        -1.44306          0.96278        -1.07365
14
 step=          64     theta[rad]=           0.6702
  C        -1.19349          1.47858        -0.15492
  C         0.05736          1.53605         0.28625
  C         1.18489          0.67077        -0.09337
  C         1.18655         -0.67376        -0.08976
  C         0.05338         -1.51527         0.29969
  C        -1.17991         -1.52894        -0.19765
  H         0.27494          2.19983         1.12110
  H         2.13696          1.18018        -0.21271
  H         2.15653         -1.15464        -0.18334
  H         0.29841         -2.27266         1.04545
  H        -2.02138         -1.91185         0.41915
  H        -1.48534         -0.84783        -0.98550
  H        -1.94746          2.20539         0.18238
  H        -1.43288          0.98347        -1.09021
14
 step=          65     theta[rad]=           0.6807
  C        -1.19277          1.48052        -0.15669
  C         0.05733          1.53512         0.28663
  C         1.18467          0.67082        -0.09309
  C         1.18618         -0.67354        -0.08981
  C         0.05371         -1.51619         0.29887
  C        -1.18040         -1.52640        -0.19561
  H         0.27587          2.20218         1.11835
  H         2.13759          1.17881        -0.21151
  H         2.15541         -1.15555        -0.18476
  H         0.29724         -2.26852         1.04945
  H        -2.01699         -1.92651         0.40804
  H        -1.48327         -0.85462        -0.99059
  H        -1.94965          2.19391         0.19236
  H        -1.43549          0.97818        -1.08597
14
 step=          66     theta[rad]=           0.6912
  C        -1.18868          1.49152        -0.16673
  C         0.05720          1.52987         0.28877
  C         1.18342          0.67109        -0.09153
  C         1.18410         -0.67230        -0.09007
  C         0.05559         -1.52143         0.29422
  C        -1.18316         -1.51197        -0.18407
  H         0.28112          2.21547         1.10282
  H         2.14116          1.17105        -0.20472
  H         2.14910         -1.16068        -0.19280
  H         0.29065         -2.24504         1.07211
  H        -1.99206         -2.00963         0.34505
  H        -1.47154         -0.89312        -1.01945
  H        -1.96205          2.12882         0.24891
  H        -1.45024          0.94820        -1.06197
14
 step=          67     theta[rad]=           0.7016
  C        -1.18299          1.50680        -0.18067
  C         0.05702          1.52257         0.29174
  C         1.18169          0.67147        -0.08937
  C         1.18120         -0.67058        -0.09044
  C         0.05820         -1.52871         0.28777
  C        -1.18701         -1.49192        -0.16804
  H         0.28842          2.23393         1.08125
  H         2.14612          1.16027        -0.19528
  H         2.14034         -1.16782        -0.20397
  H         0.28149         -2.21241         1.10359
  H        -1.95743         -2.12512         0.25752
  H        -1.45524         -0.94661        -1.05955
  H        -1.97927          2.03838         0.32748
  H        -1.47073          0.90653        -1.02862
14
 step=          68     theta[rad]=           0.7121
  C        -1.17839          1.51917        -0.19196
  C         0.05688          1.51666         0.29414
  C         1.18029          0.67177        -0.08762
  C         1.17885         -0.66919        -0.09073
  C         0.06031         -1.53459         0.28254
  C        -1.19012         -1.47570        -0.15507
  H         0.29433          2.24887         1.06378
  H         2.15013          1.15155        -0.18765
  H         2.13324         -1.17360        -0.21300
  H         0.27408         -2.18601         1.12908
  H        -1.92940         -2.21859         0.18669
  H        -1.44206         -0.98991        -1.09200
  H        -1.99322          1.96520         0.39106
  H        -1.48732          0.87282        -1.00163
14
 step=          69     theta[rad]=           0.7226
  C        -1.17720          1.52237        -0.19487
  C         0.05684          1.51513         0.29476
  C         1.17993          0.67185        -0.08716
  C         1.17825         -0.66883        -0.09081
  C         0.06085         -1.53611         0.28119
  C        -1.19092         -1.47151        -0.15172
  H         0.29586          2.25273         1.05928
  H         2.15116          1.14930        -0.18568
  H         2.13141         -1.17509        -0.21534
  H         0.27217         -2.17919         1.13565
  H        -1.92217         -2.24272         0.16841
  H        -1.43865         -1.00108        -1.10038
  H        -1.99682          1.94630         0.40748
  H        -1.49160          0.86412        -0.99466
14
 step=          70     theta[rad]=           0.7330
  C        -1.18017          1.51438        -0.18759
  C         0.05693          1.51895         0.29321
  C         1.18083          0.67165        -0.08829
  C         1.17976         -0.66973        -0.09062
  C         0.05949         -1.53231         0.28456
  C        -1.18891         -1.48198        -0.16009
  H         0.29204          2.24309         1.07055
  H         2.14858          1.15493        -0.19061
  H         2.13599         -1.17136        -0.20950
  H         0.27695         -2.19623         1.11921
  H        -1.94025         -2.18240         0.21412
  H        -1.44716         -0.97314        -1.07943
  H        -1.98782          1.99354         0.36644
  H        -1.48090          0.88587        -1.01208
14
 step=          71     theta[rad]=           0.7435
  C        -1.18591          1.49897        -0.17352
  C         0.05712          1.52631         0.29021
  C         1.18258          0.67127        -0.09048
  C         1.18269         -0.67146        -0.09025
  C         0.05686         -1.52497         0.29108
  C        -1.18504         -1.50220        -0.17626
  H         0.28468          2.22446         1.09231
  H         2.14358          1.16580        -0.20012
  H         2.14483         -1.16416        -0.19824
  H         0.28619         -2.22914         1.08745
  H        -1.97519         -2.06591         0.30240
  H        -1.46360         -0.91919        -1.03899
  H        -1.97044          2.08475         0.28719
  H        -1.46023          0.92790        -1.04572
14
 step=          72     theta[rad]=           0.7540
  C        -1.19143          1.48413        -0.15998
  C         0.05729          1.53340         0.28733
  C         1.18426          0.67091        -0.09258
  C         1.18550         -0.67314        -0.08989
  C         0.05433         -1.51791         0.29734
  C        -1.18131         -1.52166        -0.19183
  H         0.27759          2.20654         1.11326
  H         2.13876          1.17627        -0.20928
  H         2.15334         -1.15723        -0.18740
  H         0.29508         -2.26081         1.05688
  H        -2.00881         -1.95379         0.38737
  H        -1.47942         -0.86725        -1.00006
  H        -1.95371          2.17255         0.21091
  H        -1.44033          0.96834        -1.07810
14
 step=          73     theta[rad]=           0.7645
  C        -1.19367          1.47809        -0.15447
  C         0.05736          1.53628         0.28615
  C         1.18495          0.67076        -0.09344
  C         1.18664         -0.67382        -0.08975
  C         0.05330         -1.51504         0.29989
  C        -1.17979         -1.52958        -0.19816
  H         0.27471          2.19925         1.12178
  H         2.13681          1.18053        -0.21300
  H         2.15681         -1.15441        -0.18299
  H         0.29870         -2.27370         1.04445
  H        -2.02248         -1.90818         0.42193
  H        -1.48586         -0.84613        -0.98422
  H        -1.94691          2.20826         0.17988
  H        -1.43223          0.98479        -1.09127
14
 step=          74     theta[rad]=           0.7749
  C        -1.19125          1.48461        -0.16043
  C         0.05729          1.53316         0.28742
  C         1.18421          0.67092        -0.09251
  C         1.18541         -0.67308        -0.08991
  C         0.05441         -1.51814         0.29714
  C        -1.18143         -1.52102        -0.19132
  H         0.27782          2.20713         1.11257
  H         2.13892          1.17592        -0.20898
  H         2.15306         -1.15746        -0.18775
  H         0.29479         -2.25977         1.05788
  H        -2.00770         -1.95747         0.38458
  H        -1.47890         -0.86896        -1.00134
  H        -1.95426          2.16967         0.21341
  H        -1.44098          0.96701        -1.07703
14
 step=          75     theta[rad]=           0.7854
  C        -1.18538          1.50036        -0.17480
  C         0.05710          1.52564         0.29049
  C         1.18242          0.67131        -0.09028
  C         1.18242         -0.67131        -0.09028
  C         0.05710         -1.52564         0.29048
  C        -1.18539         -1.50036        -0.17480
  H         0.28535          2.22615         1.09034
  H         2.14403          1.16481        -0.19926
  H         2.14403         -1.16481        -0.19926
  H         0.28535         -2.22615         1.09033
  H        -1.97202         -2.07648         0.29439
  H        -1.46211         -0.92408        -1.04266
  H        -1.97202          2.07648         0.29438
  H        -1.46210          0.92408        -1.04267
14
 step=          76     theta[rad]=           0.7959
  C        -1.17946          1.51628        -0.18932
  C         0.05691          1.51804         0.29358
  C         1.18062          0.67170        -0.08803
  C         1.17940         -0.66951        -0.09066
  C         0.05982         -1.53322         0.28376
  C        -1.18939         -1.47949        -0.15810
  H         0.29295          2.24538         1.06787
  H         2.14919          1.15359        -0.18944
  H         2.13490         -1.17225        -0.21089
  H         0.27581         -2.19218         1.12312
  H        -1.93596         -2.19673         0.20326
  H        -1.44514         -0.97978        -1.08441
  H        -1.98996          1.98231         0.37619
  H        -1.48344          0.88070        -1.00794
14
 step=          77     theta[rad]=           0.8063
  C        -1.17710          1.52263        -0.19511
  C         0.05684          1.51501         0.29482
  C         1.17990          0.67186        -0.08713
  C         1.17820         -0.66880        -0.09081
  C         0.06090         -1.53624         0.28108
  C        -1.19099         -1.47116        -0.15145
  H         0.29598          2.25305         1.05891
  H         2.15125          1.14911        -0.18552
  H         2.13126         -1.17521        -0.21553
  H         0.27201         -2.17863         1.13620
  H        -1.92157         -2.24470         0.16690
  H        -1.43837         -1.00200        -1.10107
  H        -1.99711          1.94475         0.40883
  H        -1.49196          0.86340        -0.99409
14
 step=          78     theta[rad]=           0.8168
  C        -1.17990          1.51509        -0.18824
  C         0.05693          1.51861         0.29335
  C         1.18075          0.67167        -0.08819
  C         1.17963         -0.66965        -0.09063
  C         0.05961         -1.53265         0.28426
  C        -1.18909         -1.48104        -0.15935
  H         0.29238          2.24395         1.06954
  H         2.14881          1.15443        -0.19017
  H         2.13558         -1.17169        -0.21002
  H         0.27652         -2.19471         1.12068
  H        -1.93864         -2.18778         0.21004
  H        -1.44640         -0.97564        -1.08130
  H        -1.98862          1.98932         0.37011
  H        -1.48185          0.88393        -1.01052
14
 step=          79     theta[rad]=           0.8273
  C        -1.18625          1.49804        -0.17267
  C         0.05713          1.52675         0.29003
  C         1.18269          0.67125        -0.09061
  C         1.18286         -0.67157        -0.09023
  C         0.05670         -1.52453         0.29147
  C        -1.18480         -1.50342        -0.17724
  H         0.28423          2.22334         1.09362
  H         2.14327          1.16646        -0.20070
  H         2.14536         -1.16373        -0.19756
  H         0.28675         -2.23112         1.08554
  H        -1.97729         -2.05888         0.30772
  H        -1.46459         -0.91593        -1.03655
  H        -1.96939          2.09025         0.28241
  H        -1.45898          0.93043        -1.04775
14
 step=          80     theta[rad]=           0.8378
  C        -1.19209          1.48234        -0.15836
  C         0.05731          1.53425         0.28698
  C         1.18446          0.67086        -0.09284
  C         1.18584         -0.67334        -0.08985
  C         0.05402         -1.51706         0.29810
  C        -1.18086         -1.52400        -0.19370
  H         0.27674          2.20438         1.11578
  H         2.13819          1.17753        -0.21038
  H         2.15437         -1.15640        -0.18609
  H         0.29615         -2.26462         1.05321
  H        -2.01285         -1.94031         0.39758
  H        -1.48132         -0.86101        -0.99538
  H        -1.95170          2.18310         0.20174
  H        -1.43794          0.97320        -1.08199
14
 step=          81     theta[rad]=           0.8482
  C        -1.19347          1.47863        -0.15496
  C         0.05736          1.53602         0.28626
  C         1.18489          0.67077        -0.09336
  C         1.18654         -0.67375        -0.08976
  C         0.05339         -1.51529         0.29967
  C        -1.17992         -1.52888        -0.19760
  H         0.27496          2.19989         1.12102
  H         2.13698          1.18015        -0.21267
  H         2.15650         -1.15466        -0.18338
  H         0.29838         -2.27256         1.04555
  H        -2.02127         -1.91222         0.41887
  H        -1.48529         -0.84800        -0.98563
  H        -1.94751          2.20510         0.18263
  H        -1.43295          0.98333        -1.09010
14
 step=          82     theta[rad]=           0.8587
  C        -1.18930          1.48984        -0.16519
  C         0.05722          1.53067         0.28844
  C         1.18361          0.67105        -0.09177
  C         1.18442         -0.67249        -0.09003
  C         0.05530         -1.52063         0.29493
  C        -1.18274         -1.51417        -0.18584
  H         0.28032          2.21344         1.10520
  H         2.14062          1.17224        -0.20575
  H         2.15007         -1.15990        -0.19157
  H         0.29166         -2.24862         1.06865
  H        -1.99587         -1.99694         0.35466
  H        -1.47333         -0.88724        -1.01504
  H        -1.96015          2.13876         0.24027
  H        -1.44799          0.95277        -1.06563
14
 step=          83     theta[rad]=           0.8692
  C        -1.18233          1.50856        -0.18228
  C         0.05700          1.52172         0.29208
  C         1.18149          0.67151        -0.08912
  C         1.18086         -0.67038        -0.09048
  C         0.05850         -1.52954         0.28702
  C        -1.18745         -1.48961        -0.16620
  H         0.28926          2.23606         1.07876
  H         2.14669          1.15903        -0.19420
  H         2.13933         -1.16864        -0.20525
  H         0.28044         -2.20865         1.10722
  H        -1.95344         -2.13844         0.24743
  H        -1.45337         -0.95278        -1.06417
  H        -1.98126          2.02796         0.33653
  H        -1.47310          0.90173        -1.02477
14
 step=          84     theta[rad]=           0.8796
  C        -1.17750          1.52155        -0.19413
  C         0.05685          1.51552         0.29461
  C         1.18002          0.67183        -0.08728
  C         1.17840         -0.66892        -0.09079
  C         0.06072         -1.53573         0.28154
  C        -1.19071         -1.47258        -0.15258
  H         0.29547          2.25174         1.06043
  H         2.15090          1.14987        -0.18618
  H         2.13188         -1.17471        -0.21474
  H         0.27266         -2.18093         1.13397
  H        -1.92401         -2.23655         0.17308
  H        -1.43952         -0.99823        -1.09823
  H        -1.99590          1.95113         0.40328
  H        -1.49051          0.86634        -0.99644
14
 step=          85     theta[rad]=           0.8901
  C        -1.17843          1.51905        -0.19185
  C         0.05688          1.51672         0.29412
  C         1.18030          0.67177        -0.08763
  C         1.17888         -0.66920        -0.09073
  C         0.06029         -1.53453         0.28260
  C        -1.19008         -1.47586        -0.15520
  H         0.29427          2.24872         1.06396
  H         2.15009          1.15164        -0.18773
  H         2.13331         -1.17354        -0.21291
  H         0.27416         -2.18628         1.12882
  H        -1.92969         -2.21763         0.18742
  H        -1.44219         -0.98946        -1.09167
  H        -1.99307          1.96594         0.39042
  H        -1.48715          0.87316        -1.00190
14
 step=          86     theta[rad]=           0.9006
  C        -1.18460          1.50246        -0.17671
  C         0.05708          1.52464         0.29089
  C         1.18218          0.67136        -0.08998
  C         1.18202         -0.67107        -0.09033
  C         0.05746         -1.52664         0.28960
  C        -1.18591         -1.49761        -0.17260
  H         0.28635          2.22869         1.08738
  H         2.14471          1.16334        -0.19796
  H         2.14283         -1.16579        -0.20079
  H         0.28409         -2.22168         1.09465
  H        -1.96727         -2.09232         0.28239
  H        -1.45987         -0.93142        -1.04816
  H        -1.97438          2.06407         0.30516
  H        -1.46491          0.91837        -1.03809
14
 step=          87     theta[rad]=           0.9111
  C        -1.19143          1.48413        -0.15998
  C         0.05729          1.53340         0.28733
  C         1.18426          0.67091        -0.09258
  C         1.18550         -0.67314        -0.08989
  C         0.05433         -1.51791         0.29734
  C        -1.18131         -1.52166        -0.19183
  H         0.27759          2.20654         1.11326
  H         2.13876          1.17627        -0.20928
  H         2.15334         -1.15723        -0.18740
  H         0.29508         -2.26081         1.05688
  H        -2.00881         -1.95379         0.38737
  H        -1.47942         -0.86725        -1.00006
  H        -1.95371          2.17255         0.21091
  H        -1.44033          0.96834        -1.07810
14
 step=          88     theta[rad]=           0.9215
  C        -1.19356          1.47840        -0.15476
  C         0.05736          1.53613         0.28622
  C         1.18491          0.67077        -0.09339
  C         1.18659         -0.67378        -0.08976
  C         0.05335         -1.51518         0.29976
  C        -1.17987         -1.52917        -0.19783
  H         0.27486          2.19962         1.12134
  H         2.13691          1.18031        -0.21281
  H         2.15663         -1.15456        -0.18321
  H         0.29851         -2.27303         1.04509
  H        -2.02178         -1.91053         0.42015
  H        -1.48553         -0.84721        -0.98504
  H        -1.94726          2.20642         0.18148
  H        -1.43265          0.98395        -1.09059
14
 step=          89     theta[rad]=           0.9320
  C        -1.18915          1.49025        -0.16557
  C         0.05722          1.53047         0.28852
  C         1.18357          0.67106        -0.09171
  C         1.18434         -0.67245        -0.09004
  C         0.05537         -1.52083         0.29476
  C        -1.18285         -1.51363        -0.18540
  H         0.28052          2.21394         1.10461
  H         2.14075          1.17195        -0.20550
  H         2.14983         -1.16009        -0.19187
  H         0.29141         -2.24774         1.06950
  H        -1.99493         -2.00007         0.35230
  H        -1.47289         -0.88869        -1.01613
  H        -1.96062          2.13631         0.24240
  H        -1.44854          0.95165        -1.06473
14
 step=          90     theta[rad]=           0.9425
  C        -1.18162          1.51048        -0.18403
  C         0.05698          1.52081         0.29245
  C         1.18127          0.67156        -0.08885
  C         1.18050         -0.67017        -0.09052
  C         0.05883         -1.53045         0.28621
  C        -1.18793         -1.48710        -0.16419
  H         0.29018          2.23837         1.07606
  H         2.14731          1.15768        -0.19302
  H         2.13823         -1.16954        -0.20665
  H         0.27929         -2.20457         1.11116
  H        -1.94910         -2.15289         0.23648
  H        -1.45133         -0.95947        -1.06919
  H        -1.98342          2.01664         0.34637
  H        -1.47566          0.89652        -1.02060
14
 step=          91     theta[rad]=           0.9529
  C        -1.17719          1.52240        -0.19491
  C         0.05684          1.51512         0.29477
  C         1.17992          0.67185        -0.08716
  C         1.17824         -0.66882        -0.09081
  C         0.06086         -1.53613         0.28118
  C        -1.19093         -1.47146        -0.15168
  H         0.29587          2.25277         1.05923
  H         2.15118          1.14927        -0.18566
  H         2.13139         -1.17511        -0.21536
  H         0.27215         -2.17912         1.13573
  H        -1.92209         -2.24298         0.16821
  H        -1.43861         -1.00120        -1.10047
  H        -1.99686          1.94610         0.40766
  H        -1.49165          0.86402        -0.99458
14
 step=          92     theta[rad]=           0.9634
  C        -1.17971          1.51561        -0.18871
  C         0.05692          1.51836         0.29345
  C         1.18069          0.67168        -0.08812
  C         1.17953         -0.66959        -0.09065
  C         0.05970         -1.53290         0.28405
  C        -1.18922         -1.48036        -0.15880
  H         0.29263          2.24457         1.06881
  H         2.14898          1.15406        -0.18985
  H         2.13528         -1.17194        -0.21040
  H         0.27621         -2.19361         1.12174
  H        -1.93747         -2.19169         0.20707
  H        -1.44585         -0.97745        -1.08266
  H        -1.98920          1.98626         0.37277
  H        -1.48255          0.88252        -1.00939
14
 step=          93     theta[rad]=           0.9739
  C        -1.18719          1.49550        -0.17037
  C         0.05716          1.52796         0.28954
  C         1.18297          0.67119        -0.09097
  C         1.18334         -0.67185        -0.09017
  C         0.05627         -1.52333         0.29254
  C        -1.18417         -1.50674        -0.17989
  H         0.28303          2.22028         1.09720
  H         2.14245          1.16824        -0.20226
  H         2.14682         -1.16255        -0.19571
  H         0.28826         -2.23653         1.08032
  H        -1.98303         -2.03976         0.32221
  H        -1.46729         -0.90708        -1.02991
  H        -1.96654          2.10523         0.26940
  H        -1.45558          0.93733        -1.05327
14
 step=          94     theta[rad]=           0.9844
  C        -1.19312          1.47957        -0.15582
  C         0.05735          1.53557         0.28644
  C         1.18478          0.67079        -0.09323
  C         1.18636         -0.67365        -0.08979
  C         0.05355         -1.51574         0.29927
  C        -1.18016         -1.52764        -0.19661
  H         0.27541          2.20103         1.11969
  H         2.13729          1.17948        -0.21209
  H         2.15596         -1.15510        -0.18407
  H         0.29781         -2.27054         1.04749
  H        -2.01914         -1.91935         0.41347
  H        -1.48428         -0.85130        -0.98810
  H        -1.94858          2.19952         0.18748
  H        -1.43421          0.98076        -1.08804
14
 step=          95     theta[rad]=           0.9948
  C        -1.19209          1.48234        -0.15836
  C         0.05731          1.53425         0.28698
  C         1.18446          0.67086        -0.09284
  C         1.18584         -0.67334        -0.08985
  C         0.05402         -1.51706         0.29810
  C        -1.18086         -1.52400        -0.19370
  H         0.27674          2.20438         1.11578
  H         2.13819          1.17753        -0.21038
  H         2.15437         -1.15640        -0.18609
  H         0.29615         -2.26462         1.05321
  H        -2.01285         -1.94031         0.39758
  H        -1.48132         -0.86101        -0.99538
  H        -1.95170          2.18310         0.20174
  H        -1.43794          0.97320        -1.08199
14
 step=          96     theta[rad]=           1.0053
  C        -1.18486          1.50176        -0.17608
  C         0.05708          1.52497         0.29076
  C         1.18226          0.67134        -0.09008
  C         1.18215         -0.67115        -0.09032
  C         0.05734         -1.52631         0.28989
  C        -1.18574         -1.49853        -0.17333
  H         0.28602          2.22784         1.08836
  H         2.14448          1.16383        -0.19839
  H         2.14323         -1.16547        -0.20028
  H         0.28451         -2.22317         1.09321
  H        -1.96885         -2.08705         0.28638
  H        -1.46062         -0.92898        -1.04633
  H        -1.97359          2.06820         0.30157
  H        -1.46398          0.92027        -1.03961
14
 step=          97     theta[rad]=           1.0158
  C        -1.17808          1.52000        -0.19271
  C         0.05687          1.51626         0.29430
  C         1.18019          0.67179        -0.08750
  C         1.17870         -0.66909        -0.09075
  C         0.06045         -1.53499         0.28219
  C        -1.19032         -1.47461        -0.15421
  H         0.29472          2.24987         1.06262
  H         2.15040          1.15097        -0.18714
  H         2.13277         -1.17398        -0.21361
  H         0.27359         -2.18425         1.13077
  H        -1.92754         -2.22481         0.18198
  H        -1.44118         -0.99279        -1.09416
  H        -1.99414          1.96033         0.39530
  H        -1.48843          0.87058        -0.99983
14
 step=          98     theta[rad]=           1.0263
  C        -1.17825          1.51954        -0.19229
  C         0.05687          1.51648         0.29421
  C         1.18025          0.67178        -0.08756
  C         1.17878         -0.66915        -0.09074
  C         0.06037         -1.53477         0.28239
  C        -1.19021         -1.47522        -0.15469
  H         0.29451          2.24931         1.06327
  H         2.15025          1.15129        -0.18742
  H         2.13303         -1.17377        -0.21327
  H         0.27386         -2.18523         1.12983
  H        -1.92857         -2.22135         0.18460
  H        -1.44167         -0.99118        -1.09296
  H        -1.99363          1.96303         0.39294
  H        -1.48781          0.87182        -1.00083
14
 step=          99     theta[rad]=           1.0367
  C        -1.18538          1.50036        -0.17480
  C         0.05710          1.52564         0.29049
  C         1.18242          0.67131        -0.09028
  C         1.18242         -0.67131        -0.09028
  C         0.05710         -1.52564         0.29048
  C        -1.18539         -1.50036        -0.17480
  H         0.28535          2.22615         1.09034
  H         2.14403          1.16481        -0.19926
  H         2.14403         -1.16481        -0.19926
  H         0.28535         -2.22615         1.09033
  H        -1.97202         -2.07648         0.29439
  H        -1.46211         -0.92408        -1.04266
  H        -1.97202          2.07648         0.29438
  H        -1.46210          0.92408        -1.04266
14
 step=         100     theta[rad]=           1.0472
  C        -1.19256          1.48107        -0.15720
  C         0.05733          1.53485         0.28673
  C         1.18461          0.67083        -0.09301
  C         1.18608         -0.67348        -0.08982
  C         0.05381         -1.51646         0.29863
  C        -1.18054         -1.52567        -0.19503
  H         0.27613          2.20285         1.11757
  H         2.13777          1.17842        -0.21116
  H         2.15510         -1.15581        -0.18517
  H         0.29691         -2.26733         1.05059
  H        -2.01573         -1.93072         0.40485
  H        -1.48268         -0.85657        -0.99205
  H        -1.95027          2.19061         0.19522
  H        -1.43623          0.97666        -1.08476
14
 step=         101     theta[rad]=           1.0577
  C        -1.19252          1.48119        -0.15730
  C         0.05733          1.53480         0.28676
  C         1.18460          0.67083        -0.09300
  C         1.18606         -0.67347        -0.08982
  C         0.05383         -1.51651         0.29858
  C        -1.18057         -1.52551        -0.19490
  H         0.27619          2.20299         1.11740
  H         2.13781          1.17834        -0.21109
  H         2.15503         -1.15586        -0.18525
  H         0.29684         -2.26708         1.05083
  H        -2.01546         -1.93161         0.40418
  H        -1.48255         -0.85698        -0.99236
  H        -1.95041          2.18992         0.19582
  H        -1.43639          0.97634        -1.08450
14
 step=         102     theta[rad]=           1.0681
  C        -1.18512          1.50106        -0.17544
  C         0.05709          1.52531         0.29062
  C         1.18234          0.67132        -0.09018
  C         1.18229         -0.67123        -0.09030
  C         0.05722         -1.52597         0.29019
  C        -1.18556         -1.49945        -0.17406
  H         0.28568          2.22700         1.08935
  H         2.14426          1.16432        -0.19883
  H         2.14363         -1.16514        -0.19977
  H         0.28493         -2.22466         1.09177
  H        -1.97043         -2.08176         0.29038
  H        -1.46136         -0.92653        -1.04449
  H        -1.97281          2.07234         0.29798
  H        -1.46304          0.92218        -1.04114
14
 step=         103     theta[rad]=           1.0786
  C        -1.17796          1.52032        -0.19301
  C         0.05686          1.51611         0.29437
  C         1.18016          0.67180        -0.08745
  C         1.17864         -0.66906        -0.09076
  C         0.06050         -1.53514         0.28206
  C        -1.19040         -1.47419        -0.15387
  H         0.29488          2.25026         1.06217
  H         2.15050          1.15074        -0.18694
  H         2.13258         -1.17413        -0.21384
  H         0.27340         -2.18357         1.13143
  H        -1.92681         -2.22723         0.18014
  H        -1.44084         -0.99391        -1.09500
  H        -1.99451          1.95843         0.39695
  H        -1.48886          0.86970        -0.99913
14
 step=         104     theta[rad]=           1.0891
  C        -1.17868          1.51839        -0.19124
  C         0.05689          1.51703         0.29399
  C         1.18038          0.67175        -0.08773
  C         1.17900         -0.66928        -0.09071
  C         0.06018         -1.53422         0.28287
  C        -1.18992         -1.47673        -0.15590
  H         0.29396          2.24792         1.06490
  H         2.14987          1.15210        -0.18814
  H         2.13369         -1.17323        -0.21243
  H         0.27455         -2.18769         1.12746
  H        -1.93118         -2.21264         0.19120
  H        -1.44290         -0.98715        -1.08993
  H        -1.99233          1.96985         0.38702
  H        -1.48627          0.87496        -1.00334
14
 step=         105     theta[rad]=           1.0996
  C        -1.18668          1.49688        -0.17162
  C         0.05714          1.52731         0.28981
  C         1.18282          0.67122        -0.09077
  C         1.18308         -0.67170        -0.09020
  C         0.05651         -1.52398         0.29196
  C        -1.18451         -1.50493        -0.17845
  H         0.28368          2.22194         1.09526
  H         2.14290          1.16727        -0.20141
  H         2.14603         -1.16319        -0.19671
  H         0.28744         -2.23359         1.08315
  H        -1.97991         -2.05015         0.31434
  H        -1.46582         -0.91189        -1.03352
  H        -1.96809          2.09709         0.27647
  H        -1.45743          0.93358        -1.05027
14
 step=         106     theta[rad]=           1.1100
  C        -1.19329          1.47911        -0.15540
  C         0.05735          1.53579         0.28635
  C         1.18483          0.67078        -0.09329
  C         1.18645         -0.67370        -0.08977
  C         0.05347         -1.51552         0.29946
  C        -1.18004         -1.52824        -0.19709
  H         0.27519          2.20048         1.12034
  H         2.13714          1.17981        -0.21238
  H         2.15622         -1.15489        -0.18373
  H         0.29809         -2.27152         1.04654
  H        -2.02018         -1.91587         0.41610
  H        -1.48477         -0.84969        -0.98690
  H        -1.94806          2.20224         0.18511
  H        -1.43360          0.98202        -1.08904
14
 step=         107     theta[rad]=           1.1205
  C        -1.19106          1.48512        -0.16089
  C         0.05728          1.53292         0.28752
  C         1.18415          0.67093        -0.09244
  C         1.18531         -0.67302        -0.08992
  C         0.05450         -1.51838         0.29692
  C        -1.18155         -1.52036        -0.19079
  H         0.27806          2.20773         1.11186
  H         2.13908          1.17557        -0.20867
  H         2.15278         -1.15769        -0.18812
  H         0.29449         -2.25870         1.05892
  H        -2.00657         -1.96126         0.38170
  H        -1.47837         -0.87072        -1.00266
  H        -1.95483          2.16670         0.21600
  H        -1.44165          0.96564        -1.07594
14
 step=         108     theta[rad]=           1.1310
  C        -1.18233          1.50856        -0.18228
  C         0.05700          1.52172         0.29208
  C         1.18149          0.67151        -0.08912
  C         1.18086         -0.67038        -0.09048
  C         0.05850         -1.52954         0.28702
  C        -1.18745         -1.48961        -0.16620
  H         0.28926          2.23606         1.07876
  H         2.14669          1.15903        -0.19420
  H         2.13933         -1.16864        -0.20525
  H         0.28044         -2.20865         1.10722
  H        -1.95344         -2.13844         0.24743
  H        -1.45337         -0.95278        -1.06417
  H        -1.98126          2.02796         0.33653
  H        -1.47310          0.90173        -1.02477
14
 step=         109     theta[rad]=           1.1414
  C        -1.17711          1.52261        -0.19510
  C         0.05684          1.51502         0.29481
  C         1.17990          0.67186        -0.08713
  C         1.17820         -0.66880        -0.09081
  C         0.06090         -1.53623         0.28109
  C        -1.19098         -1.47119        -0.15147
  H         0.29597          2.25302         1.05893
  H         2.15124          1.14913        -0.18553
  H         2.13127         -1.17520        -0.21552
  H         0.27202         -2.17867         1.13616
  H        -1.92161         -2.24456         0.16701
  H        -1.43839         -1.00193        -1.10101
  H        -1.99709          1.94486         0.40873
  H        -1.49193          0.86345        -0.99413
14
 step=         110     theta[rad]=           1.1519
  C        -1.18162          1.51048        -0.18403
  C         0.05698          1.52081         0.29245
  C         1.18127          0.67156        -0.08885
  C         1.18050         -0.67017        -0.09052
  C         0.05883         -1.53045         0.28621
  C        -1.18793         -1.48710        -0.16419
  H         0.29018          2.23837         1.07606
  H         2.14731          1.15768        -0.19302
  H         2.13823         -1.16954        -0.20665
  H         0.27929         -2.20457         1.11116
  H        -1.94910         -2.15289         0.23648
  H        -1.45133         -0.95947        -1.06919
  H        -1.98342          2.01664         0.34637
  H        -1.47566          0.89652        -1.02060
14
 step=         111     theta[rad]=           1.1624
  C        -1.19067          1.48617        -0.16184
  C         0.05727          1.53242         0.28772
  C         1.18403          0.67096        -0.09229
  C         1.18511         -0.67291        -0.08994
  C         0.05468         -1.51888         0.29648
  C        -1.18182         -1.51899        -0.18969
  H         0.27856          2.20900         1.11038
  H         2.13943          1.17483        -0.20802
  H         2.15217         -1.15818        -0.18889
  H         0.29386         -2.25646         1.06108
  H        -2.00419         -1.96919         0.37569
  H        -1.47725         -0.87439        -1.00541
  H        -1.95601          2.16048         0.22139
  H        -1.44306          0.96278        -1.07365
14
 step=         112     theta[rad]=           1.1729
  C        -1.19332          1.47904        -0.15534
  C         0.05735          1.53583         0.28634
  C         1.18484          0.67078        -0.09330
  C         1.18646         -0.67371        -0.08977
  C         0.05346         -1.51549         0.29949
  C        -1.18003         -1.52833        -0.19716
  H         0.27516          2.20039         1.12044
  H         2.13711          1.17986        -0.21242
  H         2.15626         -1.15486        -0.18368
  H         0.29813         -2.27167         1.04640
  H        -2.02033         -1.91535         0.41650
  H        -1.48484         -0.84945        -0.98672
  H        -1.94798          2.20265         0.18476
  H        -1.43351          0.98221        -1.08919
14
 step=         113     theta[rad]=           1.1833
  C        -1.18617          1.49827        -0.17289
  C         0.05712          1.52664         0.29008
  C         1.18266          0.67126        -0.09058
  C         1.18282         -0.67154        -0.09023
  C         0.05674         -1.52464         0.29137
  C        -1.18486         -1.50311        -0.17699
  H         0.28435          2.22362         1.09330
  H         2.14335          1.16629        -0.20055
  H         2.14523         -1.16384        -0.19773
  H         0.28661         -2.23063         1.08601
  H        -1.97677         -2.06064         0.30639
  H        -1.46434         -0.91675        -1.03716
  H        -1.96965          2.08888         0.28361
  H        -1.45929          0.92980        -1.04724
14
 step=         114     theta[rad]=           1.1938
  C        -1.17800          1.52021        -0.19291
  C         0.05687          1.51616         0.29435
  C         1.18017          0.67180        -0.08747
  C         1.17866         -0.66907        -0.09076
  C         0.06049         -1.53509         0.28210
  C        -1.19038         -1.47433        -0.15398
  H         0.29483          2.25013         1.06232
  H         2.15047          1.15082        -0.18701
  H         2.13264         -1.17408        -0.21376
  H         0.27346         -2.18379         1.13122
  H        -1.92705         -2.22644         0.18074
  H        -1.44095         -0.99354        -1.09473
  H        -1.99439          1.95905         0.39641
  H        -1.48872          0.86999        -0.99936
14
 step=         115     theta[rad]=           1.2043
  C        -1.17923          1.51692        -0.18990
  C         0.05690          1.51773         0.29370
  C         1.18054          0.67172        -0.08793
  C         1.17928         -0.66944        -0.09068
  C         0.05992         -1.53352         0.28349
  C        -1.18955         -1.47865        -0.15743
  H         0.29325          2.24615         1.06697
  H         2.14940          1.15314        -0.18904
  H         2.13453         -1.17255        -0.21136
  H         0.27543         -2.19082         1.12443
  H        -1.93451         -2.20156         0.19960
  H        -1.44446         -0.98202        -1.08608
  H        -1.99068          1.97853         0.37948
  H        -1.48430          0.87896        -1.00655
14
 step=         116     theta[rad]=           1.2147
  C        -1.18844          1.49216        -0.16732
  C         0.05720          1.52956         0.28889
  C         1.18335          0.67110        -0.09144
  C         1.18398         -0.67223        -0.09009
  C         0.05570         -1.52174         0.29395
  C        -1.18333         -1.51112        -0.18340
  H         0.28143          2.21625         1.10191
  H         2.14137          1.17060        -0.20432
  H         2.14873         -1.16099        -0.19327
  H         0.29026         -2.24366         1.07344
  H        -1.99060         -2.01452         0.34134
  H        -1.47085         -0.89538        -1.02115
  H        -1.96277          2.12499         0.25223
  H        -1.45110          0.94643        -1.06056
14
 step=         117     theta[rad]=           1.2252
  C        -1.19367          1.47810        -0.15448
  C         0.05736          1.53627         0.28616
  C         1.18495          0.67076        -0.09344
  C         1.18664         -0.67381        -0.08975
  C         0.05330         -1.51504         0.29989
  C        -1.17979         -1.52957        -0.19815
  H         0.27471          2.19926         1.12177
  H         2.13681          1.18052        -0.21300
  H         2.15680         -1.15442        -0.18299
  H         0.29869         -2.27368         1.04447
  H        -2.02246         -1.90825         0.42188
  H        -1.48585         -0.84616        -0.98425
  H        -1.94692          2.20821         0.17993
  H        -1.43225          0.98477        -1.09124
14
 step=         118     theta[rad]=           1.2357
  C        -1.18786          1.49370        -0.16872
  C         0.05718          1.52882         0.28919
  C         1.18318          0.67114        -0.09123
  C         1.18368         -0.67206        -0.09012
  C         0.05596         -1.52247         0.29330
  C        -1.18371         -1.50910        -0.18178
  H         0.28217          2.21811         1.09974
  H         2.14187          1.16951        -0.20337
  H         2.14785         -1.16170        -0.19439
  H         0.28934         -2.24037         1.07661
  H        -1.98711         -2.02615         0.33253
  H        -1.46921         -0.90077        -1.02518
  H        -1.96451          2.11589         0.26014
  H        -1.45317          0.94224        -1.05720
14
 step=         119     theta[rad]=           1.2462
  C        -1.17868          1.51839        -0.19124
  C         0.05689          1.51703         0.29399
  C         1.18038          0.67175        -0.08773
  C         1.17900         -0.66928        -0.09071
  C         0.06018         -1.53422         0.28287
  C        -1.18992         -1.47673        -0.15590
  H         0.29396          2.24792         1.06490
  H         2.14987          1.15210        -0.18814
  H         2.13369         -1.17323        -0.21243
  H         0.27455         -2.18769         1.12746
  H        -1.93118         -2.21264         0.19120
  H        -1.44290         -0.98715        -1.08993
  H        -1.99233          1.96985         0.38702
  H        -1.48627          0.87496        -1.00334
14
 step=         120     theta[rad]=           1.2566
  C        -1.17868          1.51839        -0.19124
  C         0.05689          1.51703         0.29399
  C         1.18038          0.67175        -0.08773
  C         1.17900         -0.66928        -0.09071
  C         0.06018         -1.53422         0.28287
  C        -1.18992         -1.47673        -0.15590
  H         0.29396          2.24792         1.06490
  H         2.14987          1.15210        -0.18814
  H         2.13369         -1.17323        -0.21243
  H         0.27455         -2.18769         1.12746
  H        -1.93118         -2.21264         0.19120
  H        -1.44290         -0.98715        -1.08993
  H        -1.99233          1.96985         0.38702
  H        -1.48627          0.87496        -1.00334
14
 step=         121     theta[rad]=           1.2671
  C        -1.18803          1.49326        -0.16832
  C         0.05718          1.52903         0.28910
  C         1.18323          0.67113        -0.09129
  C         1.18377         -0.67211        -0.09011
  C         0.05589         -1.52226         0.29349
  C        -1.18360         -1.50968        -0.18225
  H         0.28195          2.21757         1.10037
  H         2.14173          1.16983        -0.20364
  H         2.14810         -1.16150        -0.19407
  H         0.28961         -2.24132         1.07570
  H        -1.98811         -2.02279         0.33507
  H        -1.46968         -0.89922        -1.02402
  H        -1.96401          2.11851         0.25786
  H        -1.45257          0.94345        -1.05817
14
 step=         122     theta[rad]=           1.2776
  C        -1.19367          1.47810        -0.15448
  C         0.05736          1.53627         0.28616
  C         1.18495          0.67076        -0.09344
  C         1.18664         -0.67381        -0.08975
  C         0.05330         -1.51504         0.29989
  C        -1.17979         -1.52957        -0.19815
  H         0.27471          2.19926         1.12177
  H         2.13681          1.18052        -0.21300
  H         2.15680         -1.15442        -0.18299
  H         0.29869         -2.27368         1.04447
  H        -2.02246         -1.90825         0.42188
  H        -1.48585         -0.84616        -0.98425
  H        -1.94692          2.20821         0.17993
  H        -1.43225          0.98477        -1.09124
14
 step=         123     theta[rad]=           1.2881
  C        -1.18745          1.49482        -0.16974
  C         0.05717          1.52829         0.28941
  C         1.18305          0.67117        -0.09107
  C         1.18347         -0.67193        -0.09015
  C         0.05615         -1.52300         0.29282
  C        -1.18400         -1.50763        -0.18061
  H         0.28270          2.21946         1.09816
  H         2.14223          1.16872        -0.20268
  H         2.14721         -1.16223        -0.19521
  H         0.28867         -2.23798         1.07892
  H        -1.98457         -2.03462         0.32611
  H        -1.46802         -0.90469        -1.02813
  H        -1.96577          2.10925         0.26591
  H        -1.45467          0.93918        -1.05475
14
 step=         124     theta[rad]=           1.2985
  C        -1.17821          1.51966        -0.19240
  C         0.05687          1.51643         0.29424
  C         1.18023          0.67178        -0.08755
  C         1.17876         -0.66913        -0.09074
  C         0.06039         -1.53482         0.28234
  C        -1.19024         -1.47506        -0.15456
  H         0.29456          2.24946         1.06310
  H         2.15029          1.15121        -0.18735
  H         2.13296         -1.17382        -0.21336
  H         0.27379         -2.18498         1.13007
  H        -1.92831         -2.22224         0.18393
  H        -1.44154         -0.99160        -1.09327
  H        -1.99376          1.96234         0.39355
  H        -1.48797          0.87150        -1.00057
14
 step=         125     theta[rad]=           1.3090
  C        -1.17952          1.51612        -0.18917
  C         0.05691          1.51812         0.29355
  C         1.18063          0.67170        -0.08805
  C         1.17943         -0.66953        -0.09066
  C         0.05979         -1.53314         0.28383
  C        -1.18935         -1.47970        -0.15828
  H         0.29287          2.24518         1.06810
  H         2.14914          1.15371        -0.18954
  H         2.13499         -1.17217        -0.21077
  H         0.27591         -2.19253         1.12278
  H        -1.93633         -2.19549         0.20420
  H        -1.44532         -0.97921        -1.08398
  H        -1.98977          1.98328         0.37535
  H        -1.48322          0.88115        -1.00830
14
 step=         126     theta[rad]=           1.3195
  C        -1.18960          1.48902        -0.16445
  C         0.05723          1.53106         0.28828
  C         1.18371          0.67103        -0.09189
  C         1.18457         -0.67258        -0.09001
  C         0.05516         -1.52024         0.29527
  C        -1.18254         -1.51524        -0.18669
  H         0.27993          2.21246         1.10634
  H         2.14035          1.17281        -0.20626
  H         2.15053         -1.15952        -0.19098
  H         0.29214         -2.25036         1.06697
  H        -1.99771         -1.99080         0.35932
  H        -1.47420         -0.88440        -1.01291
  H        -1.95924          2.14356         0.23609
  H        -1.44690          0.95499        -1.06741
14
 step=         127     theta[rad]=           1.3299
  C        -1.19332          1.47904        -0.15534
  C         0.05735          1.53583         0.28634
  C         1.18484          0.67078        -0.09330
  C         1.18646         -0.67371        -0.08977
  C         0.05346         -1.51549         0.29949
  C        -1.18003         -1.52833        -0.19716
  H         0.27516          2.20039         1.12044
  H         2.13711          1.17986        -0.21242
  H         2.15626         -1.15486        -0.18368
  H         0.29813         -2.27167         1.04640
  H        -2.02033         -1.91535         0.41650
  H        -1.48484         -0.84945        -0.98672
  H        -1.94798          2.20265         0.18476
  H        -1.43351          0.98221        -1.08919
14
 step=         128     theta[rad]=           1.3404
  C        -1.18486          1.50176        -0.17608
  C         0.05708          1.52497         0.29076
  C         1.18226          0.67134        -0.09008
  C         1.18215         -0.67115        -0.09032
  C         0.05734         -1.52631         0.28989
  C        -1.18574         -1.49853        -0.17333
  H         0.28602          2.22784         1.08836
  H         2.14448          1.16383        -0.19839
  H         2.14323         -1.16547        -0.20028
  H         0.28451         -2.22317         1.09321
  H        -1.96885         -2.08705         0.28638
  H        -1.46062         -0.92898        -1.04633
  H        -1.97359          2.06820         0.30157
  H        -1.46398          0.92027        -1.03961
14
 step=         129     theta[rad]=           1.3509
  C        -1.17720          1.52237        -0.19487
  C         0.05684          1.51513         0.29476
  C         1.17993          0.67185        -0.08716
  C         1.17825         -0.66883        -0.09081
  C         0.06085         -1.53611         0.28119
  C        -1.19092         -1.47151        -0.15172
  H         0.29586          2.25273         1.05928
  H         2.15116          1.14930        -0.18568
  H         2.13141         -1.17509        -0.21534
  H         0.27217         -2.17919         1.13565
  H        -1.92217         -2.24272         0.16841
  H        -1.43865         -1.00108        -1.10038
  H        -1.99682          1.94630         0.40748
  H        -1.49160          0.86412        -0.99466
14
 step=         130     theta[rad]=           1.3614
  C        -1.18241          1.50835        -0.18208
  C         0.05701          1.52183         0.29204
  C         1.18152          0.67150        -0.08915
  C         1.18091         -0.67041        -0.09047
  C         0.05846         -1.52944         0.28711
  C        -1.18739         -1.48989        -0.16642
  H         0.28916          2.23580         1.07907
  H         2.14662          1.15918        -0.19433
  H         2.13945         -1.16854        -0.20509
  H         0.28057         -2.20911         1.10678
  H        -1.95393         -2.13679         0.24868
  H        -1.45360         -0.95202        -1.06360
  H        -1.98101          2.02925         0.33542
  H        -1.47281          0.90233        -1.02525
14
 step=         131     theta[rad]=           1.3718
  C        -1.19238          1.48156        -0.15764
  C         0.05732          1.53462         0.28683
  C         1.18455          0.67084        -0.09295
  C         1.18599         -0.67342        -0.08983
  C         0.05389         -1.51669         0.29843
  C        -1.18066         -1.52503        -0.19452
  H         0.27636          2.20343         1.11689
  H         2.13793          1.17808        -0.21087
  H         2.15482         -1.15603        -0.18552
  H         0.29662         -2.26630         1.05159
  H        -2.01463         -1.93437         0.40208
  H        -1.48216         -0.85826        -0.99332
  H        -1.95082          2.18775         0.19770
  H        -1.43688          0.97535        -1.08370
14
 step=         132     theta[rad]=           1.3823
  C        -1.19106          1.48512        -0.16089
  C         0.05728          1.53292         0.28752
  C         1.18415          0.67093        -0.09244
  C         1.18531         -0.67302        -0.08992
  C         0.05450         -1.51838         0.29692
  C        -1.18155         -1.52036        -0.19079
  H         0.27806          2.20773         1.11186
  H         2.13908          1.17557        -0.20867
  H         2.15278         -1.15769        -0.18812
  H         0.29449         -2.25870         1.05892
  H        -2.00657         -1.96126         0.38170
  H        -1.47837         -0.87072        -1.00266
  H        -1.95483          2.16670         0.21600
  H        -1.44165          0.96564        -1.07594
14
 step=         133     theta[rad]=           1.3928
  C        -1.18044          1.51365        -0.18692
  C         0.05694          1.51930         0.29307
  C         1.18091          0.67163        -0.08840
  C         1.17990         -0.66981        -0.09060
  C         0.05937         -1.53196         0.28488
  C        -1.18873         -1.48294        -0.16087
  H         0.29169          2.24220         1.07159
  H         2.14834          1.15545        -0.19106
  H         2.13641         -1.17102        -0.20897
  H         0.27739         -2.19781         1.11769
  H        -1.94192         -2.17683         0.21834
  H        -1.44795         -0.97056        -1.07750
  H        -1.98699          1.99790         0.36265
  H        -1.47991          0.88788        -1.01369
14
 step=         134     theta[rad]=           1.4032
  C        -1.17800          1.52021        -0.19291
  C         0.05687          1.51616         0.29435
  C         1.18017          0.67180        -0.08747
  C         1.17866         -0.66907        -0.09076
  C         0.06049         -1.53509         0.28210
  C        -1.19038         -1.47433        -0.15398
  H         0.29483          2.25013         1.06232
  H         2.15047          1.15082        -0.18701
  H         2.13264         -1.17408        -0.21376
  H         0.27346         -2.18379         1.13122
  H        -1.92705         -2.22644         0.18074
  H        -1.44095         -0.99354        -1.09473
  H        -1.99439          1.95905         0.39641
  H        -1.48872          0.86999        -0.99936
14
 step=         135     theta[rad]=           1.4137
  C        -1.18795          1.49348        -0.16852
  C         0.05718          1.52893         0.28915
  C         1.18320          0.67114        -0.09126
  C         1.18373         -0.67208        -0.09012
  C         0.05593         -1.52236         0.29339
  C        -1.18366         -1.50939        -0.18202
  H         0.28206          2.21784         1.10005
  H         2.14180          1.16967        -0.20351
  H         2.14798         -1.16160        -0.19423
  H         0.28947         -2.24085         1.07615
  H        -1.98761         -2.02447         0.33380
  H        -1.46945         -0.89999        -1.02460
  H        -1.96426          2.11720         0.25900
  H        -1.45287          0.94284        -1.05768
14
 step=         136     theta[rad]=           1.4242
  C        -1.19356          1.47840        -0.15476
  C         0.05736          1.53613         0.28622
  C         1.18491          0.67077        -0.09339
  C         1.18659         -0.67378        -0.08976
  C         0.05335         -1.51518         0.29976
  C        -1.17987         -1.52917        -0.19783
  H         0.27486          2.19962         1.12134
  H         2.13691          1.18031        -0.21281
  H         2.15663         -1.15456        -0.18321
  H         0.29851         -2.27303         1.04509
  H        -2.02178         -1.91053         0.42015
  H        -1.48553         -0.84721        -0.98504
  H        -1.94726          2.20642         0.18148
  H        -1.43265          0.98395        -1.09059
14
 step=         137     theta[rad]=           1.4347
  C        -1.18512          1.50106        -0.17544
  C         0.05709          1.52531         0.29062
  C         1.18234          0.67132        -0.09018
  C         1.18229         -0.67123        -0.09030
  C         0.05722         -1.52597         0.29019
  C        -1.18556         -1.49945        -0.17406
  H         0.28568          2.22700         1.08935
  H         2.14426          1.16432        -0.19883
  H         2.14363         -1.16514        -0.19977
  H         0.28493         -2.22466         1.09177
  H        -1.97043         -2.08176         0.29038
  H        -1.46136         -0.92653        -1.04449
  H        -1.97281          2.07234         0.29798
  H        -1.46304          0.92218        -1.04114
14
 step=         138     theta[rad]=           1.4451
  C        -1.17713          1.52254        -0.19503
  C         0.05684          1.51505         0.29480
  C         1.17991          0.67185        -0.08714
  C         1.17821         -0.66881        -0.09081
  C         0.06088         -1.53620         0.28112
  C        -1.19096         -1.47128        -0.15154
  H         0.29594          2.25294         1.05903
  H         2.15122          1.14917        -0.18557
  H         2.13131         -1.17517        -0.21547
  H         0.27206         -2.17882         1.13602
  H        -1.92177         -2.24404         0.16741
  H        -1.43846         -1.00170        -1.10084
  H        -1.99701          1.94527         0.40838
  H        -1.49184          0.86364        -0.99428
14
 step=         139     theta[rad]=           1.4556
  C        -1.18366          1.50500        -0.17902
  C         0.05705          1.52343         0.29139
  C         1.18190          0.67142        -0.08962
  C         1.18154         -0.67078        -0.09039
  C         0.05789         -1.52784         0.28853
  C        -1.18655         -1.49429        -0.16994
  H         0.28756          2.23175         1.08380
  H         2.14553          1.16155        -0.19640
  H         2.14137         -1.16698        -0.20265
  H         0.28258         -2.21627         1.09987
  H        -1.96152         -2.11147         0.26787
  H        -1.45717         -0.94029        -1.05481
  H        -1.97724          2.04907         0.31819
  H        -1.46831          0.91146        -1.03256
14
 step=         140     theta[rad]=           1.4661
  C        -1.19327          1.47918        -0.15547
  C         0.05735          1.53576         0.28637
  C         1.18482          0.67078        -0.09328
  C         1.18644         -0.67369        -0.08978
  C         0.05348         -1.51555         0.29943
  C        -1.18006         -1.52815        -0.19701
  H         0.27523          2.20056         1.12024
  H         2.13716          1.17976        -0.21233
  H         2.15618         -1.15492        -0.18378
  H         0.29804         -2.27137         1.04669
  H        -2.02002         -1.91641         0.41570
  H        -1.48470         -0.84994        -0.98708
  H        -1.94814          2.20182         0.18548
  H        -1.43369          0.98183        -1.08889
14
 step=         141     theta[rad]=           1.4765
  C        -1.18868          1.49152        -0.16673
  C         0.05720          1.52987         0.28877
  C         1.18342          0.67109        -0.09153
  C         1.18410         -0.67230        -0.09007
  C         0.05559         -1.52143         0.29422
  C        -1.18316         -1.51197        -0.18407
  H         0.28112          2.21547         1.10282
  H         2.14116          1.17105        -0.20472
  H         2.14910         -1.16068        -0.19280
  H         0.29065         -2.24504         1.07211
  H        -1.99206         -2.00963         0.34505
  H        -1.47154         -0.89312        -1.01945
  H        -1.96205          2.12882         0.24891
  H        -1.45024          0.94820        -1.06197
14
 step=         142     theta[rad]=           1.4870
  C        -1.17808          1.52000        -0.19271
  C         0.05687          1.51626         0.29430
  C         1.18019          0.67179        -0.08750
  C         1.17870         -0.66909        -0.09075
  C         0.06045         -1.53499         0.28219
  C        -1.19032         -1.47461        -0.15421
  H         0.29472          2.24987         1.06262
  H         2.15040          1.15097        -0.18714
  H         2.13277         -1.17398        -0.21361
  H         0.27359         -2.18425         1.13077
  H        -1.92754         -2.22481         0.18198
  H        -1.44118         -0.99279        -1.09416
  H        -1.99414          1.96033         0.39530
  H        -1.48843          0.87058        -0.99983
14
 step=         143     theta[rad]=           1.4975
  C        -1.18094          1.51230        -0.18569
  C         0.05696          1.51994         0.29281
  C         1.18107          0.67160        -0.08859
  C         1.18016         -0.66996        -0.09057
  C         0.05914         -1.53132         0.28544
  C        -1.18839         -1.48471        -0.16228
  H         0.29105          2.24057         1.07349
  H         2.14790          1.15640        -0.19189
  H         2.13718         -1.17039        -0.20798
  H         0.27820         -2.20068         1.11492
  H        -1.94497         -2.16666         0.22604
  H        -1.44938         -0.96585        -1.07397
  H        -1.98547          2.00586         0.35574
  H        -1.47811          0.89155        -1.01662
14
 step=         144     theta[rad]=           1.5080
  C        -1.19209          1.48234        -0.15836
  C         0.05731          1.53425         0.28698
  C         1.18446          0.67086        -0.09284
  C         1.18584         -0.67334        -0.08985
  C         0.05402         -1.51706         0.29810
  C        -1.18086         -1.52400        -0.19370
  H         0.27674          2.20438         1.11578
  H         2.13819          1.17753        -0.21038
  H         2.15437         -1.15640        -0.18609
  H         0.29615         -2.26462         1.05321
  H        -2.01285         -1.94031         0.39758
  H        -1.48132         -0.86101        -0.99538
  H        -1.95170          2.18310         0.20174
  H        -1.43794          0.97320        -1.08199
14
 step=         145     theta[rad]=           1.5184
  C        -1.19060          1.48635        -0.16201
  C         0.05727          1.53234         0.28776
  C         1.18401          0.67096        -0.09227
  C         1.18508         -0.67289        -0.08995
  C         0.05471         -1.51897         0.29641
  C        -1.18186         -1.51875        -0.18950
  H         0.27865          2.20922         1.11013
  H         2.13948          1.17470        -0.20791
  H         2.15207         -1.15827        -0.18902
  H         0.29375         -2.25608         1.06145
  H        -2.00378         -1.97056         0.37466
  H        -1.47706         -0.87502        -1.00588
  H        -1.95622          2.15942         0.22232
  H        -1.44330          0.96229        -1.07325
14
 step=         146     theta[rad]=           1.5289
  C        -1.17917          1.51707        -0.19005
  C         0.05690          1.51766         0.29374
  C         1.18053          0.67172        -0.08791
  C         1.17925         -0.66942        -0.09068
  C         0.05995         -1.53359         0.28343
  C        -1.18959         -1.47845        -0.15727
  H         0.29333          2.24634         1.06675
  H         2.14945          1.15303        -0.18895
  H         2.13444         -1.17262        -0.21147
  H         0.27534         -2.19049         1.12475
  H        -1.93416         -2.20273         0.19871
  H        -1.44429         -0.98256        -1.08649
  H        -1.99085          1.97762         0.38028
  H        -1.48451          0.87854        -1.00621
14
 step=         147     theta[rad]=           1.5394
  C        -1.17971          1.51561        -0.18871
  C         0.05692          1.51836         0.29345
  C         1.18069          0.67168        -0.08812
  C         1.17953         -0.66959        -0.09065
  C         0.05970         -1.53290         0.28405
  C        -1.18922         -1.48036        -0.15880
  H         0.29263          2.24457         1.06881
  H         2.14898          1.15406        -0.18985
  H         2.13528         -1.17194        -0.21040
  H         0.27621         -2.19361         1.12174
  H        -1.93747         -2.19169         0.20707
  H        -1.44585         -0.97745        -1.08266
  H        -1.98920          1.98626         0.37277
  H        -1.48255          0.88252        -1.00939
14
 step=         148     theta[rad]=           1.5499
  C        -1.19131          1.48445        -0.16028
  C         0.05729          1.53324         0.28739
  C         1.18423          0.67091        -0.09254
  C         1.18544         -0.67310        -0.08990
  C         0.05438         -1.51806         0.29721
  C        -1.18139         -1.52124        -0.19149
  H         0.27774          2.20693         1.11280
  H         2.13887          1.17604        -0.20908
  H         2.15316         -1.15738        -0.18763
  H         0.29489         -2.26012         1.05755
  H        -2.00808         -1.95623         0.38552
  H        -1.47908         -0.86838        -1.00091
  H        -1.95408          2.17064         0.21257
  H        -1.44076          0.96746        -1.07739
14
 step=         149     theta[rad]=           1.5603
  C        -1.19125          1.48461        -0.16043
  C         0.05729          1.53316         0.28742
  C         1.18421          0.67092        -0.09251
  C         1.18541         -0.67308        -0.08991
  C         0.05441         -1.51814         0.29714
  C        -1.18143         -1.52102        -0.19132
  H         0.27782          2.20713         1.11257
  H         2.13892          1.17592        -0.20898
  H         2.15306         -1.15746        -0.18775
  H         0.29479         -2.25977         1.05788
  H        -2.00770         -1.95747         0.38458
  H        -1.47890         -0.86896        -1.00134
  H        -1.95426          2.16967         0.21341
  H        -1.44098          0.96701        -1.07703
14
 step=         150     theta[rad]=           1.5708
  C        -1.17952          1.51612        -0.18917
  C         0.05691          1.51812         0.29355
  C         1.18063          0.67170        -0.08805
  C         1.17943         -0.66953        -0.09066
  C         0.05979         -1.53314         0.28383
  C        -1.18935         -1.47970        -0.15828
  H         0.29287          2.24518         1.06810
  H         2.14914          1.15371        -0.18954
  H         2.13499         -1.17217        -0.21077
  H         0.27591         -2.19253         1.12278
  H        -1.93633         -2.19549         0.20420
  H        -1.44532         -0.97921        -1.08398
  H        -1.98977          1.98328         0.37535
  H        -1.48322          0.88115        -1.00830
14
 step=         151     theta[rad]=           1.5813
  C        -1.17959          1.51595        -0.18902
  C         0.05692          1.51820         0.29352
  C         1.18065          0.67169        -0.08807
  C         1.17946         -0.66955        -0.09065
  C         0.05976         -1.53306         0.28390
  C        -1.18931         -1.47992        -0.15845
  H         0.29279          2.24498         1.06833
  H         2.14908          1.15382        -0.18964
  H         2.13509         -1.17209        -0.21065
  H         0.27601         -2.19289         1.12244
  H        -1.93670         -2.19424         0.20515
  H        -1.44549         -0.97863        -1.08354
  H        -1.98958          1.98426         0.37450
  H        -1.48300          0.88160        -1.00866
14
 step=         152     theta[rad]=           1.5917
  C        -1.19143          1.48413        -0.15998
  C         0.05729          1.53340         0.28733
  C         1.18426          0.67091        -0.09258
  C         1.18550         -0.67314        -0.08989
  C         0.05433         -1.51791         0.29734
  C        -1.18131         -1.52166        -0.19183
  H         0.27759          2.20654         1.11326
  H         2.13876          1.17627        -0.20928
  H         2.15334         -1.15723        -0.18740
  H         0.29508         -2.26081         1.05688
  H        -2.00881         -1.95379         0.38737
  H        -1.47942         -0.86725        -1.00006
  H        -1.95371          2.17255         0.21091
  H        -1.44033          0.96834        -1.07810
14
 step=         153     theta[rad]=           1.6022
  C        -1.19087          1.48563        -0.16136
  C         0.05727          1.53268         0.28762
  C         1.18409          0.67094        -0.09237
  C         1.18521         -0.67297        -0.08993
  C         0.05459         -1.51863         0.29671
  C        -1.18168         -1.51969        -0.19025
  H         0.27831          2.20836         1.11113
  H         2.13925          1.17520        -0.20835
  H         2.15248         -1.15794        -0.18850
  H         0.29418         -2.25760         1.05999
  H        -2.00539         -1.96517         0.37874
  H        -1.47781         -0.87253        -1.00401
  H        -1.95541          2.16363         0.21866
  H        -1.44235          0.96423        -1.07481
14
 step=         154     theta[rad]=           1.6127
  C        -1.17894          1.51768        -0.19060
  C         0.05690          1.51737         0.29385
  C         1.18046          0.67173        -0.08783
  C         1.17914         -0.66936        -0.09070
  C         0.06005         -1.53388         0.28317
  C        -1.18974         -1.47766        -0.15664
  H         0.29362          2.24706         1.06590
  H         2.14964          1.15261        -0.18857
  H         2.13410         -1.17290        -0.21191
  H         0.27498         -2.18920         1.12599
  H        -1.93279         -2.20728         0.19526
  H        -1.44365         -0.98467        -1.08807
  H        -1.99153          1.97405         0.38337
  H        -1.48531          0.87690        -1.00489
14
 step=         155     theta[rad]=           1.6232
  C        -1.18051          1.51346        -0.18675
  C         0.05695          1.51939         0.29303
  C         1.18094          0.67163        -0.08843
  C         1.17994         -0.66983        -0.09059
  C         0.05933         -1.53187         0.28496
  C        -1.18868         -1.48319        -0.16106
  H         0.29160          2.24197         1.07185
  H         2.14828          1.15558        -0.19118
  H         2.13652         -1.17093        -0.20883
  H         0.27750         -2.19821         1.11730
  H        -1.94235         -2.17541         0.21942
  H        -1.44815         -0.96991        -1.07701
  H        -1.98678          1.99901         0.36169
  H        -1.47966          0.88840        -1.01410
14
 step=         156     theta[rad]=           1.6336
  C        -1.19238          1.48156        -0.15764
  C         0.05732          1.53462         0.28683
  C         1.18455          0.67084        -0.09295
  C         1.18599         -0.67342        -0.08983
  C         0.05389         -1.51669         0.29843
  C        -1.18066         -1.52503        -0.19452
  H         0.27636          2.20343         1.11689
  H         2.13793          1.17808        -0.21087
  H         2.15482         -1.15603        -0.18552
  H         0.29662         -2.26630         1.05159
  H        -2.01463         -1.93437         0.40208
  H        -1.48216         -0.85826        -0.99332
  H        -1.95082          2.18775         0.19770
  H        -1.43688          0.97535        -1.08370
14
 step=         157     theta[rad]=           1.6441
  C        -1.18930          1.48984        -0.16519
  C         0.05722          1.53067         0.28844
  C         1.18361          0.67105        -0.09177
  C         1.18442         -0.67249        -0.09003
  C         0.05530         -1.52063         0.29493
  C        -1.18274         -1.51417        -0.18584
  H         0.28032          2.21344         1.10520
  H         2.14062          1.17224        -0.20575
  H         2.15007         -1.15990        -0.19157
  H         0.29166         -2.24862         1.06865
  H        -1.99587         -1.99694         0.35466
  H        -1.47333         -0.88724        -1.01504
  H        -1.96015          2.13876         0.24027
  H        -1.44799          0.95277        -1.06563
14
 step=         158     theta[rad]=           1.6546
  C        -1.17778          1.52081        -0.19345
  C         0.05686          1.51588         0.29446
  C         1.18010          0.67181        -0.08738
  C         1.17854         -0.66900        -0.09077
  C         0.06059         -1.53537         0.28185
  C        -1.19053         -1.47355        -0.15336
  H         0.29511          2.25085         1.06148
  H         2.15066          1.15040        -0.18664
  H         2.13230         -1.17436        -0.21420
  H         0.27310         -2.18252         1.13245
  H        -1.92570         -2.23094         0.17733
  H        -1.44031         -0.99563        -1.09629
  H        -1.99506          1.95552         0.39947
  H        -1.48951          0.86836        -0.99806
14
 step=         159     theta[rad]=           1.6650
  C        -1.18282          1.50725        -0.18108
  C         0.05702          1.52235         0.29182
  C         1.18164          0.67148        -0.08931
  C         1.18111         -0.67053        -0.09045
  C         0.05827         -1.52892         0.28758
  C        -1.18712         -1.49134        -0.16758
  H         0.28864          2.23447         1.08062
  H         2.14626          1.15996        -0.19501
  H         2.14008         -1.16803        -0.20429
  H         0.28123         -2.21146         1.10451
  H        -1.95642         -2.12849         0.25497
  H        -1.45477         -0.94817        -1.06072
  H        -1.97978          2.03575         0.32977
  H        -1.47133          0.90532        -1.02765
14
 step=         160     theta[rad]=           1.6755
  C        -1.19349          1.47858        -0.15492
  C         0.05736          1.53605         0.28625
  C         1.18489          0.67077        -0.09337
  C         1.18655         -0.67376        -0.08976
  C         0.05338         -1.51527         0.29969
  C        -1.17991         -1.52894        -0.19765
  H         0.27494          2.19983         1.12110
  H         2.13696          1.18018        -0.21271
  H         2.15653         -1.15464        -0.18334
  H         0.29841         -2.27266         1.04545
  H        -2.02138         -1.91185         0.41915
  H        -1.48534         -0.84783        -0.98550
  H        -1.94746          2.20539         0.18238
  H        -1.43288          0.98347        -1.09021
14
 step=         161     theta[rad]=           1.6860
  C        -1.18617          1.49827        -0.17289
  C         0.05712          1.52664         0.29008
  C         1.18266          0.67126        -0.09058
  C         1.18282         -0.67154        -0.09023
  C         0.05674         -1.52464         0.29137
  C        -1.18486         -1.50311        -0.17699
  H         0.28435          2.22362         1.09330
  H         2.14335          1.16629        -0.20055
  H         2.14523         -1.16384        -0.19773
  H         0.28661         -2.23063         1.08601
  H        -1.97677         -2.06064         0.30639
  H        -1.46434         -0.91675        -1.03716
  H        -1.96965          2.08888         0.28361
  H        -1.45929          0.92980        -1.04724
14
 step=         162     theta[rad]=           1.6965
  C        -1.17710          1.52263        -0.19511
  C         0.05684          1.51501         0.29482
  C         1.17990          0.67186        -0.08713
  C         1.17820         -0.66880        -0.09081
  C         0.06090         -1.53624         0.28108
  C        -1.19099         -1.47116        -0.15145
  H         0.29598          2.25305         1.05891
  H         2.15125          1.14911        -0.18552
  H         2.13126         -1.17521        -0.21553
  H         0.27201         -2.17863         1.13620
  H        -1.92157         -2.24470         0.16690
  H        -1.43837         -1.00200        -1.10107
  H        -1.99711          1.94475         0.40883
  H        -1.49196          0.86340        -0.99409
14
 step=         163     theta[rad]=           1.7069
  C        -1.18677          1.49665        -0.17141
  C         0.05714          1.52742         0.28976
  C         1.18284          0.67122        -0.09081
  C         1.18312         -0.67172        -0.09019
  C         0.05647         -1.52387         0.29205
  C        -1.18445         -1.50524        -0.17869
  H         0.28357          2.22167         1.09558
  H         2.14283          1.16744        -0.20155
  H         2.14616         -1.16308        -0.19655
  H         0.28758         -2.23408         1.08268
  H        -1.98043         -2.04841         0.31566
  H        -1.46607         -0.91108        -1.03291
  H        -1.96783          2.09846         0.27529
  H        -1.45712          0.93421        -1.05077
14
 step=         164     theta[rad]=           1.7174
  C        -1.19327          1.47918        -0.15547
  C         0.05735          1.53576         0.28637
  C         1.18482          0.67078        -0.09328
  C         1.18644         -0.67369        -0.08978
  C         0.05348         -1.51555         0.29943
  C        -1.18006         -1.52815        -0.19701
  H         0.27523          2.20056         1.12024
  H         2.13716          1.17976        -0.21233
  H         2.15618         -1.15492        -0.18378
  H         0.29804         -2.27137         1.04669
  H        -2.02002         -1.91641         0.41570
  H        -1.48470         -0.84994        -0.98708
  H        -1.94814          2.20182         0.18548
  H        -1.43369          0.98183        -1.08889
14
 step=         165     theta[rad]=           1.7279
  C        -1.18162          1.51048        -0.18403
  C         0.05698          1.52081         0.29245
  C         1.18127          0.67156        -0.08885
  C         1.18050         -0.67017        -0.09052
  C         0.05883         -1.53045         0.28621
  C        -1.18793         -1.48710        -0.16419
  H         0.29018          2.23837         1.07606
  H         2.14731          1.15768        -0.19302
  H         2.13823         -1.16954        -0.20665
  H         0.27929         -2.20457         1.11116
  H        -1.94910         -2.15289         0.23648
  H        -1.45133         -0.95947        -1.06919
  H        -1.98342          2.01664         0.34637
  H        -1.47566          0.89652        -1.02060
14
 step=         166     theta[rad]=           1.7383
  C        -1.17873          1.51825        -0.19112
  C         0.05689          1.51710         0.29396
  C         1.18039          0.67175        -0.08775
  C         1.17903         -0.66929        -0.09071
  C         0.06015         -1.53415         0.28293
  C        -1.18988         -1.47691        -0.15604
  H         0.29389          2.24776         1.06509
  H         2.14983          1.15220        -0.18822
  H         2.13377         -1.17317        -0.21233
  H         0.27463         -2.18798         1.12717
  H        -1.93150         -2.21160         0.19199
  H        -1.44304         -0.98667        -1.08957
  H        -1.99217          1.97067         0.38631
  H        -1.48608          0.87534        -1.00365
14
 step=         167     theta[rad]=           1.7488
  C        -1.19143          1.48413        -0.15998
  C         0.05729          1.53340         0.28733
  C         1.18426          0.67091        -0.09258
  C         1.18550         -0.67314        -0.08989
  C         0.05433         -1.51791         0.29734
  C        -1.18131         -1.52166        -0.19183
  H         0.27759          2.20654         1.11326
  H         2.13876          1.17627        -0.20928
  H         2.15334         -1.15723        -0.18740
  H         0.29508         -2.26081         1.05688
  H        -2.00881         -1.95379         0.38737
  H        -1.47942         -0.86725        -1.00006
  H        -1.95371          2.17255         0.21091
  H        -1.44033          0.96834        -1.07810
14
 step=         168     theta[rad]=           1.7593
  C        -1.18983          1.48843        -0.16391
  C         0.05724          1.53134         0.28817
  C         1.18377          0.67101        -0.09197
  C         1.18468         -0.67265        -0.09000
  C         0.05506         -1.51996         0.29553
  C        -1.18239         -1.51602        -0.18731
  H         0.27965          2.21173         1.10719
  H         2.14016          1.17323        -0.20662
  H         2.15088         -1.15924        -0.19054
  H         0.29250         -2.25163         1.06574
  H        -1.99906         -1.98629         0.36273
  H        -1.47483         -0.88231        -1.01135
  H        -1.95856          2.14710         0.23303
  H        -1.44610          0.95662        -1.06871
14
 step=         169     theta[rad]=           1.7698
  C        -1.17765          1.52116        -0.19377
  C         0.05685          1.51571         0.29453
  C         1.18006          0.67182        -0.08733
  C         1.17848         -0.66896        -0.09078
  C         0.06065         -1.53554         0.28170
  C        -1.19062         -1.47309        -0.15299
  H         0.29528          2.25127         1.06098
  H         2.15077          1.15015        -0.18642
  H         2.13210         -1.17453        -0.21446
  H         0.27289         -2.18177         1.13317
  H        -1.92490         -2.23361         0.17531
  H        -1.43994         -0.99686        -1.09721
  H        -1.99546          1.95344         0.40128
  H        -1.48999          0.86740        -0.99729
14
 step=         170     theta[rad]=           1.7802
  C        -1.18409          1.50385        -0.17798
  C         0.05706          1.52398         0.29116
  C         1.18203          0.67139        -0.08979
  C         1.18176         -0.67091        -0.09037
  C         0.05769         -1.52730         0.28901
  C        -1.18626         -1.49579        -0.17114
  H         0.28701          2.23036         1.08542
  H         2.14516          1.16236        -0.19711
  H         2.14203         -1.16644        -0.20181
  H         0.28326         -2.21872         1.09751
  H        -1.96412         -2.10281         0.27444
  H        -1.45839         -0.93628        -1.05180
  H        -1.97594          2.05586         0.31229
  H        -1.46677          0.91459        -1.03506
14
 step=         171     theta[rad]=           1.7907
  C        -1.19366          1.47813        -0.15451
  C         0.05736          1.53626         0.28616
  C         1.18494          0.67076        -0.09343
  C         1.18664         -0.67381        -0.08975
  C         0.05331         -1.51506         0.29987
  C        -1.17980         -1.52952        -0.19811
  H         0.27473          2.19930         1.12172
  H         2.13682          1.18049        -0.21298
  H         2.15678         -1.15443        -0.18302
  H         0.29867         -2.27361         1.04454
  H        -2.02239         -1.90850         0.42169
  H        -1.48581         -0.84628        -0.98434
  H        -1.94696          2.20801         0.18010
  H        -1.43229          0.98468        -1.09117
14
 step=         172     theta[rad]=           1.8012
  C        -1.18299          1.50680        -0.18067
  C         0.05702          1.52257         0.29174
  C         1.18169          0.67147        -0.08937
  C         1.18120         -0.67058        -0.09044
  C         0.05820         -1.52871         0.28777
  C        -1.18701         -1.49192        -0.16804
  H         0.28842          2.23393         1.08125
  H         2.14612          1.16027        -0.19528
  H         2.14034         -1.16782        -0.20397
  H         0.28149         -2.21241         1.10359
  H        -1.95743         -2.12512         0.25752
  H        -1.45524         -0.94661        -1.05955
  H        -1.97927          2.03838         0.32748
  H        -1.47073          0.90653        -1.02862
14
 step=         173     theta[rad]=           1.8117
  C        -1.17825          1.51954        -0.19229
  C         0.05687          1.51648         0.29421
  C         1.18025          0.67178        -0.08756
  C         1.17878         -0.66915        -0.09074
  C         0.06037         -1.53477         0.28239
  C        -1.19021         -1.47522        -0.15469
  H         0.29451          2.24931         1.06327
  H         2.15025          1.15129        -0.18742
  H         2.13303         -1.17377        -0.21327
  H         0.27386         -2.18523         1.12983
  H        -1.92857         -2.22135         0.18460
  H        -1.44167         -0.99118        -1.09296
  H        -1.99363          1.96303         0.39294
  H        -1.48781          0.87182        -1.00083
14
 step=         174     theta[rad]=           1.8221
  C        -1.19125          1.48461        -0.16043
  C         0.05729          1.53316         0.28742
  C         1.18421          0.67092        -0.09251
  C         1.18541         -0.67308        -0.08991
  C         0.05441         -1.51814         0.29714
  C        -1.18143         -1.52102        -0.19132
  H         0.27782          2.20713         1.11257
  H         2.13892          1.17592        -0.20898
  H         2.15306         -1.15746        -0.18775
  H         0.29479         -2.25977         1.05788
  H        -2.00770         -1.95747         0.38458
  H        -1.47890         -0.86896        -1.00134
  H        -1.95426          2.16967         0.21341
  H        -1.44098          0.96701        -1.07703
14
 step=         175     theta[rad]=           1.8326
  C        -1.18953          1.48923        -0.16464
  C         0.05723          1.53096         0.28832
  C         1.18368          0.67103        -0.09186
  C         1.18453         -0.67256        -0.09002
  C         0.05520         -1.52034         0.29519
  C        -1.18259         -1.51497        -0.18648
  H         0.28003          2.21270         1.10606
  H         2.14042          1.17267        -0.20613
  H         2.15042         -1.15961        -0.19112
  H         0.29202         -2.24993         1.06739
  H        -1.99725         -1.99232         0.35816
  H        -1.47398         -0.88510        -1.01344
  H        -1.95946          2.14237         0.23713
  H        -1.44717          0.95444        -1.06697
14
 step=         176     theta[rad]=           1.8431
  C        -1.17736          1.52194        -0.19449
  C         0.05685          1.51534         0.29468
  C         1.17997          0.67184        -0.08722
  C         1.17833         -0.66888        -0.09080
  C         0.06078         -1.53591         0.28137
  C        -1.19081         -1.47206        -0.15217
  H         0.29565          2.25222         1.05988
  H         2.15103          1.14960        -0.18594
  H         2.13165         -1.17489        -0.21503
  H         0.27242         -2.18010         1.13478
  H        -1.92313         -2.23950         0.17085
  H        -1.43911         -0.99959        -1.09926
  H        -1.99634          1.94882         0.40529
  H        -1.49103          0.86528        -0.99559
14
 step=         177     theta[rad]=           1.8535
  C        -1.18565          1.49966        -0.17416
  C         0.05711          1.52598         0.29035
  C         1.18250          0.67129        -0.09038
  C         1.18255         -0.67138        -0.09027
  C         0.05698         -1.52531         0.29078
  C        -1.18521         -1.50128        -0.17553
  H         0.28501          2.22531         1.09132
  H         2.14380          1.16531        -0.19969
  H         2.14443         -1.16449        -0.19875
  H         0.28577         -2.22765         1.08889
  H        -1.97360         -2.07119         0.29840
  H        -1.46285         -0.92163        -1.04082
  H        -1.97123          2.08062         0.29079
  H        -1.46116          0.92599        -1.04419
14
 step=         178     theta[rad]=           1.8640
  C        -1.19324          1.47925        -0.15553
  C         0.05735          1.53572         0.28638
  C         1.18481          0.67079        -0.09327
  C         1.18642         -0.67368        -0.08978
  C         0.05350         -1.51559         0.29940
  C        -1.18008         -1.52806        -0.19694
  H         0.27526          2.20065         1.12014
  H         2.13718          1.17971        -0.21229
  H         2.15614         -1.15496        -0.18383
  H         0.29800         -2.27122         1.04684
  H        -2.01985         -1.91696         0.41528
  H        -1.48462         -0.85019        -0.98727
  H        -1.94822          2.20139         0.18586
  H        -1.43379          0.98163        -1.08873
14
 step=         179     theta[rad]=           1.8745
  C        -1.18051          1.51346        -0.18675
  C         0.05695          1.51939         0.29303
  C         1.18094          0.67163        -0.08843
  C         1.17994         -0.66983        -0.09059
  C         0.05933         -1.53187         0.28496
  C        -1.18868         -1.48319        -0.16106
  H         0.29160          2.24197         1.07185
  H         2.14828          1.15558        -0.19118
  H         2.13652         -1.17093        -0.20883
  H         0.27750         -2.19821         1.11730
  H        -1.94235         -2.17541         0.21942
  H        -1.44815         -0.96991        -1.07701
  H        -1.98678          1.99901         0.36169
  H        -1.47966          0.88840        -1.01410
14
 step=         180     theta[rad]=           1.8850
  C        -1.18051          1.51346        -0.18675
  C         0.05695          1.51939         0.29303
  C         1.18094          0.67163        -0.08843
  C         1.17994         -0.66983        -0.09059
  C         0.05933         -1.53187         0.28496
  C        -1.18868         -1.48319        -0.16106
  H         0.29160          2.24197         1.07185
  H         2.14828          1.15558        -0.19118
  H         2.13652         -1.17093        -0.20883
  H         0.27750         -2.19821         1.11730
  H        -1.94235         -2.17541         0.21942
  H        -1.44815         -0.96991        -1.07701
  H        -1.98678          1.99901         0.36169
  H        -1.47966          0.88840        -1.01410
14
 step=         181     theta[rad]=           1.8954
  C        -1.19329          1.47911        -0.15540
  C         0.05735          1.53579         0.28635
  C         1.18483          0.67078        -0.09329
  C         1.18645         -0.67370        -0.08977
  C         0.05347         -1.51552         0.29946
  C        -1.18004         -1.52824        -0.19709
  H         0.27519          2.20048         1.12034
  H         2.13714          1.17981        -0.21238
  H         2.15622         -1.15489        -0.18373
  H         0.29809         -2.27152         1.04654
  H        -2.02018         -1.91587         0.41610
  H        -1.48477         -0.84969        -0.98690
  H        -1.94806          2.20224         0.18511
  H        -1.43360          0.98202        -1.08904
14
 step=         182     theta[rad]=           1.9059
  C        -1.18512          1.50106        -0.17544
  C         0.05709          1.52531         0.29062
  C         1.18234          0.67132        -0.09018
  C         1.18229         -0.67123        -0.09030
  C         0.05722         -1.52597         0.29019
  C        -1.18556         -1.49945        -0.17406
  H         0.28568          2.22700         1.08935
  H         2.14426          1.16432        -0.19883
  H         2.14363         -1.16514        -0.19977
  H         0.28493         -2.22466         1.09177
  H        -1.97043         -2.08176         0.29038
  H        -1.46136         -0.92653        -1.04449
  H        -1.97281          2.07234         0.29798
  H        -1.46304          0.92218        -1.04114
14
 step=         183     theta[rad]=           1.9164
  C        -1.17768          1.52108        -0.19370
  C         0.05686          1.51575         0.29451
  C         1.18007          0.67182        -0.08735
  C         1.17849         -0.66897        -0.09078
  C         0.06063         -1.53550         0.28174
  C        -1.19059         -1.47320        -0.15307
  H         0.29524          2.25117         1.06110
  H         2.15075          1.15021        -0.18648
  H         2.13215         -1.17449        -0.21439
  H         0.27294         -2.18195         1.13300
  H        -1.92509         -2.23297         0.17580
  H        -1.44003         -0.99657        -1.09699
  H        -1.99536          1.95394         0.40085
  H        -1.48987          0.86763        -0.99747
14
 step=         184     theta[rad]=           1.9268
  C        -1.19093          1.48546        -0.16120
  C         0.05728          1.53276         0.28759
  C         1.18411          0.67094        -0.09239
  C         1.18525         -0.67299        -0.08993
  C         0.05456         -1.51854         0.29678
  C        -1.18164         -1.51991        -0.19043
  H         0.27823          2.20815         1.11138
  H         2.13920          1.17533        -0.20846
  H         2.15258         -1.15785        -0.18837
  H         0.29428         -2.25797         1.05963
  H        -2.00579         -1.96386         0.37974
  H        -1.47800         -0.87192        -1.00356
  H        -1.95522          2.16466         0.21776
  H        -1.44211          0.96471        -1.07519
14
 step=         185     theta[rad]=           1.9373
  C        -1.18915          1.49025        -0.16557
  C         0.05722          1.53047         0.28852
  C         1.18357          0.67106        -0.09171
  C         1.18434         -0.67245        -0.09004
  C         0.05537         -1.52083         0.29476
  C        -1.18285         -1.51363        -0.18540
  H         0.28052          2.21394         1.10461
  H         2.14075          1.17195        -0.20550
  H         2.14983         -1.16009        -0.19187
  H         0.29141         -2.24774         1.06950
  H        -1.99493         -2.00007         0.35230
  H        -1.47289         -0.88869        -1.01613
  H        -1.96062          2.13631         0.24240
  H        -1.44854          0.95165        -1.06473
14
 step=         186     theta[rad]=           1.9478
  C        -1.17713          1.52254        -0.19503
  C         0.05684          1.51505         0.29480
  C         1.17991          0.67185        -0.08714
  C         1.17821         -0.66881        -0.09081
  C         0.06088         -1.53620         0.28112
  C        -1.19096         -1.47128        -0.15154
  H         0.29594          2.25294         1.05903
  H         2.15122          1.14917        -0.18557
  H         2.13131         -1.17517        -0.21547
  H         0.27206         -2.17882         1.13602
  H        -1.92177         -2.24404         0.16741
  H        -1.43846         -1.00170        -1.10084
  H        -1.99701          1.94527         0.40838
  H        -1.49184          0.86364        -0.99428
14
 step=         187     theta[rad]=           1.9583
  C        -1.18778          1.49393        -0.16892
  C         0.05718          1.52872         0.28923
  C         1.18315          0.67115        -0.09119
  C         1.18364         -0.67203        -0.09013
  C         0.05600         -1.52257         0.29320
  C        -1.18377         -1.50881        -0.18155
  H         0.28227          2.21838         1.09942
  H         2.14194          1.16936        -0.20323
  H         2.14772         -1.16181        -0.19456
  H         0.28921         -2.23990         1.07707
  H        -1.98660         -2.02783         0.33126
  H        -1.46897         -0.90155        -1.02577
  H        -1.96476          2.11457         0.26129
  H        -1.45347          0.94163        -1.05671
14
 step=         188     theta[rad]=           1.9687
  C        -1.19177          1.48320        -0.15914
  C         0.05730          1.53384         0.28715
  C         1.18437          0.67088        -0.09271
  C         1.18567         -0.67324        -0.08987
  C         0.05417         -1.51747         0.29773
  C        -1.18107         -1.52288        -0.19280
  H         0.27715          2.20542         1.11457
  H         2.13846          1.17692        -0.20985
  H         2.15387         -1.15680        -0.18672
  H         0.29563         -2.26279         1.05498
  H        -2.01090         -1.94679         0.39267
  H        -1.48041         -0.86401        -0.99763
  H        -1.95267          2.17803         0.20615
  H        -1.43909          0.97086        -1.08011
14
 step=         189     theta[rad]=           1.9792
  C        -1.17800          1.52021        -0.19291
  C         0.05687          1.51616         0.29435
  C         1.18017          0.67180        -0.08747
  C         1.17866         -0.66907        -0.09076
  C         0.06049         -1.53509         0.28210
  C        -1.19038         -1.47433        -0.15398
  H         0.29483          2.25013         1.06232
  H         2.15047          1.15082        -0.18701
  H         2.13264         -1.17408        -0.21376
  H         0.27346         -2.18379         1.13122
  H        -1.92705         -2.22644         0.18074
  H        -1.44095         -0.99354        -1.09473
  H        -1.99439          1.95905         0.39641
  H        -1.48872          0.86999        -0.99936
14
 step=         190     theta[rad]=           1.9897
  C        -1.18495          1.50153        -0.17586
  C         0.05709          1.52508         0.29071
  C         1.18229          0.67134        -0.09012
  C         1.18220         -0.67117        -0.09031
  C         0.05730         -1.52620         0.28999
  C        -1.18568         -1.49883        -0.17357
  H         0.28590          2.22756         1.08869
  H         2.14441          1.16399        -0.19854
  H         2.14336         -1.16536        -0.20011
  H         0.28465         -2.22367         1.09273
  H        -1.96937         -2.08529         0.28771
  H        -1.46087         -0.92816        -1.04572
  H        -1.97333          2.06958         0.30037
  H        -1.46366          0.92091        -1.04012
14
 step=         191     theta[rad]=           2.0001
  C        -1.19309          1.47965        -0.15590
  C         0.05734          1.53553         0.28646
  C         1.18477          0.67080        -0.09322
  C         1.18635         -0.67364        -0.08979
  C         0.05357         -1.51578         0.29923
  C        -1.18018         -1.52753        -0.19652
  H         0.27545          2.20113         1.11957
  H         2.13731          1.17942        -0.21204
  H         2.15591         -1.15514        -0.18413
  H         0.29776         -2.27036         1.04767
  H        -2.01894         -1.91999         0.41298
  H        -1.48419         -0.85160        -0.98833
  H        -1.94867          2.19902         0.18792
  H        -1.43433          0.98053        -1.08786
14
 step=         192     theta[rad]=           2.0106
  C        -1.17934          1.51660        -0.18962
  C         0.05691          1.51789         0.29364
  C         1.18058          0.67171        -0.08798
  C         1.17934         -0.66948        -0.09067
  C         0.05987         -1.53337         0.28363
  C        -1.18947         -1.47907        -0.15777
  H         0.29310          2.24577         1.06741
  H         2.14930          1.15336        -0.18924
  H         2.13471         -1.17240        -0.21113
  H         0.27562         -2.19149         1.12378
  H        -1.93522         -2.19917         0.20141
  H        -1.44480         -0.98091        -1.08526
  H        -1.99032          1.98040         0.37785
  H        -1.48388          0.87982        -1.00723
14
 step=         193     theta[rad]=           2.0211
  C        -1.18291          1.50703        -0.18088
  C         0.05702          1.52246         0.29178
  C         1.18167          0.67147        -0.08934
  C         1.18116         -0.67056        -0.09044
  C         0.05824         -1.52881         0.28767
  C        -1.18706         -1.49163        -0.16781
  H         0.28853          2.23420         1.08093
  H         2.14619          1.16012        -0.19515
  H         2.14021         -1.16793        -0.20413
  H         0.28136         -2.21194         1.10405
  H        -1.95692         -2.12681         0.25625
  H        -1.45501         -0.94739        -1.06013
  H        -1.97953          2.03706         0.32862
  H        -1.47103          0.90593        -1.02813
14
 step=         194     theta[rad]=           2.0316
  C        -1.19357          1.47836        -0.15472
  C         0.05736          1.53615         0.28621
  C         1.18492          0.67076        -0.09340
  C         1.18659         -0.67378        -0.08976
  C         0.05335         -1.51517         0.29978
  C        -1.17986         -1.52922        -0.19787
  H         0.27484          2.19958         1.12140
  H         2.13690          1.18033        -0.21284
  H         2.15665         -1.15454        -0.18318
  H         0.29853         -2.27311         1.04501
  H        -2.02187         -1.91024         0.42037
  H        -1.48557         -0.84708        -0.98494
  H        -1.94722          2.20665         0.18128
  H        -1.43260          0.98405        -1.09067
14
 step=         195     theta[rad]=           2.0420
  C        -1.18051          1.51346        -0.18675
  C         0.05695          1.51939         0.29303
  C         1.18094          0.67163        -0.08843
  C         1.17994         -0.66983        -0.09059
  C         0.05933         -1.53187         0.28496
  C        -1.18868         -1.48319        -0.16106
  H         0.29160          2.24197         1.07185
  H         2.14828          1.15558        -0.19118
  H         2.13652         -1.17093        -0.20883
  H         0.27750         -2.19821         1.11730
  H        -1.94235         -2.17541         0.21942
  H        -1.44815         -0.96991        -1.07701
  H        -1.98678          1.99901         0.36169
  H        -1.47966          0.88840        -1.01410
14
 step=         196     theta[rad]=           2.0525
  C        -1.18170          1.51027        -0.18384
  C         0.05698          1.52091         0.29241
  C         1.18130          0.67155        -0.08888
  C         1.18054         -0.67019        -0.09052
  C         0.05879         -1.53036         0.28630
  C        -1.18788         -1.48737        -0.16441
  H         0.29008          2.23812         1.07635
  H         2.14724          1.15783        -0.19315
  H         2.13835         -1.16944        -0.20650
  H         0.27942         -2.20501         1.11074
  H        -1.94957         -2.15131         0.23768
  H        -1.45155         -0.95875        -1.06864
  H        -1.98318          2.01788         0.34530
  H        -1.47538          0.89709        -1.02105
14
 step=         197     theta[rad]=           2.0630
  C        -1.19367          1.47810        -0.15448
  C         0.05736          1.53627         0.28616
  C         1.18495          0.67076        -0.09344
  C         1.18664         -0.67381        -0.08975
  C         0.05330         -1.51504         0.29989
  C        -1.17979         -1.52957        -0.19815
  H         0.27471          2.19926         1.12177
  H         2.13681          1.18052        -0.21300
  H         2.15680         -1.15442        -0.18299
  H         0.29869         -2.27368         1.04447
  H        -2.02246         -1.90825         0.42188
  H        -1.48585         -0.84616        -0.98425
  H        -1.94692          2.20821         0.17993
  H        -1.43225          0.98477        -1.09124
14
 step=         198     theta[rad]=           2.0735
  C        -1.18117          1.51170        -0.18515
  C         0.05697          1.52023         0.29269
  C         1.18114          0.67159        -0.08867
  C         1.18027         -0.67003        -0.09055
  C         0.05904         -1.53104         0.28570
  C        -1.18824         -1.48549        -0.16290
  H         0.29076          2.23985         1.07433
  H         2.14771          1.15682        -0.19226
  H         2.13752         -1.17011        -0.20755
  H         0.27856         -2.20195         1.11369
  H        -1.94632         -2.16215         0.22946
  H        -1.45002         -0.96377        -1.07240
  H        -1.98480          2.00939         0.35267
  H        -1.47731          0.89318        -1.01792
14
 step=         199     theta[rad]=           2.0839
  C        -1.18124          1.51150        -0.18496
  C         0.05697          1.52032         0.29265
  C         1.18116          0.67158        -0.08870
  C         1.18031         -0.67005        -0.09055
  C         0.05900         -1.53094         0.28578
  C        -1.18819         -1.48576        -0.16312
  H         0.29067          2.23961         1.07461
  H         2.14764          1.15696        -0.19238
  H         2.13764         -1.17002        -0.20740
  H         0.27868         -2.20238         1.11328
  H        -1.94678         -2.16063         0.23061
  H        -1.45023         -0.96306        -1.07188
  H        -1.98457          2.01058         0.35164
  H        -1.47704          0.89373        -1.01836
14
 step=         200     theta[rad]=           2.0944
  C        -1.19367          1.47809        -0.15447
  C         0.05736          1.53628         0.28615
  C         1.18495          0.67076        -0.09344
  C         1.18664         -0.67382        -0.08975
  C         0.05330         -1.51504         0.29989
  C        -1.17979         -1.52958        -0.19816
  H         0.27471          2.19924         1.12178
  H         2.13681          1.18053        -0.21301
  H         2.15681         -1.15441        -0.18298
  H         0.29870         -2.27370         1.04444
  H        -2.02249         -1.90817         0.42194
  H        -1.48586         -0.84612        -0.98422
  H        -1.94691          2.20827         0.17987
  H        -1.43223          0.98480        -1.09127
14
 step=         201     theta[rad]=           2.1049
  C        -1.18117          1.51170        -0.18515
  C         0.05697          1.52023         0.29269
  C         1.18114          0.67159        -0.08867
  C         1.18027         -0.67003        -0.09055
  C         0.05904         -1.53104         0.28570
  C        -1.18824         -1.48549        -0.16290
  H         0.29076          2.23985         1.07433
  H         2.14771          1.15682        -0.19226
  H         2.13752         -1.17011        -0.20755
  H         0.27856         -2.20195         1.11369
  H        -1.94632         -2.16215         0.22946
  H        -1.45002         -0.96377        -1.07240
  H        -1.98480          2.00939         0.35267
  H        -1.47731          0.89318        -1.01792
14
 step=         202     theta[rad]=           2.1153
  C        -1.18147          1.51089        -0.18440
  C         0.05698          1.52061         0.29253
  C         1.18123          0.67157        -0.08879
  C         1.18042         -0.67012        -0.09053
  C         0.05890         -1.53065         0.28604
  C        -1.18803         -1.48656        -0.16376
  H         0.29038          2.23887         1.07548
  H         2.14744          1.15739        -0.19276
  H         2.13799         -1.16973        -0.20695
  H         0.27904         -2.20369         1.11202
  H        -1.94817         -2.15601         0.23412
  H        -1.45089         -0.96092        -1.07027
  H        -1.98388          2.01420         0.34849
  H        -1.47622          0.89539        -1.01970
14
 step=         203     theta[rad]=           2.1258
  C        -1.19366          1.47813        -0.15451
  C         0.05736          1.53626         0.28616
  C         1.18494          0.67076        -0.09343
  C         1.18664         -0.67381        -0.08975
  C         0.05331         -1.51506         0.29987
  C        -1.17980         -1.52952        -0.19811
  H         0.27473          2.19930         1.12172
  H         2.13682          1.18049        -0.21298
  H         2.15678         -1.15443        -0.18302
  H         0.29867         -2.27361         1.04454
  H        -2.02239         -1.90850         0.42169
  H        -1.48581         -0.84628        -0.98434
  H        -1.94696          2.20801         0.18010
  H        -1.43229          0.98468        -1.09117
14
 step=         204     theta[rad]=           2.1363
  C        -1.18051          1.51346        -0.18675
  C         0.05695          1.51939         0.29303
  C         1.18094          0.67163        -0.08843
  C         1.17994         -0.66983        -0.09059
  C         0.05933         -1.53187         0.28496
  C        -1.18868         -1.48319        -0.16106
  H         0.29160          2.24197         1.07185
  H         2.14828          1.15558        -0.19118
  H         2.13652         -1.17093        -0.20883
  H         0.27750         -2.19821         1.11730
  H        -1.94235         -2.17541         0.21942
  H        -1.44815         -0.96991        -1.07701
  H        -1.98678          1.99901         0.36169
  H        -1.47966          0.88840        -1.01410
14
 step=         205     theta[rad]=           2.1468
  C        -1.18241          1.50835        -0.18208
  C         0.05701          1.52183         0.29204
  C         1.18152          0.67150        -0.08915
  C         1.18091         -0.67041        -0.09047
  C         0.05846         -1.52944         0.28711
  C        -1.18739         -1.48989        -0.16642
  H         0.28916          2.23580         1.07907
  H         2.14662          1.15918        -0.19433
  H         2.13945         -1.16854        -0.20509
  H         0.28057         -2.20911         1.10678
  H        -1.95393         -2.13679         0.24868
  H        -1.45360         -0.95202        -1.06360
  H        -1.98101          2.02925         0.33542
  H        -1.47281          0.90233        -1.02525
14
 step=         206     theta[rad]=           2.1572
  C        -1.19347          1.47863        -0.15496
  C         0.05736          1.53602         0.28626
  C         1.18489          0.67077        -0.09336
  C         1.18654         -0.67375        -0.08976
  C         0.05339         -1.51529         0.29967
  C        -1.17992         -1.52888        -0.19760
  H         0.27496          2.19989         1.12102
  H         2.13698          1.18015        -0.21267
  H         2.15650         -1.15466        -0.18338
  H         0.29838         -2.27256         1.04555
  H        -2.02127         -1.91222         0.41887
  H        -1.48529         -0.84800        -0.98563
  H        -1.94751          2.20510         0.18263
  H        -1.43295          0.98333        -1.09010
14
 step=         207     theta[rad]=           2.1677
  C        -1.17934          1.51660        -0.18962
  C         0.05691          1.51789         0.29364
  C         1.18058          0.67171        -0.08798
  C         1.17934         -0.66948        -0.09067
  C         0.05987         -1.53337         0.28363
  C        -1.18947         -1.47907        -0.15777
  H         0.29310          2.24577         1.06741
  H         2.14930          1.15336        -0.18924
  H         2.13471         -1.17240        -0.21113
  H         0.27562         -2.19149         1.12378
  H        -1.93522         -2.19917         0.20141
  H        -1.44480         -0.98091        -1.08526
  H        -1.99032          1.98040         0.37785
  H        -1.48388          0.87982        -1.00723
14
 step=         208     theta[rad]=           2.1782
  C        -1.18417          1.50362        -0.17777
  C         0.05706          1.52409         0.29112
  C         1.18205          0.67139        -0.08982
  C         1.18180         -0.67094        -0.09036
  C         0.05766         -1.52719         0.28911
  C        -1.18621         -1.49610        -0.17138
  H         0.28690          2.23008         1.08574
  H         2.14509          1.16252        -0.19725
  H         2.14216         -1.16633        -0.20164
  H         0.28340         -2.21921         1.09704
  H        -1.96464         -2.10107         0.27576
  H        -1.45864         -0.93547        -1.05119
  H        -1.97568          2.05722         0.31111
  H        -1.46646          0.91521        -1.03556
14
 step=         209     theta[rad]=           2.1886
  C        -1.19277          1.48052        -0.15669
  C         0.05733          1.53512         0.28663
  C         1.18467          0.67082        -0.09309
  C         1.18618         -0.67354        -0.08981
  C         0.05371         -1.51619         0.29887
  C        -1.18040         -1.52640        -0.19561
  H         0.27587          2.20218         1.11835
  H         2.13759          1.17881        -0.21151
  H         2.15541         -1.15555        -0.18476
  H         0.29724         -2.26852         1.04945
  H        -2.01699         -1.92651         0.40804
  H        -1.48327         -0.85462        -0.99059
  H        -1.94965          2.19391         0.19236
  H        -1.43549          0.97818        -1.08597
14
 step=         210     theta[rad]=           2.1991
  C        -1.17800          1.52021        -0.19291
  C         0.05687          1.51616         0.29435
  C         1.18017          0.67180        -0.08747
  C         1.17866         -0.66907        -0.09076
  C         0.06049         -1.53509         0.28210
  C        -1.19038         -1.47433        -0.15398
  H         0.29483          2.25013         1.06232
  H         2.15047          1.15082        -0.18701
  H         2.13264         -1.17408        -0.21376
  H         0.27346         -2.18379         1.13122
  H        -1.92705         -2.22644         0.18074
  H        -1.44095         -0.99354        -1.09473
  H        -1.99439          1.95905         0.39641
  H        -1.48872          0.86999        -0.99936
14
 step=         211     theta[rad]=           2.2096
  C        -1.18677          1.49665        -0.17141
  C         0.05714          1.52742         0.28976
  C         1.18284          0.67122        -0.09081
  C         1.18312         -0.67172        -0.09019
  C         0.05647         -1.52387         0.29205
  C        -1.18445         -1.50524        -0.17869
  H         0.28357          2.22167         1.09558
  H         2.14283          1.16744        -0.20155
  H         2.14616         -1.16308        -0.19655
  H         0.28758         -2.23408         1.08268
  H        -1.98043         -2.04841         0.31566
  H        -1.46607         -0.91108        -1.03291
  H        -1.96783          2.09846         0.27529
  H        -1.45712          0.93421        -1.05077
14
 step=         212     theta[rad]=           2.2201
  C        -1.19106          1.48512        -0.16089
  C         0.05728          1.53292         0.28752
  C         1.18415          0.67093        -0.09244
  C         1.18531         -0.67302        -0.08992
  C         0.05450         -1.51838         0.29692
  C        -1.18155         -1.52036        -0.19079
  H         0.27806          2.20773         1.11186
  H         2.13908          1.17557        -0.20867
  H         2.15278         -1.15769        -0.18812
  H         0.29449         -2.25870         1.05892
  H        -2.00657         -1.96126         0.38170
  H        -1.47837         -0.87072        -1.00266
  H        -1.95483          2.16670         0.21600
  H        -1.44165          0.96564        -1.07594
14
 step=         213     theta[rad]=           2.2305
  C        -1.17713          1.52254        -0.19503
  C         0.05684          1.51505         0.29480
  C         1.17991          0.67185        -0.08714
  C         1.17821         -0.66881        -0.09081
  C         0.06088         -1.53620         0.28112
  C        -1.19096         -1.47128        -0.15154
  H         0.29594          2.25294         1.05903
  H         2.15122          1.14917        -0.18557
  H         2.13131         -1.17517        -0.21547
  H         0.27206         -2.17882         1.13602
  H        -1.92177         -2.24404         0.16741
  H        -1.43846         -1.00170        -1.10084
  H        -1.99701          1.94527         0.40838
  H        -1.49184          0.86364        -0.99428
14
 step=         214     theta[rad]=           2.2410
  C        -1.18990          1.48823        -0.16373
  C         0.05724          1.53144         0.28813
  C         1.18380          0.67101        -0.09200
  C         1.18472         -0.67267        -0.08999
  C         0.05503         -1.51986         0.29561
  C        -1.18234         -1.51628        -0.18752
  H         0.27955          2.21150         1.10746
  H         2.14010          1.17337        -0.20675
  H         2.15099         -1.15915        -0.19040
  H         0.29262         -2.25205         1.06534
  H        -1.99950         -1.98481         0.36386
  H        -1.47504         -0.88162        -1.01083
  H        -1.95834          2.14826         0.23202
  H        -1.44583          0.95715        -1.06914
14
 step=         215     theta[rad]=           2.2515
  C        -1.18795          1.49348        -0.16852
  C         0.05718          1.52893         0.28915
  C         1.18320          0.67114        -0.09126
  C         1.18373         -0.67208        -0.09012
  C         0.05593         -1.52236         0.29339
  C        -1.18366         -1.50939        -0.18202
  H         0.28206          2.21784         1.10005
  H         2.14180          1.16967        -0.20351
  H         2.14798         -1.16160        -0.19423
  H         0.28947         -2.24085         1.07615
  H        -1.98761         -2.02447         0.33380
  H        -1.46945         -0.89999        -1.02460
  H        -1.96426          2.11720         0.25900
  H        -1.45287          0.94284        -1.05768
14
 step=         216     theta[rad]=           2.2619
  C        -1.17768          1.52108        -0.19370
  C         0.05686          1.51575         0.29451
  C         1.18007          0.67182        -0.08735
  C         1.17849         -0.66897        -0.09078
  C         0.06063         -1.53550         0.28174
  C        -1.19059         -1.47320        -0.15307
  H         0.29524          2.25117         1.06110
  H         2.15075          1.15021        -0.18648
  H         2.13215         -1.17449        -0.21439
  H         0.27294         -2.18195         1.13300
  H        -1.92509         -2.23297         0.17580
  H        -1.44003         -0.99657        -1.09699
  H        -1.99536          1.95394         0.40085
  H        -1.48987          0.86763        -0.99747
14
 step=         217     theta[rad]=           2.2724
  C        -1.19269          1.48073        -0.15689
  C         0.05733          1.53502         0.28667
  C         1.18465          0.67082        -0.09306
  C         1.18614         -0.67352        -0.08981
  C         0.05375         -1.51629         0.29878
  C        -1.18045         -1.52611        -0.19538
  H         0.27597          2.20244         1.11805
  H         2.13766          1.17866        -0.21137
  H         2.15529         -1.15565        -0.18492
  H         0.29711         -2.26806         1.04989
  H        -2.01650         -1.92815         0.40680
  H        -1.48304         -0.85538        -0.99116
  H        -1.94989          2.19263         0.19347
  H        -1.43578          0.97759        -1.08550
14
 step=         218     theta[rad]=           2.2829
  C        -1.18358          1.50522        -0.17923
  C         0.05704          1.52332         0.29143
  C         1.18187          0.67143        -0.08959
  C         1.18150         -0.67076        -0.09040
  C         0.05793         -1.52795         0.28843
  C        -1.18661         -1.49399        -0.16970
  H         0.28767          2.23202         1.08348
  H         2.14561          1.16139        -0.19626
  H         2.14124         -1.16708        -0.20281
  H         0.28244         -2.21578         1.10034
  H        -1.96101         -2.11319         0.26656
  H        -1.45693         -0.94109        -1.05541
  H        -1.97749          2.04773         0.31936
  H        -1.46862          0.91084        -1.03206
14
 step=         219     theta[rad]=           2.2934
  C        -1.18051          1.51346        -0.18675
  C         0.05695          1.51939         0.29303
  C         1.18094          0.67163        -0.08843
  C         1.17994         -0.66983        -0.09059
  C         0.05933         -1.53187         0.28496
  C        -1.18868         -1.48319        -0.16106
  H         0.29160          2.24197         1.07185
  H         2.14828          1.15558        -0.19118
  H         2.13652         -1.17093        -0.20883
  H         0.27750         -2.19821         1.11730
  H        -1.94235         -2.17541         0.21942
  H        -1.44815         -0.96991        -1.07701
  H        -1.98678          1.99901         0.36169
  H        -1.47966          0.88840        -1.01410
14
 step=         220     theta[rad]=           2.3038
  C        -1.19363          1.47821        -0.15458
  C         0.05736          1.53622         0.28618
  C         1.18493          0.67076        -0.09342
  C         1.18662         -0.67380        -0.08975
  C         0.05332         -1.51509         0.29984
  C        -1.17982         -1.52942        -0.19803
  H         0.27476          2.19939         1.12161
  H         2.13685          1.18044        -0.21293
  H         2.15674         -1.15447        -0.18307
  H         0.29862         -2.27344         1.04470
  H        -2.02221         -1.90909         0.42124
  H        -1.48573         -0.84655        -0.98454
  H        -1.94705          2.20755         0.18050
  H        -1.43239          0.98446        -1.09100
14
 step=         221     theta[rad]=           2.3143
  C        -1.17917          1.51707        -0.19005
  C         0.05690          1.51766         0.29374
  C         1.18053          0.67172        -0.08791
  C         1.17925         -0.66942        -0.09068
  C         0.05995         -1.53359         0.28343
  C        -1.18959         -1.47845        -0.15727
  H         0.29333          2.24634         1.06675
  H         2.14945          1.15303        -0.18895
  H         2.13444         -1.17262        -0.21147
  H         0.27534         -2.19049         1.12475
  H        -1.93416         -2.20273         0.19871
  H        -1.44429         -0.98256        -1.08649
  H        -1.99085          1.97762         0.38028
  H        -1.48451          0.87854        -1.00621
14
 step=         222     theta[rad]=           2.3248
  C        -1.18565          1.49966        -0.17416
  C         0.05711          1.52598         0.29035
  C         1.18250          0.67129        -0.09038
  C         1.18255         -0.67138        -0.09027
  C         0.05698         -1.52531         0.29078
  C        -1.18521         -1.50128        -0.17553
  H         0.28501          2.22531         1.09132
  H         2.14380          1.16531        -0.19969
  H         2.14443         -1.16449        -0.19875
  H         0.28577         -2.22765         1.08889
  H        -1.97360         -2.07119         0.29840
  H        -1.46285         -0.92163        -1.04082
  H        -1.97123          2.08062         0.29079
  H        -1.46116          0.92599        -1.04419
14
 step=         223     theta[rad]=           2.3353
  C        -1.19118          1.48478        -0.16058
  C         0.05728          1.53308         0.28746
  C         1.18419          0.67092        -0.09249
  C         1.18538         -0.67306        -0.08991
  C         0.05444         -1.51822         0.29707
  C        -1.18147         -1.52081        -0.19114
  H         0.27790          2.20733         1.11234
  H         2.13898          1.17581        -0.20888
  H         2.15297         -1.15754        -0.18787
  H         0.29469         -2.25942         1.05823
  H        -2.00733         -1.95872         0.38363
  H        -1.47873         -0.86954        -1.00177
  H        -1.95445          2.16869         0.21427
  H        -1.44120          0.96656        -1.07667
14
 step=         224     theta[rad]=           2.3457
  C        -1.17710          1.52264        -0.19512
  C         0.05684          1.51500         0.29482
  C         1.17990          0.67186        -0.08712
  C         1.17820         -0.66880        -0.09081
  C         0.06090         -1.53624         0.28108
  C        -1.19099         -1.47115        -0.15143
  H         0.29599          2.25306         1.05889
  H         2.15125          1.14910        -0.18551
  H         2.13125         -1.17522        -0.21554
  H         0.27200         -2.17861         1.13622
  H        -1.92154         -2.24479         0.16684
  H        -1.43836         -1.00204        -1.10109
  H        -1.99713          1.94468         0.40889
  H        -1.49197          0.86337        -0.99406
14
 step=         225     theta[rad]=           2.3562
  C        -1.19125          1.48461        -0.16043
  C         0.05729          1.53316         0.28742
  C         1.18421          0.67092        -0.09251
  C         1.18541         -0.67308        -0.08991
  C         0.05441         -1.51814         0.29714
  C        -1.18143         -1.52102        -0.19132
  H         0.27782          2.20713         1.11257
  H         2.13892          1.17592        -0.20898
  H         2.15306         -1.15746        -0.18775
  H         0.29479         -2.25977         1.05788
  H        -2.00770         -1.95747         0.38458
  H        -1.47890         -0.86896        -1.00134
  H        -1.95426          2.16967         0.21341
  H        -1.44098          0.96701        -1.07703
14
 step=         226     theta[rad]=           2.3667
  C        -1.18530          1.50060        -0.17501
  C         0.05710          1.52553         0.29053
  C         1.18239          0.67131        -0.09025
  C         1.18238         -0.67128        -0.09029
  C         0.05714         -1.52575         0.29039
  C        -1.18545         -1.50006        -0.17455
  H         0.28546          2.22643         1.09001
  H         2.14411          1.16465        -0.19911
  H         2.14390         -1.16492        -0.19943
  H         0.28521         -2.22566         1.09081
  H        -1.97149         -2.07824         0.29305
  H        -1.46186         -0.92490        -1.04327
  H        -1.97228          2.07510         0.29558
  H        -1.46241          0.92345        -1.04216
14
 step=         227     theta[rad]=           2.3771
  C        -1.17971          1.51561        -0.18871
  C         0.05692          1.51836         0.29345
  C         1.18069          0.67168        -0.08812
  C         1.17953         -0.66959        -0.09065
  C         0.05970         -1.53290         0.28405
  C        -1.18922         -1.48036        -0.15880
  H         0.29263          2.24457         1.06881
  H         2.14898          1.15406        -0.18985
  H         2.13528         -1.17194        -0.21040
  H         0.27621         -2.19361         1.12174
  H        -1.93747         -2.19169         0.20707
  H        -1.44585         -0.97745        -1.08266
  H        -1.98920          1.98626         0.37277
  H        -1.48255          0.88252        -1.00939
14
 step=         228     theta[rad]=           2.3876
  C        -1.19366          1.47813        -0.15451
  C         0.05736          1.53626         0.28616
  C         1.18494          0.67076        -0.09343
  C         1.18664         -0.67381        -0.08975
  C         0.05331         -1.51506         0.29987
  C        -1.17980         -1.52952        -0.19811
  H         0.27473          2.19930         1.12172
  H         2.13682          1.18049        -0.21298
  H         2.15678         -1.15443        -0.18302
  H         0.29867         -2.27361         1.04454
  H        -2.02239         -1.90850         0.42169
  H        -1.48581         -0.84628        -0.98434
  H        -1.94696          2.20801         0.18010
  H        -1.43229          0.98468        -1.09117
14
 step=         229     theta[rad]=           2.3981
  C        -1.17894          1.51768        -0.19060
  C         0.05690          1.51737         0.29385
  C         1.18046          0.67173        -0.08783
  C         1.17914         -0.66936        -0.09070
  C         0.06005         -1.53388         0.28317
  C        -1.18974         -1.47766        -0.15664
  H         0.29362          2.24706         1.06590
  H         2.14964          1.15261        -0.18857
  H         2.13410         -1.17290        -0.21191
  H         0.27498         -2.18920         1.12599
  H        -1.93279         -2.20728         0.19526
  H        -1.44365         -0.98467        -1.08807
  H        -1.99153          1.97405         0.38337
  H        -1.48531          0.87690        -1.00489
14
 step=         230     theta[rad]=           2.4086
  C        -1.18668          1.49688        -0.17162
  C         0.05714          1.52731         0.28981
  C         1.18282          0.67122        -0.09077
  C         1.18308         -0.67170        -0.09020
  C         0.05651         -1.52398         0.29196
  C        -1.18451         -1.50493        -0.17845
  H         0.28368          2.22194         1.09526
  H         2.14290          1.16727        -0.20141
  H         2.14603         -1.16319        -0.19671
  H         0.28744         -2.23359         1.08315
  H        -1.97991         -2.05015         0.31434
  H        -1.46582         -0.91189        -1.03352
  H        -1.96809          2.09709         0.27647
  H        -1.45743          0.93358        -1.05027
14
 step=         231     theta[rad]=           2.4190
  C        -1.18983          1.48843        -0.16391
  C         0.05724          1.53134         0.28817
  C         1.18377          0.67101        -0.09197
  C         1.18468         -0.67265        -0.09000
  C         0.05506         -1.51996         0.29553
  C        -1.18239         -1.51602        -0.18731
  H         0.27965          2.21173         1.10719
  H         2.14016          1.17323        -0.20662
  H         2.15088         -1.15924        -0.19054
  H         0.29250         -2.25163         1.06574
  H        -1.99906         -1.98629         0.36273
  H        -1.47483         -0.88231        -1.01135
  H        -1.95856          2.14710         0.23303
  H        -1.44610          0.95662        -1.06871
14
 step=         232     theta[rad]=           2.4295
  C        -1.17745          1.52169        -0.19426
  C         0.05685          1.51546         0.29463
  C         1.18000          0.67183        -0.08726
  C         1.17838         -0.66890        -0.09079
  C         0.06074         -1.53579         0.28148
  C        -1.19075         -1.47239        -0.15243
  H         0.29553          2.25191         1.06023
  H         2.15095          1.14977        -0.18610
  H         2.13180         -1.17477        -0.21484
  H         0.27257         -2.18064         1.13426
  H        -1.92370         -2.23760         0.17228
  H        -1.43937         -0.99871        -1.09860
  H        -1.99605          1.95031         0.40400
  H        -1.49070          0.86596        -0.99614
14
 step=         233     theta[rad]=           2.4400
  C        -1.19299          1.47992        -0.15614
  C         0.05734          1.53540         0.28651
  C         1.18474          0.67080        -0.09318
  C         1.18630         -0.67361        -0.08979
  C         0.05361         -1.51591         0.29912
  C        -1.18025         -1.52718        -0.19624
  H         0.27558          2.20146         1.11920
  H         2.13740          1.17923        -0.21187
  H         2.15576         -1.15527        -0.18432
  H         0.29760         -2.26979         1.04822
  H        -2.01834         -1.92201         0.41145
  H        -1.48391         -0.85253        -0.98903
  H        -1.94897          2.19743         0.18929
  H        -1.43469          0.97980        -1.08727
14
 step=         234     theta[rad]=           2.4504
  C        -1.18162          1.51048        -0.18403
  C         0.05698          1.52081         0.29245
  C         1.18127          0.67156        -0.08885
  C         1.18050         -0.67017        -0.09052
  C         0.05883         -1.53045         0.28621
  C        -1.18793         -1.48710        -0.16419
  H         0.29018          2.23837         1.07606
  H         2.14731          1.15768        -0.19302
  H         2.13823         -1.16954        -0.20665
  H         0.27929         -2.20457         1.11116
  H        -1.94910         -2.15289         0.23648
  H        -1.45133         -0.95947        -1.06919
  H        -1.98342          2.01664         0.34637
  H        -1.47566          0.89652        -1.02060
14
 step=         235     theta[rad]=           2.4609
  C        -1.18366          1.50500        -0.17902
  C         0.05705          1.52343         0.29139
  C         1.18190          0.67142        -0.08962
  C         1.18154         -0.67078        -0.09039
  C         0.05789         -1.52784         0.28853
  C        -1.18655         -1.49429        -0.16994
  H         0.28756          2.23175         1.08380
  H         2.14553          1.16155        -0.19640
  H         2.14137         -1.16698        -0.20265
  H         0.28258         -2.21627         1.09987
  H        -1.96152         -2.11147         0.26787
  H        -1.45717         -0.94029        -1.05481
  H        -1.97724          2.04907         0.31819
  H        -1.46831          0.91146        -1.03256
14
 step=         236     theta[rad]=           2.4714
  C        -1.19177          1.48320        -0.15914
  C         0.05730          1.53384         0.28715
  C         1.18437          0.67088        -0.09271
  C         1.18567         -0.67324        -0.08987
  C         0.05417         -1.51747         0.29773
  C        -1.18107         -1.52288        -0.19280
  H         0.27715          2.20542         1.11457
  H         2.13846          1.17692        -0.20985
  H         2.15387         -1.15680        -0.18672
  H         0.29563         -2.26279         1.05498
  H        -2.01090         -1.94679         0.39267
  H        -1.48041         -0.86401        -0.99763
  H        -1.95267          2.17803         0.20615
  H        -1.43909          0.97086        -1.08011
14
 step=         237     theta[rad]=           2.4819
  C        -1.17710          1.52263        -0.19511
  C         0.05684          1.51501         0.29482
  C         1.17990          0.67186        -0.08713
  C         1.17820         -0.66880        -0.09081
  C         0.06090         -1.53624         0.28108
  C        -1.19099         -1.47116        -0.15145
  H         0.29598          2.25305         1.05891
  H         2.15125          1.14911        -0.18552
  H         2.13126         -1.17521        -0.21553
  H         0.27201         -2.17863         1.13620
  H        -1.92157         -2.24470         0.16690
  H        -1.43837         -1.00200        -1.10107
  H        -1.99711          1.94475         0.40883
  H        -1.49196          0.86340        -0.99409
14
 step=         238     theta[rad]=           2.4923
  C        -1.19214          1.48221        -0.15823
  C         0.05731          1.53431         0.28696
  C         1.18448          0.67086        -0.09285
  C         1.18586         -0.67335        -0.08985
  C         0.05400         -1.51700         0.29815
  C        -1.18082         -1.52418        -0.19384
  H         0.27667          2.20422         1.11597
  H         2.13814          1.17762        -0.21046
  H         2.15444         -1.15634        -0.18599
  H         0.29623         -2.26491         1.05293
  H        -2.01316         -1.93928         0.39836
  H        -1.48147         -0.86054        -0.99502
  H        -1.95155          2.18391         0.20104
  H        -1.43775          0.97357        -1.08228
14
 step=         239     theta[rad]=           2.5028
  C        -1.18282          1.50725        -0.18108
  C         0.05702          1.52235         0.29182
  C         1.18164          0.67148        -0.08931
  C         1.18111         -0.67053        -0.09045
  C         0.05827         -1.52892         0.28758
  C        -1.18712         -1.49134        -0.16758
  H         0.28864          2.23447         1.08062
  H         2.14626          1.15996        -0.19501
  H         2.14008         -1.16803        -0.20429
  H         0.28123         -2.21146         1.10451
  H        -1.95642         -2.12849         0.25497
  H        -1.45477         -0.94817        -1.06072
  H        -1.97978          2.03575         0.32977
  H        -1.47133          0.90532        -1.02765
14
 step=         240     theta[rad]=           2.5133
  C        -1.18282          1.50725        -0.18108
  C         0.05702          1.52235         0.29182
  C         1.18164          0.67148        -0.08931
  C         1.18111         -0.67053        -0.09045
  C         0.05827         -1.52892         0.28758
  C        -1.18712         -1.49134        -0.16758
  H         0.28864          2.23447         1.08062
  H         2.14626          1.15996        -0.19501
  H         2.14008         -1.16803        -0.20429
  H         0.28123         -2.21146         1.10451
  H        -1.95642         -2.12849         0.25497
  H        -1.45477         -0.94817        -1.06072
  H        -1.97978          2.03575         0.32977
  H        -1.47133          0.90532        -1.02765
14
 step=         241     theta[rad]=           2.5237
  C        -1.19204          1.48248        -0.15848
  C         0.05731          1.53418         0.28701
  C         1.18445          0.67087        -0.09282
  C         1.18581         -0.67332        -0.08985
  C         0.05405         -1.51713         0.29804
  C        -1.18089         -1.52382        -0.19355
  H         0.27680          2.20455         1.11558
  H         2.13823          1.17743        -0.21029
  H         2.15429         -1.15646        -0.18619
  H         0.29607         -2.26432         1.05349
  H        -2.01254         -1.94136         0.39679
  H        -1.48118         -0.86150        -0.99574
  H        -1.95186          2.18228         0.20245
  H        -1.43812          0.97283        -1.08168
14
 step=         242     theta[rad]=           2.5342
  C        -1.17710          1.52263        -0.19511
  C         0.05684          1.51501         0.29482
  C         1.17990          0.67186        -0.08713
  C         1.17820         -0.66880        -0.09081
  C         0.06090         -1.53624         0.28108
  C        -1.19099         -1.47116        -0.15145
  H         0.29598          2.25305         1.05891
  H         2.15125          1.14911        -0.18552
  H         2.13126         -1.17521        -0.21553
  H         0.27201         -2.17863         1.13620
  H        -1.92157         -2.24470         0.16690
  H        -1.43837         -1.00200        -1.10107
  H        -1.99711          1.94475         0.40883
  H        -1.49196          0.86340        -0.99409
14
 step=         243     theta[rad]=           2.5447
  C        -1.19238          1.48156        -0.15764
  C         0.05732          1.53462         0.28683
  C         1.18455          0.67084        -0.09295
  C         1.18599         -0.67342        -0.08983
  C         0.05389         -1.51669         0.29843
  C        -1.18066         -1.52503        -0.19452
  H         0.27636          2.20343         1.11689
  H         2.13793          1.17808        -0.21087
  H         2.15482         -1.15603        -0.18552
  H         0.29662         -2.26630         1.05159
  H        -2.01463         -1.93437         0.40208
  H        -1.48216         -0.85826        -0.99332
  H        -1.95082          2.18775         0.19770
  H        -1.43688          0.97535        -1.08370
14
 step=         244     theta[rad]=           2.5552
  C        -1.18201          1.50942        -0.18307
  C         0.05699          1.52131         0.29225
  C         1.18139          0.67153        -0.08900
  C         1.18070         -0.67029        -0.09050
  C         0.05865         -1.52995         0.28666
  C        -1.18767         -1.48848        -0.16529
  H         0.28967          2.23710         1.07755
  H         2.14697          1.15842        -0.19367
  H         2.13883         -1.16905        -0.20588
  H         0.27992         -2.20682         1.10900
  H        -1.95149         -2.14494         0.24251
  H        -1.45245         -0.95579        -1.06643
  H        -1.98223          2.02287         0.34096
  H        -1.47425          0.89939        -1.02290
14
 step=         245     theta[rad]=           2.5656
  C        -1.18409          1.50385        -0.17798
  C         0.05706          1.52398         0.29116
  C         1.18203          0.67139        -0.08979
  C         1.18176         -0.67091        -0.09037
  C         0.05769         -1.52730         0.28901
  C        -1.18626         -1.49579        -0.17114
  H         0.28701          2.23036         1.08542
  H         2.14516          1.16236        -0.19711
  H         2.14203         -1.16644        -0.20181
  H         0.28326         -2.21872         1.09751
  H        -1.96412         -2.10281         0.27444
  H        -1.45839         -0.93628        -1.05180
  H        -1.97594          2.05586         0.31229
  H        -1.46677          0.91459        -1.03506
14
 step=         246     theta[rad]=           2.5761
  C        -1.19087          1.48563        -0.16136
  C         0.05727          1.53268         0.28762
  C         1.18409          0.67094        -0.09237
  C         1.18521         -0.67297        -0.08993
  C         0.05459         -1.51863         0.29671
  C        -1.18168         -1.51969        -0.19025
  H         0.27831          2.20836         1.11113
  H         2.13925          1.17520        -0.20835
  H         2.15248         -1.15794        -0.18850
  H         0.29418         -2.25760         1.05999
  H        -2.00539         -1.96517         0.37874
  H        -1.47781         -0.87253        -1.00401
  H        -1.95541          2.16363         0.21866
  H        -1.44235          0.96423        -1.07481
14
 step=         247     theta[rad]=           2.5866
  C        -1.17745          1.52169        -0.19426
  C         0.05685          1.51546         0.29463
  C         1.18000          0.67183        -0.08726
  C         1.17838         -0.66890        -0.09079
  C         0.06074         -1.53579         0.28148
  C        -1.19075         -1.47239        -0.15243
  H         0.29553          2.25191         1.06023
  H         2.15095          1.14977        -0.18610
  H         2.13180         -1.17477        -0.21484
  H         0.27257         -2.18064         1.13426
  H        -1.92370         -2.23760         0.17228
  H        -1.43937         -0.99871        -1.09860
  H        -1.99605          1.95031         0.40400
  H        -1.49070          0.86596        -0.99614
14
 step=         248     theta[rad]=           2.5970
  C        -1.19341          1.47879        -0.15511
  C         0.05735          1.53595         0.28629
  C         1.18487          0.67077        -0.09334
  C         1.18651         -0.67374        -0.08977
  C         0.05342         -1.51537         0.29960
  C        -1.17996         -1.52866        -0.19742
  H         0.27504          2.20009         1.12079
  H         2.13703          1.18003        -0.21257
  H         2.15641         -1.15474        -0.18350
  H         0.29828         -2.27221         1.04589
  H        -2.02090         -1.91346         0.41793
  H        -1.48511         -0.84857        -0.98606
  H        -1.94770          2.20413         0.18347
  H        -1.43317          0.98289        -1.08974
14
 step=         249     theta[rad]=           2.6075
  C        -1.17952          1.51612        -0.18917
  C         0.05691          1.51812         0.29355
  C         1.18063          0.67170        -0.08805
  C         1.17943         -0.66953        -0.09066
  C         0.05979         -1.53314         0.28383
  C        -1.18935         -1.47970        -0.15828
  H         0.29287          2.24518         1.06810
  H         2.14914          1.15371        -0.18954
  H         2.13499         -1.17217        -0.21077
  H         0.27591         -2.19253         1.12278
  H        -1.93633         -2.19549         0.20420
  H        -1.44532         -0.97921        -1.08398
  H        -1.98977          1.98328         0.37535
  H        -1.48322          0.88115        -1.00830
14
 step=         250     theta[rad]=           2.6180
  C        -1.18753          1.49460        -0.16954
  C         0.05717          1.52839         0.28936
  C         1.18307          0.67116        -0.09110
  C         1.18351         -0.67196        -0.09014
  C         0.05612         -1.52290         0.29292
  C        -1.18394         -1.50793        -0.18084
  H         0.28259          2.21919         1.09847
  H         2.14216          1.16888        -0.20282
  H         2.14734         -1.16212        -0.19505
  H         0.28880         -2.23846         1.07846
  H        -1.98508         -2.03292         0.32740
  H        -1.46826         -0.90390        -1.02753
  H        -1.96552          2.11059         0.26475
  H        -1.45437          0.93980        -1.05524
14
 step=         251     theta[rad]=           2.6285
  C        -1.18745          1.49482        -0.16974
  C         0.05717          1.52829         0.28941
  C         1.18305          0.67117        -0.09107
  C         1.18347         -0.67193        -0.09015
  C         0.05615         -1.52300         0.29282
  C        -1.18400         -1.50763        -0.18061
  H         0.28270          2.21946         1.09816
  H         2.14223          1.16872        -0.20268
  H         2.14721         -1.16223        -0.19521
  H         0.28867         -2.23798         1.07892
  H        -1.98457         -2.03462         0.32611
  H        -1.46802         -0.90469        -1.02813
  H        -1.96577          2.10925         0.26591
  H        -1.45467          0.93918        -1.05475
14
 step=         252     theta[rad]=           2.6389
  C        -1.17971          1.51561        -0.18871
  C         0.05692          1.51836         0.29345
  C         1.18069          0.67168        -0.08812
  C         1.17953         -0.66959        -0.09065
  C         0.05970         -1.53290         0.28405
  C        -1.18922         -1.48036        -0.15880
  H         0.29263          2.24457         1.06881
  H         2.14898          1.15406        -0.18985
  H         2.13528         -1.17194        -0.21040
  H         0.27621         -2.19361         1.12174
  H        -1.93747         -2.19169         0.20707
  H        -1.44585         -0.97745        -1.08266
  H        -1.98920          1.98626         0.37277
  H        -1.48255          0.88252        -1.00939
14
 step=         253     theta[rad]=           2.6494
  C        -1.19324          1.47925        -0.15553
  C         0.05735          1.53572         0.28638
  C         1.18481          0.67079        -0.09327
  C         1.18642         -0.67368        -0.08978
  C         0.05350         -1.51559         0.29940
  C        -1.18008         -1.52806        -0.19694
  H         0.27526          2.20065         1.12014
  H         2.13718          1.17971        -0.21229
  H         2.15614         -1.15496        -0.18383
  H         0.29800         -2.27122         1.04684
  H        -2.01985         -1.91696         0.41528
  H        -1.48462         -0.85019        -0.98727
  H        -1.94822          2.20139         0.18586
  H        -1.43379          0.98163        -1.08873
14
 step=         254     theta[rad]=           2.6599
  C        -1.17720          1.52237        -0.19487
  C         0.05684          1.51513         0.29476
  C         1.17993          0.67185        -0.08716
  C         1.17825         -0.66883        -0.09081
  C         0.06085         -1.53611         0.28119
  C        -1.19092         -1.47151        -0.15172
  H         0.29586          2.25273         1.05928
  H         2.15116          1.14930        -0.18568
  H         2.13141         -1.17509        -0.21534
  H         0.27217         -2.17919         1.13565
  H        -1.92217         -2.24272         0.16841
  H        -1.43865         -1.00108        -1.10038
  H        -1.99682          1.94630         0.40748
  H        -1.49160          0.86412        -0.99466
14
 step=         255     theta[rad]=           2.6704
  C        -1.19209          1.48234        -0.15836
  C         0.05731          1.53425         0.28698
  C         1.18446          0.67086        -0.09284
  C         1.18584         -0.67334        -0.08985
  C         0.05402         -1.51706         0.29810
  C        -1.18086         -1.52400        -0.19370
  H         0.27674          2.20438         1.11578
  H         2.13819          1.17753        -0.21038
  H         2.15437         -1.15640        -0.18609
  H         0.29615         -2.26462         1.05321
  H        -2.01285         -1.94031         0.39758
  H        -1.48132         -0.86101        -0.99538
  H        -1.95170          2.18310         0.20174
  H        -1.43794          0.97320        -1.08199
14
 step=         256     theta[rad]=           2.6808
  C        -1.18154          1.51068        -0.18422
  C         0.05698          1.52071         0.29249
  C         1.18125          0.67156        -0.08882
  C         1.18046         -0.67014        -0.09053
  C         0.05886         -1.53055         0.28613
  C        -1.18798         -1.48683        -0.16397
  H         0.29028          2.23862         1.07577
  H         2.14738          1.15754        -0.19289
  H         2.13811         -1.16963        -0.20680
  H         0.27917         -2.20413         1.11159
  H        -1.94863         -2.15446         0.23530
  H        -1.45111         -0.96020        -1.06973
  H        -1.98365          2.01542         0.34743
  H        -1.47594          0.89595        -1.02015
14
 step=         257     theta[rad]=           2.6913
  C        -1.18565          1.49966        -0.17416
  C         0.05711          1.52598         0.29035
  C         1.18250          0.67129        -0.09038
  C         1.18255         -0.67138        -0.09027
  C         0.05698         -1.52531         0.29078
  C        -1.18521         -1.50128        -0.17553
  H         0.28501          2.22531         1.09132
  H         2.14380          1.16531        -0.19969
  H         2.14443         -1.16449        -0.19875
  H         0.28577         -2.22765         1.08889
  H        -1.97360         -2.07119         0.29840
  H        -1.46285         -0.92163        -1.04082
  H        -1.97123          2.08062         0.29079
  H        -1.46116          0.92599        -1.04419
14
 step=         258     theta[rad]=           2.7018
  C        -1.18868          1.49152        -0.16673
  C         0.05720          1.52987         0.28877
  C         1.18342          0.67109        -0.09153
  C         1.18410         -0.67230        -0.09007
  C         0.05559         -1.52143         0.29422
  C        -1.18316         -1.51197        -0.18407
  H         0.28112          2.21547         1.10282
  H         2.14116          1.17105        -0.20472
  H         2.14910         -1.16068        -0.19280
  H         0.29065         -2.24504         1.07211
  H        -1.99206         -2.00963         0.34505
  H        -1.47154         -0.89312        -1.01945
  H        -1.96205          2.12882         0.24891
  H        -1.45024          0.94820        -1.06197
14
 step=         259     theta[rad]=           2.7122
  C        -1.17923          1.51692        -0.18990
  C         0.05690          1.51773         0.29370
  C         1.18054          0.67172        -0.08793
  C         1.17928         -0.66944        -0.09068
  C         0.05992         -1.53352         0.28349
  C        -1.18955         -1.47865        -0.15743
  H         0.29325          2.24615         1.06697
  H         2.14940          1.15314        -0.18904
  H         2.13453         -1.17255        -0.21136
  H         0.27543         -2.19082         1.12443
  H        -1.93451         -2.20156         0.19960
  H        -1.44446         -0.98202        -1.08608
  H        -1.99068          1.97853         0.37948
  H        -1.48430          0.87896        -1.00655
14
 step=         260     theta[rad]=           2.7227
  C        -1.19327          1.47918        -0.15547
  C         0.05735          1.53576         0.28637
  C         1.18482          0.67078        -0.09328
  C         1.18644         -0.67369        -0.08978
  C         0.05348         -1.51555         0.29943
  C        -1.18006         -1.52815        -0.19701
  H         0.27523          2.20056         1.12024
  H         2.13716          1.17976        -0.21233
  H         2.15618         -1.15492        -0.18378
  H         0.29804         -2.27137         1.04669
  H        -2.02002         -1.91641         0.41570
  H        -1.48470         -0.84994        -0.98708
  H        -1.94814          2.20182         0.18548
  H        -1.43369          0.98183        -1.08889
14
 step=         261     theta[rad]=           2.7332
  C        -1.17713          1.52254        -0.19503
  C         0.05684          1.51505         0.29480
  C         1.17991          0.67185        -0.08714
  C         1.17821         -0.66881        -0.09081
  C         0.06088         -1.53620         0.28112
  C        -1.19096         -1.47128        -0.15154
  H         0.29594          2.25294         1.05903
  H         2.15122          1.14917        -0.18557
  H         2.13131         -1.17517        -0.21547
  H         0.27206         -2.17882         1.13602
  H        -1.92177         -2.24404         0.16741
  H        -1.43846         -1.00170        -1.10084
  H        -1.99701          1.94527         0.40838
  H        -1.49184          0.86364        -0.99428
14
 step=         262     theta[rad]=           2.7437
  C        -1.19269          1.48073        -0.15689
  C         0.05733          1.53502         0.28667
  C         1.18465          0.67082        -0.09306
  C         1.18614         -0.67352        -0.08981
  C         0.05375         -1.51629         0.29878
  C        -1.18045         -1.52611        -0.19538
  H         0.27597          2.20244         1.11805
  H         2.13766          1.17866        -0.21137
  H         2.15529         -1.15565        -0.18492
  H         0.29711         -2.26806         1.04989
  H        -2.01650         -1.92815         0.40680
  H        -1.48304         -0.85538        -0.99116
  H        -1.94989          2.19263         0.19347
  H        -1.43578          0.97759        -1.08550
14
 step=         263     theta[rad]=           2.7541
  C        -1.18010          1.51456        -0.18776
  C         0.05693          1.51886         0.29325
  C         1.18081          0.67166        -0.08827
  C         1.17973         -0.66971        -0.09062
  C         0.05952         -1.53240         0.28449
  C        -1.18896         -1.48174        -0.15990
  H         0.29213          2.24331         1.07029
  H         2.14863          1.15480        -0.19049
  H         2.13588         -1.17145        -0.20964
  H         0.27684         -2.19585         1.11958
  H        -1.93984         -2.18376         0.21309
  H        -1.44697         -0.97378        -1.07991
  H        -1.98802          1.99247         0.36737
  H        -1.48114          0.88538        -1.01168
14
 step=         264     theta[rad]=           2.7646
  C        -1.18795          1.49348        -0.16852
  C         0.05718          1.52893         0.28915
  C         1.18320          0.67114        -0.09126
  C         1.18373         -0.67208        -0.09012
  C         0.05593         -1.52236         0.29339
  C        -1.18366         -1.50939        -0.18202
  H         0.28206          2.21784         1.10005
  H         2.14180          1.16967        -0.20351
  H         2.14798         -1.16160        -0.19423
  H         0.28947         -2.24085         1.07615
  H        -1.98761         -2.02447         0.33380
  H        -1.46945         -0.89999        -1.02460
  H        -1.96426          2.11720         0.25900
  H        -1.45287          0.94284        -1.05768
14
 step=         265     theta[rad]=           2.7751
  C        -1.18582          1.49920        -0.17374
  C         0.05711          1.52620         0.29026
  C         1.18255          0.67128        -0.09045
  C         1.18264         -0.67144        -0.09025
  C         0.05690         -1.52508         0.29098
  C        -1.18509         -1.50189        -0.17602
  H         0.28479          2.22474         1.09198
  H         2.14365          1.16564        -0.19998
  H         2.14470         -1.16427        -0.19841
  H         0.28605         -2.22864         1.08793
  H        -1.97466         -2.06767         0.30106
  H        -1.46335         -0.92000        -1.03960
  H        -1.97070          2.08337         0.28839
  H        -1.46054          0.92726        -1.04521
14
 step=         266     theta[rad]=           2.7855
  C        -1.18209          1.50921        -0.18287
  C         0.05700          1.52142         0.29221
  C         1.18142          0.67153        -0.08903
  C         1.18074         -0.67031        -0.09049
  C         0.05861         -1.52985         0.28675
  C        -1.18761         -1.48876        -0.16552
  H         0.28957          2.23684         1.07785
  H         2.14690          1.15858        -0.19380
  H         2.13895         -1.16895        -0.20573
  H         0.28005         -2.20727         1.10856
  H        -1.95197         -2.14332         0.24373
  H        -1.45268         -0.95504        -1.06587
  H        -1.98199          2.02413         0.33986
  H        -1.47396          0.89997        -1.02336
14
 step=         267     theta[rad]=           2.7960
  C        -1.19106          1.48512        -0.16089
  C         0.05728          1.53292         0.28752
  C         1.18415          0.67093        -0.09244
  C         1.18531         -0.67302        -0.08992
  C         0.05450         -1.51838         0.29692
  C        -1.18155         -1.52036        -0.19079
  H         0.27806          2.20773         1.11186
  H         2.13908          1.17557        -0.20867
  H         2.15278         -1.15769        -0.18812
  H         0.29449         -2.25870         1.05892
  H        -2.00657         -1.96126         0.38170
  H        -1.47837         -0.87072        -1.00266
  H        -1.95483          2.16670         0.21600
  H        -1.44165          0.96564        -1.07594
14
 step=         268     theta[rad]=           2.8065
  C        -1.17804          1.52010        -0.19281
  C         0.05687          1.51621         0.29432
  C         1.18018          0.67179        -0.08748
  C         1.17868         -0.66908        -0.09075
  C         0.06047         -1.53504         0.28215
  C        -1.19035         -1.47447        -0.15409
  H         0.29478          2.25000         1.06247
  H         2.15043          1.15089        -0.18707
  H         2.13270         -1.17403        -0.21369
  H         0.27352         -2.18402         1.13100
  H        -1.92729         -2.22563         0.18135
  H        -1.44106         -0.99317        -1.09444
  H        -1.99427          1.95968         0.39586
  H        -1.48857          0.87028        -0.99959
14
 step=         269     theta[rad]=           2.8170
  C        -1.19357          1.47836        -0.15472
  C         0.05736          1.53615         0.28621
  C         1.18492          0.67076        -0.09340
  C         1.18659         -0.67378        -0.08976
  C         0.05335         -1.51517         0.29978
  C        -1.17986         -1.52922        -0.19787
  H         0.27484          2.19958         1.12140
  H         2.13690          1.18033        -0.21284
  H         2.15665         -1.15454        -0.18318
  H         0.29853         -2.27311         1.04501
  H        -2.02187         -1.91024         0.42037
  H        -1.48557         -0.84708        -0.98494
  H        -1.94722          2.20665         0.18128
  H        -1.43260          0.98405        -1.09067
14
 step=         270     theta[rad]=           2.8274
  C        -1.17720          1.52237        -0.19487
  C         0.05684          1.51513         0.29476
  C         1.17993          0.67185        -0.08716
  C         1.17825         -0.66883        -0.09081
  C         0.06085         -1.53611         0.28119
  C        -1.19092         -1.47151        -0.15172
  H         0.29586          2.25273         1.05928
  H         2.15116          1.14930        -0.18568
  H         2.13141         -1.17509        -0.21534
  H         0.27217         -2.17919         1.13565
  H        -1.92217         -2.24272         0.16841
  H        -1.43865         -1.00108        -1.10038
  H        -1.99682          1.94630         0.40748
  H        -1.49160          0.86412        -0.99466
14
 step=         271     theta[rad]=           2.8379
  C        -1.19281          1.48041        -0.15659
  C         0.05734          1.53517         0.28661
  C         1.18468          0.67081        -0.09311
  C         1.18620         -0.67355        -0.08981
  C         0.05370         -1.51614         0.29891
  C        -1.18037         -1.52653        -0.19572
  H         0.27582          2.20205         1.11850
  H         2.13756          1.17889        -0.21157
  H         2.15547         -1.15550        -0.18468
  H         0.29730         -2.26874         1.04923
  H        -2.01722         -1.92572         0.40864
  H        -1.48338         -0.85425        -0.99032
  H        -1.94953          2.19453         0.19182
  H        -1.43535          0.97847        -1.08620
14
 step=         272     theta[rad]=           2.8484
  C        -1.17934          1.51660        -0.18962
  C         0.05691          1.51789         0.29364
  C         1.18058          0.67171        -0.08798
  C         1.17934         -0.66948        -0.09067
  C         0.05987         -1.53337         0.28363
  C        -1.18947         -1.47907        -0.15777
  H         0.29310          2.24577         1.06741
  H         2.14930          1.15336        -0.18924
  H         2.13471         -1.17240        -0.21113
  H         0.27562         -2.19149         1.12378
  H        -1.93522         -2.19917         0.20141
  H        -1.44480         -0.98091        -1.08526
  H        -1.99032          1.98040         0.37785
  H        -1.48388          0.87982        -1.00723
14
 step=         273     theta[rad]=           2.8588
  C        -1.18960          1.48902        -0.16445
  C         0.05723          1.53106         0.28828
  C         1.18371          0.67103        -0.09189
  C         1.18457         -0.67258        -0.09001
  C         0.05516         -1.52024         0.29527
  C        -1.18254         -1.51524        -0.18669
  H         0.27993          2.21246         1.10634
  H         2.14035          1.17281        -0.20626
  H         2.15053         -1.15952        -0.19098
  H         0.29214         -2.25036         1.06697
  H        -1.99771         -1.99080         0.35932
  H        -1.47420         -0.88440        -1.01291
  H        -1.95924          2.14356         0.23609
  H        -1.44690          0.95499        -1.06741
14
 step=         274     theta[rad]=           2.8693
  C        -1.18324          1.50613        -0.18006
  C         0.05703          1.52289         0.29161
  C         1.18177          0.67145        -0.08946
  C         1.18133         -0.67066        -0.09042
  C         0.05808         -1.52838         0.28805
  C        -1.18684         -1.49280        -0.16875
  H         0.28810          2.23312         1.08220
  H         2.14590          1.16075        -0.19570
  H         2.14072         -1.16751        -0.20347
  H         0.28190         -2.21385         1.10221
  H        -1.95895         -2.12004         0.26138
  H        -1.45596         -0.94426        -1.05778
  H        -1.97852          2.04237         0.32402
  H        -1.46983          0.90837        -1.03009
14
 step=         275     theta[rad]=           2.8798
  C        -1.18538          1.50036        -0.17480
  C         0.05710          1.52564         0.29049
  C         1.18242          0.67131        -0.09028
  C         1.18242         -0.67131        -0.09028
  C         0.05710         -1.52564         0.29048
  C        -1.18539         -1.50036        -0.17480
  H         0.28535          2.22615         1.09034
  H         2.14403          1.16481        -0.19926
  H         2.14403         -1.16481        -0.19926
  H         0.28535         -2.22615         1.09033
  H        -1.97202         -2.07648         0.29439
  H        -1.46211         -0.92408        -1.04266
  H        -1.97202          2.07648         0.29438
  H        -1.46210          0.92408        -1.04266
14
 step=         276     theta[rad]=           2.8903
  C        -1.18745          1.49482        -0.16974
  C         0.05717          1.52829         0.28941
  C         1.18305          0.67117        -0.09107
  C         1.18347         -0.67193        -0.09015
  C         0.05615         -1.52300         0.29282
  C        -1.18400         -1.50763        -0.18061
  H         0.28270          2.21946         1.09816
  H         2.14223          1.16872        -0.20268
  H         2.14721         -1.16223        -0.19521
  H         0.28867         -2.23798         1.07892
  H        -1.98457         -2.03462         0.32611
  H        -1.46802         -0.90469        -1.02813
  H        -1.96577          2.10925         0.26591
  H        -1.45467          0.93918        -1.05475
14
 step=         277     theta[rad]=           2.9007
  C        -1.18147          1.51089        -0.18440
  C         0.05698          1.52061         0.29253
  C         1.18123          0.67157        -0.08879
  C         1.18042         -0.67012        -0.09053
  C         0.05890         -1.53065         0.28604
  C        -1.18803         -1.48656        -0.16376
  H         0.29038          2.23887         1.07548
  H         2.14744          1.15739        -0.19276
  H         2.13799         -1.16973        -0.20695
  H         0.27904         -2.20369         1.11202
  H        -1.94817         -2.15601         0.23412
  H        -1.45089         -0.96092        -1.07027
  H        -1.98388          2.01420         0.34849
  H        -1.47622          0.89539        -1.01970
14
 step=         278     theta[rad]=           2.9112
  C        -1.19087          1.48563        -0.16136
  C         0.05727          1.53268         0.28762
  C         1.18409          0.67094        -0.09237
  C         1.18521         -0.67297        -0.08993
  C         0.05459         -1.51863         0.29671
  C        -1.18168         -1.51969        -0.19025
  H         0.27831          2.20836         1.11113
  H         2.13925          1.17520        -0.20835
  H         2.15248         -1.15794        -0.18850
  H         0.29418         -2.25760         1.05999
  H        -2.00539         -1.96517         0.37874
  H        -1.47781         -0.87253        -1.00401
  H        -1.95541          2.16363         0.21866
  H        -1.44235          0.96423        -1.07481
14
 step=         279     theta[rad]=           2.9217
  C        -1.17868          1.51839        -0.19124
  C         0.05689          1.51703         0.29399
  C         1.18038          0.67175        -0.08773
  C         1.17900         -0.66928        -0.09071
  C         0.06018         -1.53422         0.28287
  C        -1.18992         -1.47673        -0.15590
  H         0.29396          2.24792         1.06490
  H         2.14987          1.15210        -0.18814
  H         2.13369         -1.17323        -0.21243
  H         0.27455         -2.18769         1.12746
  H        -1.93118         -2.21264         0.19120
  H        -1.44290         -0.98715        -1.08993
  H        -1.99233          1.96985         0.38702
  H        -1.48627          0.87496        -1.00334
14
 step=         280     theta[rad]=           2.9322
  C        -1.19296          1.48001        -0.15623
  C         0.05734          1.53536         0.28653
  C         1.18473          0.67081        -0.09316
  C         1.18628         -0.67360        -0.08980
  C         0.05363         -1.51595         0.29908
  C        -1.18027         -1.52706        -0.19614
  H         0.27563          2.20157         1.11906
  H         2.13743          1.17917        -0.21182
  H         2.15570         -1.15531        -0.18439
  H         0.29754         -2.26959         1.04841
  H        -2.01812         -1.92272         0.41091
  H        -1.48381         -0.85286        -0.98927
  H        -1.94908          2.19688         0.18977
  H        -1.43481          0.97955        -1.08707
14
 step=         281     theta[rad]=           2.9426
  C        -1.17730          1.52210        -0.19464
  C         0.05684          1.51526         0.29471
  C         1.17996          0.67184        -0.08720
  C         1.17830         -0.66886        -0.09080
  C         0.06081         -1.53599         0.28130
  C        -1.19085         -1.47185        -0.15200
  H         0.29573          2.25241         1.05965
  H         2.15108          1.14948        -0.18584
  H         2.13156         -1.17497        -0.21515
  H         0.27232         -2.17975         1.13511
  H        -1.92276         -2.24073         0.16991
  H        -1.43893         -1.00016        -1.09969
  H        -1.99652          1.94786         0.40613
  H        -1.49125          0.86483        -0.99523
14
 step=         282     theta[rad]=           2.9531
  C        -1.19367          1.47810        -0.15448
  C         0.05736          1.53627         0.28616
  C         1.18495          0.67076        -0.09344
  C         1.18664         -0.67381        -0.08975
  C         0.05330         -1.51504         0.29989
  C        -1.17979         -1.52957        -0.19815
  H         0.27471          2.19926         1.12177
  H         2.13681          1.18052        -0.21300
  H         2.15680         -1.15442        -0.18299
  H         0.29869         -2.27368         1.04447
  H        -2.02246         -1.90825         0.42188
  H        -1.48585         -0.84616        -0.98425
  H        -1.94692          2.20821         0.17993
  H        -1.43225          0.98477        -1.09124
14
 step=         283     theta[rad]=           2.9636
  C        -1.17719          1.52240        -0.19491
  C         0.05684          1.51512         0.29477
  C         1.17992          0.67185        -0.08716
  C         1.17824         -0.66882        -0.09081
  C         0.06086         -1.53613         0.28118
  C        -1.19093         -1.47146        -0.15168
  H         0.29587          2.25277         1.05923
  H         2.15118          1.14927        -0.18566
  H         2.13139         -1.17511        -0.21536
  H         0.27215         -2.17912         1.13573
  H        -1.92209         -2.24298         0.16821
  H        -1.43861         -1.00120        -1.10047
  H        -1.99686          1.94610         0.40766
  H        -1.49165          0.86402        -0.99458
14
 step=         284     theta[rad]=           2.9740
  C        -1.19327          1.47918        -0.15547
  C         0.05735          1.53576         0.28637
  C         1.18482          0.67078        -0.09328
  C         1.18644         -0.67369        -0.08978
  C         0.05348         -1.51555         0.29943
  C        -1.18006         -1.52815        -0.19701
  H         0.27523          2.20056         1.12024
  H         2.13716          1.17976        -0.21233
  H         2.15618         -1.15492        -0.18378
  H         0.29804         -2.27137         1.04669
  H        -2.02002         -1.91641         0.41570
  H        -1.48470         -0.84994        -0.98708
  H        -1.94814          2.20182         0.18548
  H        -1.43369          0.98183        -1.08889
14
 step=         285     theta[rad]=           2.9845
  C        -1.17800          1.52021        -0.19291
  C         0.05687          1.51616         0.29435
  C         1.18017          0.67180        -0.08747
  C         1.17866         -0.66907        -0.09076
  C         0.06049         -1.53509         0.28210
  C        -1.19038         -1.47433        -0.15398
  H         0.29483          2.25013         1.06232
  H         2.15047          1.15082        -0.18701
  H         2.13264         -1.17408        -0.21376
  H         0.27346         -2.18379         1.13122
  H        -1.92705         -2.22644         0.18074
  H        -1.44095         -0.99354        -1.09473
  H        -1.99439          1.95905         0.39641
  H        -1.48872          0.86999        -0.99936
14
 step=         286     theta[rad]=           2.9950
  C        -1.19214          1.48221        -0.15823
  C         0.05731          1.53431         0.28696
  C         1.18448          0.67086        -0.09285
  C         1.18586         -0.67335        -0.08985
  C         0.05400         -1.51700         0.29815
  C        -1.18082         -1.52418        -0.19384
  H         0.27667          2.20422         1.11597
  H         2.13814          1.17762        -0.21046
  H         2.15444         -1.15634        -0.18599
  H         0.29623         -2.26491         1.05293
  H        -2.01316         -1.93928         0.39836
  H        -1.48147         -0.86054        -0.99502
  H        -1.95155          2.18391         0.20104
  H        -1.43775          0.97357        -1.08228
14
 step=         287     theta[rad]=           3.0055
  C        -1.17934          1.51660        -0.18962
  C         0.05691          1.51789         0.29364
  C         1.18058          0.67171        -0.08798
  C         1.17934         -0.66948        -0.09067
  C         0.05987         -1.53337         0.28363
  C        -1.18947         -1.47907        -0.15777
  H         0.29310          2.24577         1.06741
  H         2.14930          1.15336        -0.18924
  H         2.13471         -1.17240        -0.21113
  H         0.27562         -2.19149         1.12378
  H        -1.93522         -2.19917         0.20141
  H        -1.44480         -0.98091        -1.08526
  H        -1.99032          1.98040         0.37785
  H        -1.48388          0.87982        -1.00723
14
 step=         288     theta[rad]=           3.0159
  C        -1.19067          1.48617        -0.16184
  C         0.05727          1.53242         0.28772
  C         1.18403          0.67096        -0.09229
  C         1.18511         -0.67291        -0.08994
  C         0.05468         -1.51888         0.29648
  C        -1.18182         -1.51899        -0.18969
  H         0.27856          2.20900         1.11038
  H         2.13943          1.17483        -0.20802
  H         2.15217         -1.15818        -0.18889
  H         0.29386         -2.25646         1.06108
  H        -2.00419         -1.96919         0.37569
  H        -1.47725         -0.87439        -1.00541
  H        -1.95601          2.16048         0.22139
  H        -1.44306          0.96278        -1.07365
14
 step=         289     theta[rad]=           3.0264
  C        -1.18087          1.51250        -0.18587
  C         0.05696          1.51985         0.29285
  C         1.18105          0.67161        -0.08856
  C         1.18012         -0.66994        -0.09057
  C         0.05917         -1.53142         0.28536
  C        -1.18844         -1.48445        -0.16207
  H         0.29114          2.24081         1.07321
  H         2.14796          1.15626        -0.19177
  H         2.13707         -1.17048        -0.20813
  H         0.27808         -2.20026         1.11532
  H        -1.94453         -2.16815         0.22492
  H        -1.44917         -0.96654        -1.07448
  H        -1.98569          2.00470         0.35675
  H        -1.47837          0.89102        -1.01619
14
 step=         290     theta[rad]=           3.0369
  C        -1.18915          1.49025        -0.16557
  C         0.05722          1.53047         0.28852
  C         1.18357          0.67106        -0.09171
  C         1.18434         -0.67245        -0.09004
  C         0.05537         -1.52083         0.29476
  C        -1.18285         -1.51363        -0.18540
  H         0.28052          2.21394         1.10461
  H         2.14075          1.17195        -0.20550
  H         2.14983         -1.16009        -0.19187
  H         0.29141         -2.24774         1.06950
  H        -1.99493         -2.00007         0.35230
  H        -1.47289         -0.88869        -1.01613
  H        -1.96062          2.13631         0.24240
  H        -1.44854          0.95165        -1.06473
14
 step=         291     theta[rad]=           3.0473
  C        -1.18233          1.50856        -0.18228
  C         0.05700          1.52172         0.29208
  C         1.18149          0.67151        -0.08912
  C         1.18086         -0.67038        -0.09048
  C         0.05850         -1.52954         0.28702
  C        -1.18745         -1.48961        -0.16620
  H         0.28926          2.23606         1.07876
  H         2.14669          1.15903        -0.19420
  H         2.13933         -1.16864        -0.20525
  H         0.28044         -2.20865         1.10722
  H        -1.95344         -2.13844         0.24743
  H        -1.45337         -0.95278        -1.06417
  H        -1.98126          2.02796         0.33653
  H        -1.47310          0.90173        -1.02477
14
 step=         292     theta[rad]=           3.0578
  C        -1.18778          1.49393        -0.16892
  C         0.05718          1.52872         0.28923
  C         1.18315          0.67115        -0.09119
  C         1.18364         -0.67203        -0.09013
  C         0.05600         -1.52257         0.29320
  C        -1.18377         -1.50881        -0.18155
  H         0.28227          2.21838         1.09942
  H         2.14194          1.16936        -0.20323
  H         2.14772         -1.16181        -0.19456
  H         0.28921         -2.23990         1.07707
  H        -1.98660         -2.02783         0.33126
  H        -1.46897         -0.90155        -1.02577
  H        -1.96476          2.11457         0.26129
  H        -1.45347          0.94163        -1.05671
14
 step=         293     theta[rad]=           3.0683
  C        -1.18358          1.50522        -0.17923
  C         0.05704          1.52332         0.29143
  C         1.18187          0.67143        -0.08959
  C         1.18150         -0.67076        -0.09040
  C         0.05793         -1.52795         0.28843
  C        -1.18661         -1.49399        -0.16970
  H         0.28767          2.23202         1.08348
  H         2.14561          1.16139        -0.19626
  H         2.14124         -1.16708        -0.20281
  H         0.28244         -2.21578         1.10034
  H        -1.96101         -2.11319         0.26656
  H        -1.45693         -0.94109        -1.05541
  H        -1.97749          2.04773         0.31936
  H        -1.46862          0.91084        -1.03206
14
 step=         294     theta[rad]=           3.0788
  C        -1.18668          1.49688        -0.17162
  C         0.05714          1.52731         0.28981
  C         1.18282          0.67122        -0.09077
  C         1.18308         -0.67170        -0.09020
  C         0.05651         -1.52398         0.29196
  C        -1.18451         -1.50493        -0.17845
  H         0.28368          2.22194         1.09526
  H         2.14290          1.16727        -0.20141
  H         2.14603         -1.16319        -0.19671
  H         0.28744         -2.23359         1.08315
  H        -1.97991         -2.05015         0.31434
  H        -1.46582         -0.91189        -1.03352
  H        -1.96809          2.09709         0.27647
  H        -1.45743          0.93358        -1.05027
14
 step=         295     theta[rad]=           3.0892
  C        -1.18452          1.50269        -0.17692
  C         0.05707          1.52453         0.29094
  C         1.18216          0.67136        -0.08995
  C         1.18198         -0.67104        -0.09034
  C         0.05750         -1.52675         0.28950
  C        -1.18597         -1.49731        -0.17235
  H         0.28646          2.22897         1.08705
  H         2.14479          1.16317        -0.19782
  H         2.14269         -1.16590        -0.20096
  H         0.28395         -2.22118         1.09513
  H        -1.96674         -2.09407         0.28106
  H        -1.45963         -0.93223        -1.04877
  H        -1.97464          2.06270         0.30635
  H        -1.46522          0.91774        -1.03758
14
 step=         296     theta[rad]=           3.0997
  C        -1.18591          1.49897        -0.17352
  C         0.05712          1.52631         0.29021
  C         1.18258          0.67127        -0.09048
  C         1.18269         -0.67146        -0.09025
  C         0.05686         -1.52497         0.29108
  C        -1.18504         -1.50220        -0.17626
  H         0.28468          2.22446         1.09231
  H         2.14358          1.16580        -0.20012
  H         2.14483         -1.16416        -0.19824
  H         0.28619         -2.22914         1.08745
  H        -1.97519         -2.06591         0.30240
  H        -1.46360         -0.91919        -1.03899
  H        -1.97044          2.08475         0.28719
  H        -1.46023          0.92790        -1.04572
14
 step=         297     theta[rad]=           3.1102
  C        -1.18512          1.50106        -0.17544
  C         0.05709          1.52531         0.29062
  C         1.18234          0.67132        -0.09018
  C         1.18229         -0.67123        -0.09030
  C         0.05722         -1.52597         0.29019
  C        -1.18556         -1.49945        -0.17406
  H         0.28568          2.22700         1.08935
  H         2.14426          1.16432        -0.19883
  H         2.14363         -1.16514        -0.19977
  H         0.28493         -2.22466         1.09177
  H        -1.97043         -2.08176         0.29038
  H        -1.46136         -0.92653        -1.04449
  H        -1.97281          2.07234         0.29798
  H        -1.46304          0.92218        -1.04114
14
 step=         298     theta[rad]=           3.1206
  C        -1.18547          1.50013        -0.17459
  C         0.05710          1.52575         0.29044
  C         1.18245          0.67130        -0.09031
  C         1.18246         -0.67133        -0.09028
  C         0.05706         -1.52553         0.29058
  C        -1.18533         -1.50067        -0.17504
  H         0.28524          2.22587         1.09067
  H         2.14395          1.16498        -0.19940
  H         2.14416         -1.16471        -0.19909
  H         0.28549         -2.22665         1.08985
  H        -1.97254         -2.07472         0.29572
  H        -1.46236         -0.92327        -1.04205
  H        -1.97175          2.07786         0.29318
  H        -1.46179          0.92472        -1.04317
14
 step=         299     theta[rad]=           3.1311
  C        -1.18538          1.50036        -0.17480
  C         0.05710          1.52564         0.29049
  C         1.18242          0.67131        -0.09028
  C         1.18242         -0.67131        -0.09028
  C         0.05710         -1.52564         0.29048
  C        -1.18539         -1.50036        -0.17480
  H         0.28535          2.22615         1.09034
  H         2.14403          1.16481        -0.19926
  H         2.14403         -1.16482        -0.19926
  H         0.28535         -2.22615         1.09033
  H        -1.97202         -2.07648         0.29439
  H        -1.46211         -0.92408        -1.04266
  H        -1.97202          2.07648         0.29438
  H        -1.46210          0.92408        -1.04266
14
 step=         300     theta[rad]=           3.1416
  C        -1.18539          1.50036        -0.17480
  C         0.05710          1.52564         0.29049
  C         1.18242          0.67131        -0.09028
  C         1.18242         -0.67131        -0.09028
  C         0.05710         -1.52564         0.29049
  C        -1.18539         -1.50036        -0.17480
  H         0.28535          2.22615         1.09034
  H         2.14403          1.16482        -0.19926
  H         2.14403         -1.16481        -0.19926
  H         0.28535         -2.22615         1.09033
  H        -1.97202         -2.07648         0.29439
  H        -1.46211         -0.92408        -1.04266
  H        -1.97202          2.07648         0.29438
  H        -1.46210          0.92408        -1.04267
14
 step=         301     theta[rad]=           3.1521
  C        -1.18530          1.50060        -0.17501
  C         0.05710          1.52553         0.29053
  C         1.18239          0.67131        -0.09025
  C         1.18238         -0.67128        -0.09029
  C         0.05714         -1.52575         0.29039
  C        -1.18545         -1.50006        -0.17455
  H         0.28546          2.22643         1.09001
  H         2.14411          1.16465        -0.19911
  H         2.14390         -1.16492        -0.19943
  H         0.28521         -2.22566         1.09081
  H        -1.97149         -2.07824         0.29305
  H        -1.46186         -0.92490        -1.04327
  H        -1.97228          2.07510         0.29558
  H        -1.46241          0.92345        -1.04216
14
 step=         302     theta[rad]=           3.1625
  C        -1.18565          1.49966        -0.17416
  C         0.05711          1.52598         0.29035
  C         1.18250          0.67129        -0.09038
  C         1.18255         -0.67138        -0.09027
  C         0.05698         -1.52531         0.29078
  C        -1.18521         -1.50128        -0.17553
  H         0.28501          2.22531         1.09132
  H         2.14380          1.16531        -0.19969
  H         2.14443         -1.16449        -0.19875
  H         0.28577         -2.22765         1.08889
  H        -1.97360         -2.07119         0.29840
  H        -1.46285         -0.92163        -1.04082
  H        -1.97123          2.08062         0.29079
  H        -1.46116          0.92599        -1.04419
14
 step=         303     theta[rad]=           3.1730
  C        -1.18486          1.50176        -0.17608
  C         0.05708          1.52497         0.29076
  C         1.18226          0.67134        -0.09008
  C         1.18215         -0.67115        -0.09032
  C         0.05734         -1.52631         0.28989
  C        -1.18574         -1.49853        -0.17333
  H         0.28602          2.22784         1.08836
  H         2.14448          1.16383        -0.19839
  H         2.14323         -1.16547        -0.20028
  H         0.28451         -2.22317         1.09321
  H        -1.96885         -2.08705         0.28638
  H        -1.46062         -0.92898        -1.04633
  H        -1.97359          2.06820         0.30157
  H        -1.46398          0.92027        -1.03961
14
 step=         304     theta[rad]=           3.1835
  C        -1.18625          1.49804        -0.17267
  C         0.05713          1.52675         0.29003
  C         1.18269          0.67125        -0.09061
  C         1.18286         -0.67157        -0.09023
  C         0.05670         -1.52453         0.29147
  C        -1.18480         -1.50342        -0.17724
  H         0.28423          2.22334         1.09362
  H         2.14327          1.16646        -0.20070
  H         2.14536         -1.16373        -0.19756
  H         0.28675         -2.23112         1.08554
  H        -1.97729         -2.05888         0.30772
  H        -1.46459         -0.91593        -1.03655
  H        -1.96939          2.09025         0.28241
  H        -1.45898          0.93043        -1.04775
14
 step=         305     theta[rad]=           3.1940
  C        -1.18409          1.50385        -0.17798
  C         0.05706          1.52398         0.29116
  C         1.18203          0.67139        -0.08979
  C         1.18176         -0.67091        -0.09037
  C         0.05769         -1.52730         0.28901
  C        -1.18626         -1.49579        -0.17114
  H         0.28701          2.23036         1.08542
  H         2.14516          1.16236        -0.19711
  H         2.14203         -1.16644        -0.20181
  H         0.28326         -2.21872         1.09751
  H        -1.96412         -2.10281         0.27444
  H        -1.45839         -0.93628        -1.05180
  H        -1.97594          2.05586         0.31229
  H        -1.46677          0.91459        -1.03506
14
 step=         306     theta[rad]=           3.2044
  C        -1.18719          1.49550        -0.17037
  C         0.05716          1.52796         0.28954
  C         1.18297          0.67119        -0.09097
  C         1.18334         -0.67185        -0.09017
  C         0.05627         -1.52333         0.29254
  C        -1.18417         -1.50674        -0.17989
  H         0.28303          2.22028         1.09720
  H         2.14245          1.16824        -0.20226
  H         2.14682         -1.16255        -0.19571
  H         0.28826         -2.23653         1.08032
  H        -1.98303         -2.03976         0.32221
  H        -1.46729         -0.90708        -1.02991
  H        -1.96654          2.10523         0.26940
  H        -1.45558          0.93733        -1.05327
14
 step=         307     theta[rad]=           3.2149
  C        -1.18299          1.50680        -0.18067
  C         0.05702          1.52257         0.29174
  C         1.18169          0.67147        -0.08937
  C         1.18120         -0.67058        -0.09044
  C         0.05820         -1.52871         0.28777
  C        -1.18701         -1.49192        -0.16804
  H         0.28842          2.23393         1.08125
  H         2.14612          1.16027        -0.19528
  H         2.14034         -1.16782        -0.20397
  H         0.28149         -2.21241         1.10359
  H        -1.95743         -2.12512         0.25752
  H        -1.45524         -0.94661        -1.05955
  H        -1.97927          2.03838         0.32748
  H        -1.47073          0.90653        -1.02862
14
 step=         308     theta[rad]=           3.2254
  C        -1.18844          1.49216        -0.16732
  C         0.05720          1.52956         0.28889
  C         1.18335          0.67110        -0.09144
  C         1.18398         -0.67223        -0.09009
  C         0.05570         -1.52174         0.29395
  C        -1.18333         -1.51112        -0.18340
  H         0.28143          2.21625         1.10191
  H         2.14137          1.17060        -0.20432
  H         2.14873         -1.16099        -0.19327
  H         0.29026         -2.24366         1.07344
  H        -1.99060         -2.01452         0.34134
  H        -1.47085         -0.89538        -1.02115
  H        -1.96277          2.12499         0.25223
  H        -1.45110          0.94643        -1.06056
14
 step=         309     theta[rad]=           3.2358
  C        -1.18162          1.51048        -0.18403
  C         0.05698          1.52081         0.29245
  C         1.18127          0.67156        -0.08885
  C         1.18050         -0.67017        -0.09052
  C         0.05883         -1.53045         0.28621
  C        -1.18793         -1.48710        -0.16419
  H         0.29018          2.23837         1.07606
  H         2.14731          1.15768        -0.19302
  H         2.13823         -1.16954        -0.20665
  H         0.27929         -2.20457         1.11116
  H        -1.94910         -2.15289         0.23648
  H        -1.45133         -0.95947        -1.06919
  H        -1.98342          2.01664         0.34637
  H        -1.47566          0.89652        -1.02060
14
 step=         310     theta[rad]=           3.2463
  C        -1.18990          1.48823        -0.16373
  C         0.05724          1.53144         0.28813
  C         1.18380          0.67101        -0.09200
  C         1.18472         -0.67267        -0.08999
  C         0.05503         -1.51986         0.29561
  C        -1.18234         -1.51628        -0.18752
  H         0.27955          2.21150         1.10746
  H         2.14010          1.17337        -0.20675
  H         2.15099         -1.15915        -0.19040
  H         0.29262         -2.25205         1.06534
  H        -1.99950         -1.98481         0.36386
  H        -1.47504         -0.88162        -1.01083
  H        -1.95834          2.14826         0.23202
  H        -1.44583          0.95715        -1.06914
14
 step=         311     theta[rad]=           3.2568
  C        -1.18010          1.51456        -0.18776
  C         0.05693          1.51886         0.29325
  C         1.18081          0.67166        -0.08827
  C         1.17973         -0.66971        -0.09062
  C         0.05952         -1.53240         0.28449
  C        -1.18896         -1.48174        -0.15990
  H         0.29213          2.24331         1.07029
  H         2.14863          1.15480        -0.19049
  H         2.13588         -1.17145        -0.20964
  H         0.27684         -2.19585         1.11958
  H        -1.93984         -2.18376         0.21309
  H        -1.44697         -0.97378        -1.07991
  H        -1.98802          1.99247         0.36737
  H        -1.48114          0.88538        -1.01168
14
 step=         312     theta[rad]=           3.2673
  C        -1.19143          1.48413        -0.15998
  C         0.05729          1.53340         0.28733
  C         1.18426          0.67091        -0.09258
  C         1.18550         -0.67314        -0.08989
  C         0.05433         -1.51791         0.29734
  C        -1.18131         -1.52166        -0.19183
  H         0.27759          2.20654         1.11326
  H         2.13876          1.17627        -0.20928
  H         2.15334         -1.15723        -0.18740
  H         0.29508         -2.26081         1.05688
  H        -2.00881         -1.95379         0.38737
  H        -1.47942         -0.86725        -1.00006
  H        -1.95371          2.17255         0.21091
  H        -1.44033          0.96834        -1.07810
14
 step=         313     theta[rad]=           3.2777
  C        -1.17863          1.51852        -0.19137
  C         0.05689          1.51697         0.29402
  C         1.18036          0.67175        -0.08771
  C         1.17898         -0.66926        -0.09072
  C         0.06020         -1.53428         0.28282
  C        -1.18995         -1.47655        -0.15575
  H         0.29402          2.24809         1.06470
  H         2.14992          1.15201        -0.18805
  H         2.13361         -1.17329        -0.21253
  H         0.27447         -2.18740         1.12774
  H        -1.93088         -2.21367         0.19042
  H        -1.44275         -0.98763        -1.09029
  H        -1.99248          1.96905         0.38772
  H        -1.48645          0.87459        -1.00305
14
 step=         314     theta[rad]=           3.2882
  C        -1.19277          1.48052        -0.15669
  C         0.05733          1.53512         0.28663
  C         1.18467          0.67082        -0.09309
  C         1.18618         -0.67354        -0.08981
  C         0.05371         -1.51619         0.29887
  C        -1.18040         -1.52640        -0.19561
  H         0.27587          2.20218         1.11835
  H         2.13759          1.17881        -0.21151
  H         2.15541         -1.15555        -0.18476
  H         0.29724         -2.26852         1.04945
  H        -2.01699         -1.92651         0.40804
  H        -1.48327         -0.85462        -0.99059
  H        -1.94965          2.19391         0.19236
  H        -1.43549          0.97818        -1.08597
14
 step=         315     theta[rad]=           3.2987
  C        -1.17750          1.52155        -0.19413
  C         0.05685          1.51552         0.29461
  C         1.18002          0.67183        -0.08728
  C         1.17840         -0.66892        -0.09079
  C         0.06072         -1.53573         0.28154
  C        -1.19071         -1.47258        -0.15258
  H         0.29547          2.25174         1.06043
  H         2.15090          1.14987        -0.18618
  H         2.13188         -1.17471        -0.21474
  H         0.27266         -2.18093         1.13397
  H        -1.92401         -2.23655         0.17308
  H        -1.43952         -0.99823        -1.09823
  H        -1.99590          1.95113         0.40328
  H        -1.49051          0.86634        -0.99644
14
 step=         316     theta[rad]=           3.3091
  C        -1.19358          1.47833        -0.15469
  C         0.05736          1.53617         0.28620
  C         1.18492          0.67076        -0.09340
  C         1.18660         -0.67379        -0.08976
  C         0.05334         -1.51515         0.29979
  C        -1.17985         -1.52927        -0.19791
  H         0.27482          2.19953         1.12144
  H         2.13688          1.18036        -0.21286
  H         2.15667         -1.15452        -0.18316
  H         0.29855         -2.27319         1.04494
  H        -2.02195         -1.90997         0.42057
  H        -1.48560         -0.84696        -0.98485
  H        -1.94718          2.20686         0.18110
  H        -1.43255          0.98415        -1.09075
14
 step=         317     theta[rad]=           3.3196
  C        -1.17710          1.52263        -0.19511
  C         0.05684          1.51501         0.29482
  C         1.17990          0.67186        -0.08713
  C         1.17820         -0.66880        -0.09081
  C         0.06090         -1.53624         0.28108
  C        -1.19099         -1.47116        -0.15145
  H         0.29598          2.25305         1.05891
  H         2.15125          1.14911        -0.18552
  H         2.13126         -1.17521        -0.21553
  H         0.27201         -2.17863         1.13620
  H        -1.92157         -2.24470         0.16690
  H        -1.43837         -1.00200        -1.10107
  H        -1.99711          1.94475         0.40883
  H        -1.49196          0.86340        -0.99409
14
 step=         318     theta[rad]=           3.3301
  C        -1.19347          1.47863        -0.15496
  C         0.05736          1.53602         0.28626
  C         1.18489          0.67077        -0.09336
  C         1.18654         -0.67375        -0.08976
  C         0.05339         -1.51529         0.29967
  C        -1.17992         -1.52888        -0.19760
  H         0.27496          2.19989         1.12102
  H         2.13698          1.18015        -0.21267
  H         2.15650         -1.15466        -0.18338
  H         0.29838         -2.27256         1.04555
  H        -2.02127         -1.91222         0.41887
  H        -1.48529         -0.84800        -0.98563
  H        -1.94751          2.20510         0.18263
  H        -1.43295          0.98333        -1.09010
14
 step=         319     theta[rad]=           3.3406
  C        -1.17781          1.52071        -0.19337
  C         0.05686          1.51592         0.29444
  C         1.18011          0.67181        -0.08740
  C         1.17856         -0.66901        -0.09077
  C         0.06057         -1.53533         0.28189
  C        -1.19050         -1.47367        -0.15345
  H         0.29507          2.25074         1.06161
  H         2.15063          1.15046        -0.18670
  H         2.13236         -1.17432        -0.21413
  H         0.27316         -2.18272         1.13225
  H        -1.92591         -2.23024         0.17787
  H        -1.44041         -0.99530        -1.09604
  H        -1.99495          1.95608         0.39899
  H        -1.48939          0.86862        -0.99826
14
 step=         320     theta[rad]=           3.3510
  C        -1.19209          1.48234        -0.15836
  C         0.05731          1.53425         0.28698
  C         1.18446          0.67086        -0.09284
  C         1.18584         -0.67334        -0.08985
  C         0.05402         -1.51706         0.29810
  C        -1.18086         -1.52400        -0.19370
  H         0.27674          2.20438         1.11578
  H         2.13819          1.17753        -0.21038
  H         2.15437         -1.15640        -0.18609
  H         0.29615         -2.26462         1.05321
  H        -2.01285         -1.94031         0.39758
  H        -1.48132         -0.86101        -0.99538
  H        -1.95170          2.18310         0.20174
  H        -1.43794          0.97320        -1.08199
14
 step=         321     theta[rad]=           3.3615
  C        -1.17990          1.51509        -0.18824
  C         0.05693          1.51861         0.29335
  C         1.18075          0.67167        -0.08819
  C         1.17963         -0.66965        -0.09063
  C         0.05961         -1.53265         0.28426
  C        -1.18909         -1.48104        -0.15935
  H         0.29238          2.24395         1.06954
  H         2.14881          1.15443        -0.19017
  H         2.13558         -1.17169        -0.21002
  H         0.27652         -2.19471         1.12068
  H        -1.93864         -2.18778         0.21004
  H        -1.44640         -0.97564        -1.08130
  H        -1.98862          1.98932         0.37011
  H        -1.48185          0.88393        -1.01052
14
 step=         322     theta[rad]=           3.3720
  C        -1.18930          1.48984        -0.16519
  C         0.05722          1.53067         0.28844
  C         1.18361          0.67105        -0.09177
  C         1.18442         -0.67249        -0.09003
  C         0.05530         -1.52063         0.29493
  C        -1.18274         -1.51417        -0.18584
  H         0.28032          2.21344         1.10520
  H         2.14062          1.17224        -0.20575
  H         2.15007         -1.15990        -0.19157
  H         0.29166         -2.24862         1.06865
  H        -1.99587         -1.99694         0.35466
  H        -1.47333         -0.88724        -1.01504
  H        -1.96015          2.13876         0.24027
  H        -1.44799          0.95277        -1.06563
14
 step=         323     theta[rad]=           3.3824
  C        -1.18332          1.50590        -0.17985
  C         0.05703          1.52300         0.29156
  C         1.18179          0.67144        -0.08950
  C         1.18137         -0.67068        -0.09041
  C         0.05805         -1.52828         0.28815
  C        -1.18678         -1.49310        -0.16899
  H         0.28799          2.23284         1.08252
  H         2.14583          1.16091        -0.19584
  H         2.14085         -1.16740        -0.20331
  H         0.28203         -2.21433         1.10174
  H        -1.95946         -2.11833         0.26267
  H        -1.45620         -0.94347        -1.05719
  H        -1.97826          2.04370         0.32286
  H        -1.46953          0.90898        -1.03058
14
 step=         324     theta[rad]=           3.3929
  C        -1.18539          1.50036        -0.17480
  C         0.05710          1.52564         0.29049
  C         1.18242          0.67131        -0.09028
  C         1.18242         -0.67131        -0.09028
  C         0.05710         -1.52564         0.29049
  C        -1.18539         -1.50036        -0.17480
  H         0.28535          2.22615         1.09034
  H         2.14403          1.16482        -0.19926
  H         2.14403         -1.16481        -0.19926
  H         0.28535         -2.22615         1.09033
  H        -1.97202         -2.07648         0.29439
  H        -1.46211         -0.92408        -1.04266
  H        -1.97202          2.07648         0.29438
  H        -1.46210          0.92408        -1.04267
14
 step=         325     theta[rad]=           3.4034
  C        -1.18753          1.49460        -0.16954
  C         0.05717          1.52839         0.28936
  C         1.18307          0.67116        -0.09110
  C         1.18351         -0.67196        -0.09014
  C         0.05612         -1.52290         0.29292
  C        -1.18394         -1.50793        -0.18084
  H         0.28259          2.21919         1.09847
  H         2.14216          1.16888        -0.20282
  H         2.14734         -1.16212        -0.19505
  H         0.28880         -2.23846         1.07846
  H        -1.98508         -2.03292         0.32740
  H        -1.46826         -0.90390        -1.02753
  H        -1.96552          2.11059         0.26475
  H        -1.45437          0.93980        -1.05524
14
 step=         326     theta[rad]=           3.4139
  C        -1.18117          1.51170        -0.18515
  C         0.05697          1.52023         0.29269
  C         1.18114          0.67159        -0.08867
  C         1.18027         -0.67003        -0.09055
  C         0.05904         -1.53104         0.28570
  C        -1.18824         -1.48549        -0.16290
  H         0.29076          2.23985         1.07433
  H         2.14771          1.15682        -0.19226
  H         2.13752         -1.17011        -0.20755
  H         0.27856         -2.20195         1.11369
  H        -1.94632         -2.16215         0.22946
  H        -1.45002         -0.96377        -1.07240
  H        -1.98480          2.00939         0.35267
  H        -1.47731          0.89318        -1.01792
14
 step=         327     theta[rad]=           3.4243
  C        -1.19143          1.48413        -0.15998
  C         0.05729          1.53340         0.28733
  C         1.18426          0.67091        -0.09258
  C         1.18550         -0.67314        -0.08989
  C         0.05433         -1.51791         0.29734
  C        -1.18131         -1.52166        -0.19183
  H         0.27759          2.20654         1.11326
  H         2.13876          1.17627        -0.20928
  H         2.15334         -1.15723        -0.18740
  H         0.29508         -2.26081         1.05688
  H        -2.00881         -1.95379         0.38737
  H        -1.47942         -0.86725        -1.00006
  H        -1.95371          2.17255         0.21091
  H        -1.44033          0.96834        -1.07810
14
 step=         328     theta[rad]=           3.4348
  C        -1.17796          1.52032        -0.19301
  C         0.05686          1.51611         0.29437
  C         1.18016          0.67180        -0.08745
  C         1.17864         -0.66906        -0.09076
  C         0.06050         -1.53514         0.28206
  C        -1.19040         -1.47419        -0.15387
  H         0.29488          2.25026         1.06217
  H         2.15050          1.15074        -0.18694
  H         2.13258         -1.17413        -0.21384
  H         0.27340         -2.18357         1.13143
  H        -1.92681         -2.22723         0.18014
  H        -1.44084         -0.99391        -1.09500
  H        -1.99451          1.95843         0.39695
  H        -1.48886          0.86970        -0.99913
14
 step=         329     theta[rad]=           3.4453
  C        -1.19357          1.47836        -0.15472
  C         0.05736          1.53615         0.28621
  C         1.18492          0.67076        -0.09340
  C         1.18659         -0.67378        -0.08976
  C         0.05335         -1.51517         0.29978
  C        -1.17986         -1.52922        -0.19787
  H         0.27484          2.19958         1.12140
  H         2.13690          1.18033        -0.21284
  H         2.15665         -1.15454        -0.18318
  H         0.29853         -2.27311         1.04501
  H        -2.02187         -1.91024         0.42037
  H        -1.48557         -0.84708        -0.98494
  H        -1.94722          2.20665         0.18128
  H        -1.43260          0.98405        -1.09067
14
 step=         330     theta[rad]=           3.4558
  C        -1.17720          1.52237        -0.19487
  C         0.05684          1.51513         0.29476
  C         1.17993          0.67185        -0.08716
  C         1.17825         -0.66883        -0.09081
  C         0.06085         -1.53611         0.28119
  C        -1.19092         -1.47151        -0.15172
  H         0.29586          2.25273         1.05928
  H         2.15116          1.14930        -0.18568
  H         2.13141         -1.17509        -0.21534
  H         0.27217         -2.17919         1.13565
  H        -1.92217         -2.24272         0.16841
  H        -1.43865         -1.00108        -1.10038
  H        -1.99682          1.94630         0.40748
  H        -1.49160          0.86412        -0.99466
14
 step=         331     theta[rad]=           3.4662
  C        -1.19273          1.48062        -0.15679
  C         0.05733          1.53507         0.28665
  C         1.18466          0.67082        -0.09308
  C         1.18616         -0.67353        -0.08981
  C         0.05373         -1.51624         0.29882
  C        -1.18043         -1.52626        -0.19550
  H         0.27592          2.20231         1.11820
  H         2.13763          1.17874        -0.21144
  H         2.15535         -1.15560        -0.18484
  H         0.29718         -2.26829         1.04967
  H        -2.01674         -1.92732         0.40742
  H        -1.48316         -0.85499        -0.99087
  H        -1.94977          2.19327         0.19291
  H        -1.43563          0.97789        -1.08574
14
 step=         332     theta[rad]=           3.4767
  C        -1.17971          1.51561        -0.18871
  C         0.05692          1.51836         0.29345
  C         1.18069          0.67168        -0.08812
  C         1.17953         -0.66959        -0.09065
  C         0.05970         -1.53290         0.28405
  C        -1.18922         -1.48036        -0.15880
  H         0.29263          2.24457         1.06881
  H         2.14898          1.15406        -0.18985
  H         2.13528         -1.17194        -0.21040
  H         0.27621         -2.19361         1.12174
  H        -1.93747         -2.19169         0.20707
  H        -1.44585         -0.97745        -1.08266
  H        -1.98920          1.98626         0.37277
  H        -1.48255          0.88252        -1.00939
14
 step=         333     theta[rad]=           3.4872
  C        -1.18868          1.49152        -0.16673
  C         0.05720          1.52987         0.28877
  C         1.18342          0.67109        -0.09153
  C         1.18410         -0.67230        -0.09007
  C         0.05559         -1.52143         0.29422
  C        -1.18316         -1.51197        -0.18407
  H         0.28112          2.21547         1.10282
  H         2.14116          1.17105        -0.20472
  H         2.14910         -1.16068        -0.19280
  H         0.29065         -2.24504         1.07211
  H        -1.99206         -2.00963         0.34505
  H        -1.47154         -0.89312        -1.01945
  H        -1.96205          2.12882         0.24891
  H        -1.45024          0.94820        -1.06197
14
 step=         334     theta[rad]=           3.4976
  C        -1.18495          1.50153        -0.17586
  C         0.05709          1.52508         0.29071
  C         1.18229          0.67134        -0.09012
  C         1.18220         -0.67117        -0.09031
  C         0.05730         -1.52620         0.28999
  C        -1.18568         -1.49883        -0.17357
  H         0.28590          2.22756         1.08869
  H         2.14441          1.16399        -0.19854
  H         2.14336         -1.16536        -0.20011
  H         0.28465         -2.22367         1.09273
  H        -1.96937         -2.08529         0.28771
  H        -1.46087         -0.92816        -1.04572
  H        -1.97333          2.06958         0.30037
  H        -1.46366          0.92091        -1.04012
14
 step=         335     theta[rad]=           3.5081
  C        -1.18282          1.50725        -0.18108
  C         0.05702          1.52235         0.29182
  C         1.18164          0.67148        -0.08931
  C         1.18111         -0.67053        -0.09045
  C         0.05827         -1.52892         0.28758
  C        -1.18712         -1.49134        -0.16758
  H         0.28864          2.23447         1.08062
  H         2.14626          1.15996        -0.19501
  H         2.14008         -1.16803        -0.20429
  H         0.28123         -2.21146         1.10451
  H        -1.95642         -2.12849         0.25497
  H        -1.45477         -0.94817        -1.06072
  H        -1.97978          2.03575         0.32977
  H        -1.47133          0.90532        -1.02765
14
 step=         336     theta[rad]=           3.5186
  C        -1.19067          1.48617        -0.16184
  C         0.05727          1.53242         0.28772
  C         1.18403          0.67096        -0.09229
  C         1.18511         -0.67291        -0.08994
  C         0.05468         -1.51888         0.29648
  C        -1.18182         -1.51899        -0.18969
  H         0.27856          2.20900         1.11038
  H         2.13943          1.17483        -0.20802
  H         2.15217         -1.15818        -0.18889
  H         0.29386         -2.25646         1.06108
  H        -2.00419         -1.96919         0.37569
  H        -1.47725         -0.87439        -1.00541
  H        -1.95601          2.16048         0.22139
  H        -1.44306          0.96278        -1.07365
14
 step=         337     theta[rad]=           3.5291
  C        -1.17808          1.52000        -0.19271
  C         0.05687          1.51626         0.29430
  C         1.18019          0.67179        -0.08750
  C         1.17870         -0.66909        -0.09075
  C         0.06045         -1.53499         0.28219
  C        -1.19032         -1.47461        -0.15421
  H         0.29472          2.24987         1.06262
  H         2.15040          1.15097        -0.18714
  H         2.13277         -1.17398        -0.21361
  H         0.27359         -2.18425         1.13077
  H        -1.92754         -2.22481         0.18198
  H        -1.44118         -0.99279        -1.09416
  H        -1.99414          1.96033         0.39530
  H        -1.48843          0.87058        -0.99983
14
 step=         338     theta[rad]=           3.5395
  C        -1.19364          1.47819        -0.15456
  C         0.05736          1.53623         0.28617
  C         1.18494          0.67076        -0.09342
  C         1.18663         -0.67380        -0.08975
  C         0.05332         -1.51508         0.29985
  C        -1.17981         -1.52945        -0.19805
  H         0.27475          2.19936         1.12164
  H         2.13684          1.18046        -0.21294
  H         2.15675         -1.15446        -0.18306
  H         0.29864         -2.27349         1.04465
  H        -2.02226         -1.90892         0.42137
  H        -1.48575         -0.84647        -0.98448
  H        -1.94702          2.20769         0.18038
  H        -1.43236          0.98453        -1.09105
14
 step=         339     theta[rad]=           3.5500
  C        -1.17750          1.52155        -0.19413
  C         0.05685          1.51552         0.29461
  C         1.18002          0.67183        -0.08728
  C         1.17840         -0.66892        -0.09079
  C         0.06072         -1.53573         0.28154
  C        -1.19071         -1.47258        -0.15258
  H         0.29547          2.25174         1.06043
  H         2.15090          1.14987        -0.18618
  H         2.13188         -1.17471        -0.21474
  H         0.27266         -2.18093         1.13397
  H        -1.92401         -2.23655         0.17308
  H        -1.43952         -0.99823        -1.09823
  H        -1.99590          1.95113         0.40328
  H        -1.49051          0.86634        -0.99644
14
 step=         340     theta[rad]=           3.5605
  C        -1.19154          1.48381        -0.15969
  C         0.05730          1.53355         0.28727
  C         1.18430          0.67090        -0.09263
  C         1.18556         -0.67317        -0.08989
  C         0.05428         -1.51776         0.29748
  C        -1.18123         -1.52208        -0.19216
  H         0.27744          2.20616         1.11371
  H         2.13866          1.17649        -0.20947
  H         2.15353         -1.15708        -0.18717
  H         0.29527         -2.26149         1.05623
  H        -2.00952         -1.95140         0.38918
  H        -1.47976         -0.86615        -0.99923
  H        -1.95336          2.17442         0.20929
  H        -1.43990          0.96920        -1.07878
14
 step=         341     theta[rad]=           3.5709
  C        -1.18209          1.50921        -0.18287
  C         0.05700          1.52142         0.29221
  C         1.18142          0.67153        -0.08903
  C         1.18074         -0.67031        -0.09049
  C         0.05861         -1.52985         0.28675
  C        -1.18761         -1.48876        -0.16552
  H         0.28957          2.23684         1.07785
  H         2.14690          1.15858        -0.19380
  H         2.13895         -1.16895        -0.20573
  H         0.28005         -2.20727         1.10856
  H        -1.95197         -2.14332         0.24373
  H        -1.45268         -0.95504        -1.06587
  H        -1.98199          2.02413         0.33986
  H        -1.47396          0.89997        -1.02336
14
 step=         342     theta[rad]=           3.5814
  C        -1.18512          1.50106        -0.17544
  C         0.05709          1.52531         0.29062
  C         1.18234          0.67132        -0.09018
  C         1.18229         -0.67123        -0.09030
  C         0.05722         -1.52597         0.29019
  C        -1.18556         -1.49945        -0.17406
  H         0.28568          2.22700         1.08935
  H         2.14426          1.16432        -0.19883
  H         2.14363         -1.16514        -0.19977
  H         0.28493         -2.22466         1.09177
  H        -1.97043         -2.08176         0.29038
  H        -1.46136         -0.92653        -1.04449
  H        -1.97281          2.07234         0.29798
  H        -1.46304          0.92218        -1.04114
14
 step=         343     theta[rad]=           3.5919
  C        -1.18923          1.49004        -0.16538
  C         0.05722          1.53057         0.28848
  C         1.18359          0.67105        -0.09174
  C         1.18438         -0.67247        -0.09004
  C         0.05534         -1.52073         0.29484
  C        -1.18279         -1.51390        -0.18562
  H         0.28042          2.21369         1.10490
  H         2.14068          1.17209        -0.20563
  H         2.14995         -1.16000        -0.19172
  H         0.29153         -2.24818         1.06907
  H        -1.99540         -1.99850         0.35348
  H        -1.47311         -0.88796        -1.01558
  H        -1.96038          2.13754         0.24133
  H        -1.44826          0.95221        -1.06518
14
 step=         344     theta[rad]=           3.6024
  C        -1.17868          1.51839        -0.19124
  C         0.05689          1.51703         0.29399
  C         1.18038          0.67175        -0.08773
  C         1.17900         -0.66928        -0.09071
  C         0.06018         -1.53422         0.28287
  C        -1.18992         -1.47673        -0.15590
  H         0.29396          2.24792         1.06490
  H         2.14987          1.15210        -0.18814
  H         2.13369         -1.17323        -0.21243
  H         0.27455         -2.18769         1.12746
  H        -1.93118         -2.21264         0.19120
  H        -1.44290         -0.98715        -1.08993
  H        -1.99233          1.96985         0.38702
  H        -1.48627          0.87496        -1.00334
14
 step=         345     theta[rad]=           3.6128
  C        -1.19357          1.47836        -0.15472
  C         0.05736          1.53615         0.28621
  C         1.18492          0.67076        -0.09340
  C         1.18659         -0.67378        -0.08976
  C         0.05335         -1.51517         0.29978
  C        -1.17986         -1.52922        -0.19787
  H         0.27484          2.19958         1.12140
  H         2.13690          1.18033        -0.21284
  H         2.15665         -1.15454        -0.18318
  H         0.29853         -2.27311         1.04501
  H        -2.02187         -1.91024         0.42037
  H        -1.48557         -0.84708        -0.98494
  H        -1.94722          2.20665         0.18128
  H        -1.43260          0.98405        -1.09067
14
 step=         346     theta[rad]=           3.6233
  C        -1.17753          1.52148        -0.19406
  C         0.05685          1.51556         0.29459
  C         1.18003          0.67183        -0.08729
  C         1.17842         -0.66893        -0.09079
  C         0.06070         -1.53569         0.28157
  C        -1.19070         -1.47267        -0.15265
  H         0.29543          2.25166         1.06053
  H         2.15088          1.14992        -0.18623
  H         2.13192         -1.17467        -0.21469
  H         0.27270         -2.18109         1.13382
  H        -1.92418         -2.23600         0.17350
  H        -1.43960         -0.99797        -1.09804
  H        -1.99581          1.95157         0.40291
  H        -1.49041          0.86654        -0.99660
14
 step=         347     theta[rad]=           3.6338
  C        -1.19106          1.48512        -0.16089
  C         0.05728          1.53292         0.28752
  C         1.18415          0.67093        -0.09244
  C         1.18531         -0.67302        -0.08992
  C         0.05450         -1.51838         0.29692
  C        -1.18155         -1.52036        -0.19079
  H         0.27806          2.20773         1.11186
  H         2.13908          1.17557        -0.20867
  H         2.15278         -1.15769        -0.18812
  H         0.29449         -2.25870         1.05892
  H        -2.00657         -1.96126         0.38170
  H        -1.47837         -0.87072        -1.00266
  H        -1.95483          2.16670         0.21600
  H        -1.44165          0.96564        -1.07594
14
 step=         348     theta[rad]=           3.6442
  C        -1.18332          1.50590        -0.17985
  C         0.05703          1.52300         0.29156
  C         1.18179          0.67144        -0.08950
  C         1.18137         -0.67068        -0.09041
  C         0.05805         -1.52828         0.28815
  C        -1.18678         -1.49310        -0.16899
  H         0.28799          2.23284         1.08252
  H         2.14583          1.16091        -0.19584
  H         2.14085         -1.16740        -0.20331
  H         0.28203         -2.21433         1.10174
  H        -1.95946         -2.11833         0.26267
  H        -1.45620         -0.94347        -1.05719
  H        -1.97826          2.04370         0.32286
  H        -1.46953          0.90898        -1.03058
14
 step=         349     theta[rad]=           3.6547
  C        -1.18324          1.50613        -0.18006
  C         0.05703          1.52289         0.29161
  C         1.18177          0.67145        -0.08946
  C         1.18133         -0.67066        -0.09042
  C         0.05808         -1.52838         0.28805
  C        -1.18684         -1.49280        -0.16875
  H         0.28810          2.23312         1.08220
  H         2.14590          1.16075        -0.19570
  H         2.14072         -1.16751        -0.20347
  H         0.28190         -2.21385         1.10221
  H        -1.95895         -2.12004         0.26138
  H        -1.45596         -0.94426        -1.05778
  H        -1.97852          2.04237         0.32402
  H        -1.46983          0.90837        -1.03009
14
 step=         350     theta[rad]=           3.6652
  C        -1.19125          1.48461        -0.16043
  C         0.05729          1.53316         0.28742
  C         1.18421          0.67092        -0.09251
  C         1.18541         -0.67308        -0.08991
  C         0.05441         -1.51814         0.29714
  C        -1.18143         -1.52102        -0.19132
  H         0.27782          2.20713         1.11257
  H         2.13892          1.17592        -0.20898
  H         2.15306         -1.15746        -0.18775
  H         0.29479         -2.25977         1.05788
  H        -2.00770         -1.95747         0.38458
  H        -1.47890         -0.86896        -1.00134
  H        -1.95426          2.16967         0.21341
  H        -1.44098          0.96701        -1.07703
14
 step=         351     theta[rad]=           3.6757
  C        -1.17736          1.52194        -0.19449
  C         0.05685          1.51534         0.29468
  C         1.17997          0.67184        -0.08722
  C         1.17833         -0.66888        -0.09080
  C         0.06078         -1.53591         0.28137
  C        -1.19081         -1.47206        -0.15217
  H         0.29565          2.25222         1.05988
  H         2.15103          1.14960        -0.18594
  H         2.13165         -1.17489        -0.21503
  H         0.27242         -2.18010         1.13478
  H        -1.92313         -2.23950         0.17085
  H        -1.43911         -0.99959        -1.09926
  H        -1.99634          1.94882         0.40529
  H        -1.49103          0.86528        -0.99559
14
 step=         352     theta[rad]=           3.6861
  C        -1.19332          1.47904        -0.15534
  C         0.05735          1.53583         0.28634
  C         1.18484          0.67078        -0.09330
  C         1.18646         -0.67371        -0.08977
  C         0.05346         -1.51549         0.29949
  C        -1.18003         -1.52833        -0.19716
  H         0.27516          2.20039         1.12044
  H         2.13711          1.17986        -0.21242
  H         2.15626         -1.15486        -0.18368
  H         0.29813         -2.27167         1.04640
  H        -2.02033         -1.91535         0.41650
  H        -1.48484         -0.84945        -0.98672
  H        -1.94798          2.20265         0.18476
  H        -1.43351          0.98221        -1.08919
14
 step=         353     theta[rad]=           3.6966
  C        -1.17990          1.51509        -0.18824
  C         0.05693          1.51861         0.29335
  C         1.18075          0.67167        -0.08819
  C         1.17963         -0.66965        -0.09063
  C         0.05961         -1.53265         0.28426
  C        -1.18909         -1.48104        -0.15935
  H         0.29238          2.24395         1.06954
  H         2.14881          1.15443        -0.19017
  H         2.13558         -1.17169        -0.21002
  H         0.27652         -2.19471         1.12068
  H        -1.93864         -2.18778         0.21004
  H        -1.44640         -0.97564        -1.08130
  H        -1.98862          1.98932         0.37011
  H        -1.48185          0.88393        -1.01052
14
 step=         354     theta[rad]=           3.7071
  C        -1.18668          1.49688        -0.17162
  C         0.05714          1.52731         0.28981
  C         1.18282          0.67122        -0.09077
  C         1.18308         -0.67170        -0.09020
  C         0.05651         -1.52398         0.29196
  C        -1.18451         -1.50493        -0.17845
  H         0.28368          2.22194         1.09526
  H         2.14290          1.16727        -0.20141
  H         2.14603         -1.16319        -0.19671
  H         0.28744         -2.23359         1.08315
  H        -1.97991         -2.05015         0.31434
  H        -1.46582         -0.91189        -1.03352
  H        -1.96809          2.09709         0.27647
  H        -1.45743          0.93358        -1.05027
14
 step=         355     theta[rad]=           3.7176
  C        -1.18876          1.49130        -0.16653
  C         0.05721          1.52997         0.28872
  C         1.18345          0.67108        -0.09157
  C         1.18414         -0.67233        -0.09007
  C         0.05555         -1.52133         0.29431
  C        -1.18311         -1.51225        -0.18430
  H         0.28102          2.21521         1.10313
  H         2.14109          1.17121        -0.20485
  H         2.14923         -1.16058        -0.19264
  H         0.29078         -2.24549         1.07167
  H        -1.99254         -2.00802         0.34627
  H        -1.47177         -0.89237        -1.01889
  H        -1.96180          2.13008         0.24781
  H        -1.44995          0.94878        -1.06243
14
 step=         356     theta[rad]=           3.7280
  C        -1.17839          1.51917        -0.19196
  C         0.05688          1.51666         0.29414
  C         1.18029          0.67177        -0.08762
  C         1.17885         -0.66919        -0.09073
  C         0.06031         -1.53459         0.28254
  C        -1.19012         -1.47570        -0.15507
  H         0.29433          2.24887         1.06378
  H         2.15013          1.15155        -0.18765
  H         2.13324         -1.17360        -0.21300
  H         0.27408         -2.18601         1.12908
  H        -1.92940         -2.21859         0.18669
  H        -1.44206         -0.98991        -1.09200
  H        -1.99322          1.96520         0.39106
  H        -1.48732          0.87282        -1.00163
14
 step=         357     theta[rad]=           3.7385
  C        -1.19367          1.47810        -0.15448
  C         0.05736          1.53627         0.28616
  C         1.18495          0.67076        -0.09344
  C         1.18664         -0.67381        -0.08975
  C         0.05330         -1.51504         0.29989
  C        -1.17979         -1.52957        -0.19815
  H         0.27471          2.19926         1.12177
  H         2.13681          1.18052        -0.21300
  H         2.15680         -1.15442        -0.18299
  H         0.29869         -2.27368         1.04447
  H        -2.02246         -1.90825         0.42188
  H        -1.48585         -0.84616        -0.98425
  H        -1.94692          2.20821         0.17993
  H        -1.43225          0.98477        -1.09124
14
 step=         358     theta[rad]=           3.7490
  C        -1.17873          1.51825        -0.19112
  C         0.05689          1.51710         0.29396
  C         1.18039          0.67175        -0.08775
  C         1.17903         -0.66929        -0.09071
  C         0.06015         -1.53415         0.28293
  C        -1.18988         -1.47691        -0.15604
  H         0.29389          2.24776         1.06509
  H         2.14983          1.15220        -0.18822
  H         2.13377         -1.17317        -0.21233
  H         0.27463         -2.18798         1.12717
  H        -1.93150         -2.21160         0.19199
  H        -1.44304         -0.98667        -1.08957
  H        -1.99217          1.97067         0.38631
  H        -1.48608          0.87534        -1.00365
14
 step=         359     theta[rad]=           3.7594
  C        -1.18795          1.49348        -0.16852
  C         0.05718          1.52893         0.28915
  C         1.18320          0.67114        -0.09126
  C         1.18373         -0.67208        -0.09012
  C         0.05593         -1.52236         0.29339
  C        -1.18366         -1.50939        -0.18202
  H         0.28206          2.21784         1.10005
  H         2.14180          1.16967        -0.20351
  H         2.14798         -1.16160        -0.19423
  H         0.28947         -2.24085         1.07615
  H        -1.98761         -2.02447         0.33380
  H        -1.46945         -0.89999        -1.02460
  H        -1.96426          2.11720         0.25900
  H        -1.45287          0.94284        -1.05768
14
 step=         360     theta[rad]=           3.7699
  C        -1.18795          1.49348        -0.16852
  C         0.05718          1.52893         0.28915
  C         1.18320          0.67114        -0.09126
  C         1.18373         -0.67208        -0.09012
  C         0.05593         -1.52236         0.29339
  C        -1.18366         -1.50939        -0.18202
  H         0.28206          2.21784         1.10005
  H         2.14180          1.16967        -0.20351
  H         2.14798         -1.16160        -0.19423
  H         0.28947         -2.24085         1.07615
  H        -1.98761         -2.02447         0.33380
  H        -1.46945         -0.89999        -1.02460
  H        -1.96426          2.11720         0.25900
  H        -1.45287          0.94284        -1.05768
14
 step=         361     theta[rad]=           3.7804
  C        -1.17863          1.51852        -0.19137
  C         0.05689          1.51697         0.29402
  C         1.18036          0.67175        -0.08771
  C         1.17898         -0.66926        -0.09072
  C         0.06020         -1.53428         0.28282
  C        -1.18995         -1.47655        -0.15575
  H         0.29402          2.24809         1.06470
  H         2.14992          1.15201        -0.18805
  H         2.13361         -1.17329        -0.21253
  H         0.27447         -2.18740         1.12774
  H        -1.93088         -2.21367         0.19042
  H        -1.44275         -0.98763        -1.09029
  H        -1.99248          1.96905         0.38772
  H        -1.48645          0.87459        -1.00305
14
 step=         362     theta[rad]=           3.7909
  C        -1.19367          1.47810        -0.15448
  C         0.05736          1.53627         0.28616
  C         1.18495          0.67076        -0.09344
  C         1.18664         -0.67381        -0.08975
  C         0.05330         -1.51504         0.29989
  C        -1.17979         -1.52957        -0.19815
  H         0.27471          2.19926         1.12177
  H         2.13681          1.18052        -0.21300
  H         2.15680         -1.15442        -0.18299
  H         0.29869         -2.27368         1.04447
  H        -2.02246         -1.90825         0.42188
  H        -1.48585         -0.84616        -0.98425
  H        -1.94692          2.20821         0.17993
  H        -1.43225          0.98477        -1.09124
14
 step=         363     theta[rad]=           3.8013
  C        -1.17900          1.51753        -0.19046
  C         0.05690          1.51744         0.29382
  C         1.18047          0.67173        -0.08785
  C         1.17917         -0.66937        -0.09069
  C         0.06003         -1.53381         0.28324
  C        -1.18970         -1.47785        -0.15680
  H         0.29355          2.24689         1.06611
  H         2.14960          1.15271        -0.18867
  H         2.13418         -1.17283        -0.21180
  H         0.27507         -2.18952         1.12569
  H        -1.93313         -2.20616         0.19611
  H        -1.44381         -0.98415        -1.08768
  H        -1.99136          1.97493         0.38261
  H        -1.48512          0.87730        -1.00522
14
 step=         364     theta[rad]=           3.8118
  C        -1.18711          1.49573        -0.17057
  C         0.05715          1.52785         0.28959
  C         1.18295          0.67119        -0.09094
  C         1.18330         -0.67183        -0.09017
  C         0.05631         -1.52344         0.29244
  C        -1.18422         -1.50644        -0.17965
  H         0.28313          2.22056         1.09687
  H         2.14253          1.16808        -0.20212
  H         2.14669         -1.16265        -0.19588
  H         0.28812         -2.23604         1.08079
  H        -1.98251         -2.04148         0.32091
  H        -1.46705         -0.90787        -1.03051
  H        -1.96680          2.10388         0.27057
  H        -1.45589          0.93671        -1.05277
14
 step=         365     theta[rad]=           3.8223
  C        -1.18915          1.49025        -0.16557
  C         0.05722          1.53047         0.28852
  C         1.18357          0.67106        -0.09171
  C         1.18434         -0.67245        -0.09004
  C         0.05537         -1.52083         0.29476
  C        -1.18285         -1.51363        -0.18540
  H         0.28052          2.21394         1.10461
  H         2.14075          1.17195        -0.20550
  H         2.14983         -1.16009        -0.19187
  H         0.29141         -2.24774         1.06950
  H        -1.99493         -2.00007         0.35230
  H        -1.47289         -0.88869        -1.01613
  H        -1.96062          2.13631         0.24240
  H        -1.44854          0.95165        -1.06473
14
 step=         366     theta[rad]=           3.8327
  C        -1.17778          1.52081        -0.19345
  C         0.05686          1.51588         0.29446
  C         1.18010          0.67181        -0.08738
  C         1.17854         -0.66900        -0.09077
  C         0.06059         -1.53537         0.28185
  C        -1.19053         -1.47355        -0.15336
  H         0.29511          2.25085         1.06148
  H         2.15066          1.15040        -0.18664
  H         2.13230         -1.17436        -0.21420
  H         0.27310         -2.18252         1.13245
  H        -1.92570         -2.23094         0.17733
  H        -1.44031         -0.99563        -1.09629
  H        -1.99506          1.95552         0.39947
  H        -1.48951          0.86836        -0.99806
14
 step=         367     theta[rad]=           3.8432
  C        -1.19332          1.47904        -0.15534
  C         0.05735          1.53583         0.28634
  C         1.18484          0.67078        -0.09330
  C         1.18646         -0.67371        -0.08977
  C         0.05346         -1.51549         0.29949
  C        -1.18003         -1.52833        -0.19716
  H         0.27516          2.20039         1.12044
  H         2.13711          1.17986        -0.21242
  H         2.15626         -1.15486        -0.18368
  H         0.29813         -2.27167         1.04640
  H        -2.02033         -1.91535         0.41650
  H        -1.48484         -0.84945        -0.98672
  H        -1.94798          2.20265         0.18476
  H        -1.43351          0.98221        -1.08919
14
 step=         368     theta[rad]=           3.8537
  C        -1.18094          1.51230        -0.18569
  C         0.05696          1.51994         0.29281
  C         1.18107          0.67160        -0.08859
  C         1.18016         -0.66996        -0.09057
  C         0.05914         -1.53132         0.28544
  C        -1.18839         -1.48471        -0.16228
  H         0.29105          2.24057         1.07349
  H         2.14790          1.15640        -0.19189
  H         2.13718         -1.17039        -0.20798
  H         0.27820         -2.20068         1.11492
  H        -1.94497         -2.16666         0.22604
  H        -1.44938         -0.96585        -1.07397
  H        -1.98547          2.00586         0.35574
  H        -1.47811          0.89155        -1.01662
14
 step=         369     theta[rad]=           3.8642
  C        -1.18409          1.50385        -0.17798
  C         0.05706          1.52398         0.29116
  C         1.18203          0.67139        -0.08979
  C         1.18176         -0.67091        -0.09037
  C         0.05769         -1.52730         0.28901
  C        -1.18626         -1.49579        -0.17114
  H         0.28701          2.23036         1.08542
  H         2.14516          1.16236        -0.19711
  H         2.14203         -1.16644        -0.20181
  H         0.28326         -2.21872         1.09751
  H        -1.96412         -2.10281         0.27444
  H        -1.45839         -0.93628        -1.05180
  H        -1.97594          2.05586         0.31229
  H        -1.46677          0.91459        -1.03506
14
 step=         370     theta[rad]=           3.8746
  C        -1.19183          1.48305        -0.15900
  C         0.05730          1.53391         0.28712
  C         1.18438          0.67088        -0.09273
  C         1.18570         -0.67326        -0.08987
  C         0.05415         -1.51740         0.29780
  C        -1.18104         -1.52307        -0.19295
  H         0.27708          2.20524         1.11477
  H         2.13842          1.17702        -0.20994
  H         2.15396         -1.15673        -0.18661
  H         0.29572         -2.26310         1.05467
  H        -2.01124         -1.94568         0.39351
  H        -1.48057         -0.86350        -0.99724
  H        -1.95250          2.17890         0.20539
  H        -1.43889          0.97127        -1.08044
14
 step=         371     theta[rad]=           3.8851
  C        -1.17711          1.52260        -0.19508
  C         0.05684          1.51502         0.29481
  C         1.17990          0.67186        -0.08713
  C         1.17820         -0.66880        -0.09081
  C         0.06089         -1.53622         0.28110
  C        -1.19098         -1.47120        -0.15148
  H         0.29597          2.25301         1.05895
  H         2.15124          1.14914        -0.18554
  H         2.13128         -1.17520        -0.21551
  H         0.27203         -2.17870         1.13613
  H        -1.92164         -2.24446         0.16709
  H        -1.43841         -1.00189        -1.10098
  H        -1.99708          1.94494         0.40866
  H        -1.49191          0.86349        -0.99416
14
 step=         372     theta[rad]=           3.8956
  C        -1.19106          1.48512        -0.16089
  C         0.05728          1.53292         0.28752
  C         1.18415          0.67093        -0.09244
  C         1.18531         -0.67302        -0.08992
  C         0.05450         -1.51838         0.29692
  C        -1.18155         -1.52036        -0.19079
  H         0.27806          2.20773         1.11186
  H         2.13908          1.17557        -0.20867
  H         2.15278         -1.15769        -0.18812
  H         0.29449         -2.25870         1.05892
  H        -2.00657         -1.96126         0.38170
  H        -1.47837         -0.87072        -1.00266
  H        -1.95483          2.16670         0.21600
  H        -1.44165          0.96564        -1.07594
14
 step=         373     theta[rad]=           3.9060
  C        -1.18547          1.50013        -0.17459
  C         0.05710          1.52575         0.29044
  C         1.18245          0.67130        -0.09031
  C         1.18246         -0.67133        -0.09028
  C         0.05706         -1.52553         0.29058
  C        -1.18533         -1.50067        -0.17504
  H         0.28524          2.22587         1.09067
  H         2.14395          1.16498        -0.19940
  H         2.14416         -1.16471        -0.19909
  H         0.28549         -2.22665         1.08985
  H        -1.97254         -2.07472         0.29572
  H        -1.46236         -0.92327        -1.04205
  H        -1.97175          2.07786         0.29318
  H        -1.46179          0.92472        -1.04317
14
 step=         374     theta[rad]=           3.9165
  C        -1.17952          1.51612        -0.18917
  C         0.05691          1.51812         0.29355
  C         1.18063          0.67170        -0.08805
  C         1.17943         -0.66953        -0.09066
  C         0.05979         -1.53314         0.28383
  C        -1.18935         -1.47970        -0.15828
  H         0.29287          2.24518         1.06810
  H         2.14914          1.15371        -0.18954
  H         2.13499         -1.17217        -0.21077
  H         0.27591         -2.19253         1.12278
  H        -1.93633         -2.19549         0.20420
  H        -1.44532         -0.97921        -1.08398
  H        -1.98977          1.98328         0.37535
  H        -1.48322          0.88115        -1.00830
14
 step=         375     theta[rad]=           3.9270
  C        -1.19367          1.47809        -0.15447
  C         0.05736          1.53628         0.28615
  C         1.18495          0.67076        -0.09344
  C         1.18664         -0.67382        -0.08975
  C         0.05330         -1.51504         0.29989
  C        -1.17979         -1.52958        -0.19816
  H         0.27471          2.19924         1.12178
  H         2.13681          1.18053        -0.21301
  H         2.15681         -1.15441        -0.18298
  H         0.29870         -2.27370         1.04444
  H        -2.02249         -1.90817         0.42194
  H        -1.48586         -0.84612        -0.98422
  H        -1.94691          2.20827         0.17987
  H        -1.43223          0.98480        -1.09127
14
 step=         376     theta[rad]=           3.9375
  C        -1.17959          1.51595        -0.18902
  C         0.05692          1.51820         0.29352
  C         1.18065          0.67169        -0.08807
  C         1.17946         -0.66955        -0.09065
  C         0.05976         -1.53306         0.28390
  C        -1.18931         -1.47992        -0.15845
  H         0.29279          2.24498         1.06833
  H         2.14908          1.15382        -0.18964
  H         2.13509         -1.17209        -0.21065
  H         0.27601         -2.19289         1.12244
  H        -1.93670         -2.19424         0.20515
  H        -1.44549         -0.97863        -1.08354
  H        -1.98958          1.98426         0.37450
  H        -1.48300          0.88160        -1.00866
14
 step=         377     theta[rad]=           3.9479
  C        -1.18512          1.50106        -0.17544
  C         0.05709          1.52531         0.29062
  C         1.18234          0.67132        -0.09018
  C         1.18229         -0.67123        -0.09030
  C         0.05722         -1.52597         0.29019
  C        -1.18556         -1.49945        -0.17406
  H         0.28568          2.22700         1.08935
  H         2.14426          1.16432        -0.19883
  H         2.14363         -1.16514        -0.19977
  H         0.28493         -2.22466         1.09177
  H        -1.97043         -2.08176         0.29038
  H        -1.46136         -0.92653        -1.04449
  H        -1.97281          2.07234         0.29798
  H        -1.46304          0.92218        -1.04114
14
 step=         378     theta[rad]=           3.9584
  C        -1.19160          1.48365        -0.15955
  C         0.05730          1.53362         0.28724
  C         1.18432          0.67089        -0.09265
  C         1.18559         -0.67319        -0.08988
  C         0.05425         -1.51769         0.29754
  C        -1.18119         -1.52228        -0.19232
  H         0.27737          2.20597         1.11392
  H         2.13861          1.17660        -0.20957
  H         2.15361         -1.15701        -0.18705
  H         0.29536         -2.26182         1.05591
  H        -2.00988         -1.95023         0.39007
  H        -1.47992         -0.86560        -0.99882
  H        -1.95318          2.17534         0.20849
  H        -1.43969          0.96963        -1.07912
14
 step=         379     theta[rad]=           3.9689
  C        -1.17714          1.52252        -0.19501
  C         0.05684          1.51506         0.29479
  C         1.17991          0.67185        -0.08714
  C         1.17822         -0.66881        -0.09081
  C         0.06088         -1.53619         0.28113
  C        -1.19096         -1.47131        -0.15156
  H         0.29593          2.25291         1.05906
  H         2.15121          1.14919        -0.18559
  H         2.13132         -1.17516        -0.21545
  H         0.27208         -2.17887         1.13597
  H        -1.92182         -2.24387         0.16754
  H        -1.43849         -1.00161        -1.10077
  H        -1.99699          1.94540         0.40826
  H        -1.49181          0.86370        -0.99433
14
 step=         380     theta[rad]=           3.9794
  C        -1.19026          1.48727        -0.16285
  C         0.05725          1.53189         0.28794
  C         1.18391          0.67098        -0.09214
  C         1.18490         -0.67278        -0.08997
  C         0.05487         -1.51941         0.29601
  C        -1.18210         -1.51754        -0.18853
  H         0.27909          2.21034         1.10882
  H         2.13978          1.17405        -0.20734
  H         2.15154         -1.15870        -0.18969
  H         0.29320         -2.25410         1.06336
  H        -2.00168         -1.97755         0.36936
  H        -1.47607         -0.87826        -1.00831
  H        -1.95726          2.15394         0.22708
  H        -1.44454          0.95977        -1.07123
14
 step=         381     theta[rad]=           3.9898
  C        -1.18719          1.49550        -0.17037
  C         0.05716          1.52796         0.28954
  C         1.18297          0.67119        -0.09097
  C         1.18334         -0.67185        -0.09017
  C         0.05627         -1.52333         0.29254
  C        -1.18417         -1.50674        -0.17989
  H         0.28303          2.22028         1.09720
  H         2.14245          1.16824        -0.20226
  H         2.14682         -1.16255        -0.19571
  H         0.28826         -2.23653         1.08032
  H        -1.98303         -2.03976         0.32221
  H        -1.46729         -0.90708        -1.02991
  H        -1.96654          2.10523         0.26940
  H        -1.45558          0.93733        -1.05327
14
 step=         382     theta[rad]=           4.0003
  C        -1.17808          1.52000        -0.19271
  C         0.05687          1.51626         0.29430
  C         1.18019          0.67179        -0.08750
  C         1.17870         -0.66909        -0.09075
  C         0.06045         -1.53499         0.28219
  C        -1.19032         -1.47461        -0.15421
  H         0.29472          2.24987         1.06262
  H         2.15040          1.15097        -0.18714
  H         2.13277         -1.17398        -0.21361
  H         0.27359         -2.18425         1.13077
  H        -1.92754         -2.22481         0.18198
  H        -1.44118         -0.99279        -1.09416
  H        -1.99414          1.96033         0.39530
  H        -1.48843          0.87058        -0.99983
14
 step=         383     theta[rad]=           4.0108
  C        -1.19309          1.47965        -0.15590
  C         0.05734          1.53553         0.28646
  C         1.18477          0.67080        -0.09322
  C         1.18635         -0.67364        -0.08979
  C         0.05357         -1.51578         0.29923
  C        -1.18018         -1.52753        -0.19652
  H         0.27545          2.20113         1.11957
  H         2.13731          1.17942        -0.21204
  H         2.15591         -1.15514        -0.18413
  H         0.29776         -2.27036         1.04767
  H        -2.01894         -1.91999         0.41298
  H        -1.48419         -0.85160        -0.98833
  H        -1.94867          2.19902         0.18792
  H        -1.43433          0.98053        -1.08786
14
 step=         384     theta[rad]=           4.0212
  C        -1.18282          1.50725        -0.18108
  C         0.05702          1.52235         0.29182
  C         1.18164          0.67148        -0.08931
  C         1.18111         -0.67053        -0.09045
  C         0.05827         -1.52892         0.28758
  C        -1.18712         -1.49134        -0.16758
  H         0.28864          2.23447         1.08062
  H         2.14626          1.15996        -0.19501
  H         2.14008         -1.16803        -0.20429
  H         0.28123         -2.21146         1.10451
  H        -1.95642         -2.12849         0.25497
  H        -1.45477         -0.94817        -1.06072
  H        -1.97978          2.03575         0.32977
  H        -1.47133          0.90532        -1.02765
14
 step=         385     theta[rad]=           4.0317
  C        -1.18087          1.51250        -0.18587
  C         0.05696          1.51985         0.29285
  C         1.18105          0.67161        -0.08856
  C         1.18012         -0.66994        -0.09057
  C         0.05917         -1.53142         0.28536
  C        -1.18844         -1.48445        -0.16207
  H         0.29114          2.24081         1.07321
  H         2.14796          1.15626        -0.19177
  H         2.13707         -1.17048        -0.20813
  H         0.27808         -2.20026         1.11532
  H        -1.94453         -2.16815         0.22492
  H        -1.44917         -0.96654        -1.07448
  H        -1.98569          2.00470         0.35675
  H        -1.47837          0.89102        -1.01619
14
 step=         386     theta[rad]=           4.0422
  C        -1.19364          1.47819        -0.15456
  C         0.05736          1.53623         0.28617
  C         1.18494          0.67076        -0.09342
  C         1.18663         -0.67380        -0.08975
  C         0.05332         -1.51508         0.29985
  C        -1.17981         -1.52945        -0.19805
  H         0.27475          2.19936         1.12164
  H         2.13684          1.18046        -0.21294
  H         2.15675         -1.15446        -0.18306
  H         0.29864         -2.27349         1.04465
  H        -2.02226         -1.90892         0.42137
  H        -1.48575         -0.84647        -0.98448
  H        -1.94702          2.20769         0.18038
  H        -1.43236          0.98453        -1.09105
14
 step=         387     theta[rad]=           4.0527
  C        -1.17971          1.51561        -0.18871
  C         0.05692          1.51836         0.29345
  C         1.18069          0.67168        -0.08812
  C         1.17953         -0.66959        -0.09065
  C         0.05970         -1.53290         0.28405
  C        -1.18922         -1.48036        -0.15880
  H         0.29263          2.24457         1.06881
  H         2.14898          1.15406        -0.18985
  H         2.13528         -1.17194        -0.21040
  H         0.27621         -2.19361         1.12174
  H        -1.93747         -2.19169         0.20707
  H        -1.44585         -0.97745        -1.08266
  H        -1.98920          1.98626         0.37277
  H        -1.48255          0.88252        -1.00939
14
 step=         388     theta[rad]=           4.0631
  C        -1.18400          1.50408        -0.17819
  C         0.05706          1.52387         0.29121
  C         1.18200          0.67140        -0.08975
  C         1.18172         -0.67089        -0.09037
  C         0.05773         -1.52741         0.28892
  C        -1.18632         -1.49549        -0.17090
  H         0.28712          2.23064         1.08509
  H         2.14523          1.16219        -0.19697
  H         2.14190         -1.16655        -0.20198
  H         0.28312         -2.21822         1.09798
  H        -1.96360         -2.10455         0.27312
  H        -1.45815         -0.93708        -1.05240
  H        -1.97620          2.05450         0.31348
  H        -1.46708          0.91396        -1.03456
14
 step=         389     theta[rad]=           4.0736
  C        -1.19277          1.48052        -0.15669
  C         0.05733          1.53512         0.28663
  C         1.18467          0.67082        -0.09309
  C         1.18618         -0.67354        -0.08981
  C         0.05371         -1.51619         0.29887
  C        -1.18040         -1.52640        -0.19561
  H         0.27587          2.20218         1.11835
  H         2.13759          1.17881        -0.21151
  H         2.15541         -1.15555        -0.18476
  H         0.29724         -2.26852         1.04945
  H        -2.01699         -1.92651         0.40804
  H        -1.48327         -0.85462        -0.99059
  H        -1.94965          2.19391         0.19236
  H        -1.43549          0.97818        -1.08597
14
 step=         390     theta[rad]=           4.0841
  C        -1.17800          1.52021        -0.19291
  C         0.05687          1.51616         0.29435
  C         1.18017          0.67180        -0.08747
  C         1.17866         -0.66907        -0.09076
  C         0.06049         -1.53509         0.28210
  C        -1.19038         -1.47433        -0.15398
  H         0.29483          2.25013         1.06232
  H         2.15047          1.15082        -0.18701
  H         2.13264         -1.17408        -0.21376
  H         0.27346         -2.18379         1.13122
  H        -1.92705         -2.22644         0.18074
  H        -1.44095         -0.99354        -1.09473
  H        -1.99439          1.95905         0.39641
  H        -1.48872          0.86999        -0.99936
14
 step=         391     theta[rad]=           4.0945
  C        -1.18660          1.49711        -0.17183
  C         0.05714          1.52720         0.28985
  C         1.18279          0.67123        -0.09074
  C         1.18304         -0.67167        -0.09020
  C         0.05654         -1.52409         0.29186
  C        -1.18457         -1.50463        -0.17821
  H         0.28379          2.22222         1.09493
  H         2.14297          1.16711        -0.20127
  H         2.14590         -1.16330        -0.19688
  H         0.28730         -2.23310         1.08363
  H        -1.97939         -2.05189         0.31302
  H        -1.46558         -0.91269        -1.03412
  H        -1.96835          2.09573         0.27765
  H        -1.45774          0.93295        -1.04977
14
 step=         392     theta[rad]=           4.1050
  C        -1.19143          1.48413        -0.15998
  C         0.05729          1.53340         0.28733
  C         1.18426          0.67091        -0.09258
  C         1.18550         -0.67314        -0.08989
  C         0.05433         -1.51791         0.29734
  C        -1.18131         -1.52166        -0.19183
  H         0.27759          2.20654         1.11326
  H         2.13876          1.17627        -0.20928
  H         2.15334         -1.15723        -0.18740
  H         0.29508         -2.26081         1.05688
  H        -2.00881         -1.95379         0.38737
  H        -1.47942         -0.86725        -1.00006
  H        -1.95371          2.17255         0.21091
  H        -1.44033          0.96834        -1.07810
14
 step=         393     theta[rad]=           4.1155
  C        -1.17730          1.52210        -0.19464
  C         0.05684          1.51526         0.29471
  C         1.17996          0.67184        -0.08720
  C         1.17830         -0.66886        -0.09080
  C         0.06081         -1.53599         0.28130
  C        -1.19085         -1.47185        -0.15200
  H         0.29573          2.25241         1.05965
  H         2.15108          1.14948        -0.18584
  H         2.13156         -1.17497        -0.21515
  H         0.27232         -2.17975         1.13511
  H        -1.92276         -2.24073         0.16991
  H        -1.43893         -1.00016        -1.09969
  H        -1.99652          1.94786         0.40613
  H        -1.49125          0.86483        -0.99523
14
 step=         394     theta[rad]=           4.1260
  C        -1.18836          1.49238        -0.16751
  C         0.05719          1.52945         0.28893
  C         1.18333          0.67111        -0.09141
  C         1.18393         -0.67221        -0.09009
  C         0.05574         -1.52184         0.29386
  C        -1.18338         -1.51083        -0.18317
  H         0.28153          2.21651         1.10161
  H         2.14144          1.17045        -0.20418
  H         2.14861         -1.16109        -0.19343
  H         0.29013         -2.24319         1.07389
  H        -1.99010         -2.01616         0.34010
  H        -1.47062         -0.89614        -1.02172
  H        -1.96302          2.12371         0.25335
  H        -1.45140          0.94584        -1.06008
14
 step=         395     theta[rad]=           4.1364
  C        -1.19026          1.48727        -0.16285
  C         0.05725          1.53189         0.28794
  C         1.18391          0.67098        -0.09214
  C         1.18490         -0.67278        -0.08997
  C         0.05487         -1.51941         0.29601
  C        -1.18210         -1.51754        -0.18853
  H         0.27909          2.21034         1.10882
  H         2.13978          1.17405        -0.20734
  H         2.15154         -1.15870        -0.18969
  H         0.29320         -2.25410         1.06336
  H        -2.00168         -1.97755         0.36936
  H        -1.47607         -0.87826        -1.00831
  H        -1.95726          2.15394         0.22708
  H        -1.44454          0.95977        -1.07123
14
 step=         396     theta[rad]=           4.1469
  C        -1.17711          1.52260        -0.19508
  C         0.05684          1.51502         0.29481
  C         1.17990          0.67186        -0.08713
  C         1.17820         -0.66880        -0.09081
  C         0.06089         -1.53622         0.28110
  C        -1.19098         -1.47120        -0.15148
  H         0.29597          2.25301         1.05895
  H         2.15124          1.14914        -0.18554
  H         2.13128         -1.17520        -0.21551
  H         0.27203         -2.17870         1.13613
  H        -1.92164         -2.24446         0.16709
  H        -1.43841         -1.00189        -1.10098
  H        -1.99708          1.94494         0.40866
  H        -1.49191          0.86349        -0.99416
14
 step=         397     theta[rad]=           4.1574
  C        -1.18930          1.48984        -0.16519
  C         0.05722          1.53067         0.28844
  C         1.18361          0.67105        -0.09177
  C         1.18442         -0.67249        -0.09003
  C         0.05530         -1.52063         0.29493
  C        -1.18274         -1.51417        -0.18584
  H         0.28032          2.21344         1.10520
  H         2.14062          1.17224        -0.20575
  H         2.15007         -1.15990        -0.19157
  H         0.29166         -2.24862         1.06865
  H        -1.99587         -1.99694         0.35466
  H        -1.47333         -0.88724        -1.01504
  H        -1.96015          2.13876         0.24027
  H        -1.44799          0.95277        -1.06563
14
 step=         398     theta[rad]=           4.1678
  C        -1.18960          1.48902        -0.16445
  C         0.05723          1.53106         0.28828
  C         1.18371          0.67103        -0.09189
  C         1.18457         -0.67258        -0.09001
  C         0.05516         -1.52024         0.29527
  C        -1.18254         -1.51524        -0.18669
  H         0.27993          2.21246         1.10634
  H         2.14035          1.17281        -0.20626
  H         2.15053         -1.15952        -0.19098
  H         0.29214         -2.25036         1.06697
  H        -1.99771         -1.99080         0.35932
  H        -1.47420         -0.88440        -1.01291
  H        -1.95924          2.14356         0.23609
  H        -1.44690          0.95499        -1.06741
14
 step=         399     theta[rad]=           4.1783
  C        -1.17710          1.52264        -0.19512
  C         0.05684          1.51500         0.29482
  C         1.17990          0.67186        -0.08712
  C         1.17820         -0.66880        -0.09081
  C         0.06090         -1.53624         0.28108
  C        -1.19099         -1.47115        -0.15143
  H         0.29599          2.25306         1.05889
  H         2.15125          1.14910        -0.18551
  H         2.13125         -1.17522        -0.21554
  H         0.27200         -2.17861         1.13622
  H        -1.92154         -2.24479         0.16684
  H        -1.43836         -1.00204        -1.10109
  H        -1.99713          1.94468         0.40889
  H        -1.49197          0.86337        -0.99406
14
 step=         400     theta[rad]=           4.1888
  C        -1.18953          1.48923        -0.16464
  C         0.05723          1.53096         0.28832
  C         1.18368          0.67103        -0.09186
  C         1.18453         -0.67256        -0.09002
  C         0.05520         -1.52034         0.29519
  C        -1.18259         -1.51497        -0.18648
  H         0.28003          2.21270         1.10606
  H         2.14042          1.17267        -0.20613
  H         2.15042         -1.15961        -0.19112
  H         0.29202         -2.24993         1.06739
  H        -1.99725         -1.99232         0.35816
  H        -1.47398         -0.88510        -1.01344
  H        -1.95946          2.14237         0.23713
  H        -1.44717          0.95444        -1.06697
14
 step=         401     theta[rad]=           4.1993
  C        -1.18960          1.48902        -0.16445
  C         0.05723          1.53106         0.28828
  C         1.18371          0.67103        -0.09189
  C         1.18457         -0.67258        -0.09001
  C         0.05516         -1.52024         0.29527
  C        -1.18254         -1.51524        -0.18669
  H         0.27993          2.21246         1.10634
  H         2.14035          1.17281        -0.20626
  H         2.15053         -1.15952        -0.19098
  H         0.29214         -2.25036         1.06697
  H        -1.99771         -1.99080         0.35932
  H        -1.47420         -0.88440        -1.01291
  H        -1.95924          2.14356         0.23609
  H        -1.44690          0.95499        -1.06741
14
 step=         402     theta[rad]=           4.2097
  C        -1.17710          1.52263        -0.19511
  C         0.05684          1.51501         0.29482
  C         1.17990          0.67186        -0.08713
  C         1.17820         -0.66880        -0.09081
  C         0.06090         -1.53624         0.28108
  C        -1.19099         -1.47116        -0.15145
  H         0.29598          2.25305         1.05891
  H         2.15125          1.14911        -0.18552
  H         2.13126         -1.17521        -0.21553
  H         0.27201         -2.17863         1.13620
  H        -1.92157         -2.24470         0.16690
  H        -1.43837         -1.00200        -1.10107
  H        -1.99711          1.94475         0.40883
  H        -1.49196          0.86340        -0.99409
14
 step=         403     theta[rad]=           4.2202
  C        -1.18907          1.49046        -0.16576
  C         0.05722          1.53037         0.28856
  C         1.18354          0.67106        -0.09168
  C         1.18430         -0.67242        -0.09005
  C         0.05541         -1.52092         0.29467
  C        -1.18290         -1.51336        -0.18518
  H         0.28062          2.21419         1.10432
  H         2.14082          1.17180        -0.20537
  H         2.14971         -1.16019        -0.19202
  H         0.29128         -2.24729         1.06993
  H        -1.99446         -2.00164         0.35110
  H        -1.47267         -0.88942        -1.01668
  H        -1.96085          2.13508         0.24347
  H        -1.44882          0.95108        -1.06428
14
 step=         404     theta[rad]=           4.2307
  C        -1.19026          1.48727        -0.16285
  C         0.05725          1.53189         0.28794
  C         1.18391          0.67098        -0.09214
  C         1.18490         -0.67278        -0.08997
  C         0.05487         -1.51941         0.29601
  C        -1.18210         -1.51754        -0.18853
  H         0.27909          2.21034         1.10882
  H         2.13978          1.17405        -0.20734
  H         2.15154         -1.15870        -0.18969
  H         0.29320         -2.25410         1.06336
  H        -2.00168         -1.97755         0.36936
  H        -1.47607         -0.87826        -1.00831
  H        -1.95726          2.15394         0.22708
  H        -1.44454          0.95977        -1.07123
14
 step=         405     theta[rad]=           4.2412
  C        -1.17720          1.52237        -0.19487
  C         0.05684          1.51513         0.29476
  C         1.17993          0.67185        -0.08716
  C         1.17825         -0.66883        -0.09081
  C         0.06085         -1.53611         0.28119
  C        -1.19092         -1.47151        -0.15172
  H         0.29586          2.25273         1.05928
  H         2.15116          1.14930        -0.18568
  H         2.13141         -1.17509        -0.21534
  H         0.27217         -2.17919         1.13565
  H        -1.92217         -2.24272         0.16841
  H        -1.43865         -1.00108        -1.10038
  H        -1.99682          1.94630         0.40748
  H        -1.49160          0.86412        -0.99466
14
 step=         406     theta[rad]=           4.2516
  C        -1.18786          1.49370        -0.16872
  C         0.05718          1.52882         0.28919
  C         1.18318          0.67114        -0.09123
  C         1.18368         -0.67206        -0.09012
  C         0.05596         -1.52247         0.29330
  C        -1.18371         -1.50910        -0.18178
  H         0.28217          2.21811         1.09974
  H         2.14187          1.16951        -0.20337
  H         2.14785         -1.16170        -0.19439
  H         0.28934         -2.24037         1.07661
  H        -1.98711         -2.02615         0.33253
  H        -1.46921         -0.90077        -1.02518
  H        -1.96451          2.11589         0.26014
  H        -1.45317          0.94224        -1.05720
14
 step=         407     theta[rad]=           4.2621
  C        -1.19143          1.48413        -0.15998
  C         0.05729          1.53340         0.28733
  C         1.18426          0.67091        -0.09258
  C         1.18550         -0.67314        -0.08989
  C         0.05433         -1.51791         0.29734
  C        -1.18131         -1.52166        -0.19183
  H         0.27759          2.20654         1.11326
  H         2.13876          1.17627        -0.20928
  H         2.15334         -1.15723        -0.18740
  H         0.29508         -2.26081         1.05688
  H        -2.00881         -1.95379         0.38737
  H        -1.47942         -0.86725        -1.00006
  H        -1.95371          2.17255         0.21091
  H        -1.44033          0.96834        -1.07810
14
 step=         408     theta[rad]=           4.2726
  C        -1.17768          1.52108        -0.19370
  C         0.05686          1.51575         0.29451
  C         1.18007          0.67182        -0.08735
  C         1.17849         -0.66897        -0.09078
  C         0.06063         -1.53550         0.28174
  C        -1.19059         -1.47320        -0.15307
  H         0.29524          2.25117         1.06110
  H         2.15075          1.15021        -0.18648
  H         2.13215         -1.17449        -0.21439
  H         0.27294         -2.18195         1.13300
  H        -1.92509         -2.23297         0.17580
  H        -1.44003         -0.99657        -1.09699
  H        -1.99536          1.95394         0.40085
  H        -1.48987          0.86763        -0.99747
14
 step=         409     theta[rad]=           4.2830
  C        -1.18582          1.49920        -0.17374
  C         0.05711          1.52620         0.29026
  C         1.18255          0.67128        -0.09045
  C         1.18264         -0.67144        -0.09025
  C         0.05690         -1.52508         0.29098
  C        -1.18509         -1.50189        -0.17602
  H         0.28479          2.22474         1.09198
  H         2.14365          1.16564        -0.19998
  H         2.14470         -1.16427        -0.19841
  H         0.28605         -2.22864         1.08793
  H        -1.97466         -2.06767         0.30106
  H        -1.46335         -0.92000        -1.03960
  H        -1.97070          2.08337         0.28839
  H        -1.46054          0.92726        -1.04521
14
 step=         410     theta[rad]=           4.2935
  C        -1.19277          1.48052        -0.15669
  C         0.05733          1.53512         0.28663
  C         1.18467          0.67082        -0.09309
  C         1.18618         -0.67354        -0.08981
  C         0.05371         -1.51619         0.29887
  C        -1.18040         -1.52640        -0.19561
  H         0.27587          2.20218         1.11835
  H         2.13759          1.17881        -0.21151
  H         2.15541         -1.15555        -0.18476
  H         0.29724         -2.26852         1.04945
  H        -2.01699         -1.92651         0.40804
  H        -1.48327         -0.85462        -0.99059
  H        -1.94965          2.19391         0.19236
  H        -1.43549          0.97818        -1.08597
14
 step=         411     theta[rad]=           4.3040
  C        -1.17900          1.51753        -0.19046
  C         0.05690          1.51744         0.29382
  C         1.18047          0.67173        -0.08785
  C         1.17917         -0.66937        -0.09069
  C         0.06003         -1.53381         0.28324
  C        -1.18970         -1.47785        -0.15680
  H         0.29355          2.24689         1.06611
  H         2.14960          1.15271        -0.18867
  H         2.13418         -1.17283        -0.21180
  H         0.27507         -2.18952         1.12569
  H        -1.93313         -2.20616         0.19611
  H        -1.44381         -0.98415        -1.08768
  H        -1.99136          1.97493         0.38261
  H        -1.48512          0.87730        -1.00522
14
 step=         412     theta[rad]=           4.3145
  C        -1.18299          1.50680        -0.18067
  C         0.05702          1.52257         0.29174
  C         1.18169          0.67147        -0.08937
  C         1.18120         -0.67058        -0.09044
  C         0.05820         -1.52871         0.28777
  C        -1.18701         -1.49192        -0.16804
  H         0.28842          2.23393         1.08125
  H         2.14612          1.16027        -0.19528
  H         2.14034         -1.16782        -0.20397
  H         0.28149         -2.21241         1.10359
  H        -1.95743         -2.12512         0.25752
  H        -1.45524         -0.94661        -1.05955
  H        -1.97927          2.03838         0.32748
  H        -1.47073          0.90653        -1.02862
14
 step=         413     theta[rad]=           4.3249
  C        -1.19364          1.47819        -0.15456
  C         0.05736          1.53623         0.28617
  C         1.18494          0.67076        -0.09342
  C         1.18663         -0.67380        -0.08975
  C         0.05332         -1.51508         0.29985
  C        -1.17981         -1.52945        -0.19805
  H         0.27475          2.19936         1.12164
  H         2.13684          1.18046        -0.21294
  H         2.15675         -1.15446        -0.18306
  H         0.29864         -2.27349         1.04465
  H        -2.02226         -1.90892         0.42137
  H        -1.48575         -0.84647        -0.98448
  H        -1.94702          2.20769         0.18038
  H        -1.43236          0.98453        -1.09105
14
 step=         414     theta[rad]=           4.3354
  C        -1.18162          1.51048        -0.18403
  C         0.05698          1.52081         0.29245
  C         1.18127          0.67156        -0.08885
  C         1.18050         -0.67017        -0.09052
  C         0.05883         -1.53045         0.28621
  C        -1.18793         -1.48710        -0.16419
  H         0.29018          2.23837         1.07606
  H         2.14731          1.15768        -0.19302
  H         2.13823         -1.16954        -0.20665
  H         0.27929         -2.20457         1.11116
  H        -1.94910         -2.15289         0.23648
  H        -1.45133         -0.95947        -1.06919
  H        -1.98342          2.01664         0.34637
  H        -1.47566          0.89652        -1.02060
14
 step=         415     theta[rad]=           4.3459
  C        -1.17984          1.51527        -0.18840
  C         0.05692          1.51852         0.29338
  C         1.18073          0.67167        -0.08817
  C         1.17959         -0.66963        -0.09064
  C         0.05964         -1.53274         0.28419
  C        -1.18914         -1.48081        -0.15916
  H         0.29247          2.24416         1.06929
  H         2.14886          1.15430        -0.19006
  H         2.13548         -1.17178        -0.21015
  H         0.27642         -2.19434         1.12104
  H        -1.93824         -2.18910         0.20904
  H        -1.44622         -0.97625        -1.08176
  H        -1.98882          1.98829         0.37100
  H        -1.48209          0.88346        -1.01014
14
 step=         416     theta[rad]=           4.3563
  C        -1.19309          1.47965        -0.15590
  C         0.05734          1.53553         0.28646
  C         1.18477          0.67080        -0.09322
  C         1.18635         -0.67364        -0.08979
  C         0.05357         -1.51578         0.29923
  C        -1.18018         -1.52753        -0.19652
  H         0.27545          2.20113         1.11957
  H         2.13731          1.17942        -0.21204
  H         2.15591         -1.15514        -0.18413
  H         0.29776         -2.27036         1.04767
  H        -2.01894         -1.91999         0.41298
  H        -1.48419         -0.85160        -0.98833
  H        -1.94867          2.19902         0.18792
  H        -1.43433          0.98053        -1.08786
14
 step=         417     theta[rad]=           4.3668
  C        -1.18565          1.49966        -0.17416
  C         0.05711          1.52598         0.29035
  C         1.18250          0.67129        -0.09038
  C         1.18255         -0.67138        -0.09027
  C         0.05698         -1.52531         0.29078
  C        -1.18521         -1.50128        -0.17553
  H         0.28501          2.22531         1.09132
  H         2.14380          1.16531        -0.19969
  H         2.14443         -1.16449        -0.19875
  H         0.28577         -2.22765         1.08889
  H        -1.97360         -2.07119         0.29840
  H        -1.46285         -0.92163        -1.04082
  H        -1.97123          2.08062         0.29079
  H        -1.46116          0.92599        -1.04419
14
 step=         418     theta[rad]=           4.3773
  C        -1.17748          1.52162        -0.19419
  C         0.05685          1.51549         0.29462
  C         1.18001          0.67183        -0.08727
  C         1.17839         -0.66891        -0.09079
  C         0.06073         -1.53576         0.28151
  C        -1.19073         -1.47248        -0.15250
  H         0.29550          2.25183         1.06033
  H         2.15092          1.14982        -0.18614
  H         2.13184         -1.17474        -0.21479
  H         0.27261         -2.18078         1.13412
  H        -1.92385         -2.23709         0.17268
  H        -1.43945         -0.99847        -1.09842
  H        -1.99598          1.95071         0.40365
  H        -1.49060          0.86615        -0.99629
14
 step=         419     theta[rad]=           4.3878
  C        -1.19026          1.48727        -0.16285
  C         0.05725          1.53189         0.28794
  C         1.18391          0.67098        -0.09214
  C         1.18490         -0.67278        -0.08997
  C         0.05487         -1.51941         0.29601
  C        -1.18210         -1.51754        -0.18853
  H         0.27909          2.21034         1.10882
  H         2.13978          1.17405        -0.20734
  H         2.15154         -1.15870        -0.18969
  H         0.29320         -2.25410         1.06336
  H        -2.00168         -1.97755         0.36936
  H        -1.47607         -0.87826        -1.00831
  H        -1.95726          2.15394         0.22708
  H        -1.44454          0.95977        -1.07123
14
 step=         420     theta[rad]=           4.3982
  C        -1.19026          1.48727        -0.16285
  C         0.05725          1.53189         0.28794
  C         1.18391          0.67098        -0.09214
  C         1.18490         -0.67278        -0.08997
  C         0.05487         -1.51941         0.29601
  C        -1.18210         -1.51754        -0.18853
  H         0.27909          2.21034         1.10882
  H         2.13978          1.17405        -0.20734
  H         2.15154         -1.15870        -0.18969
  H         0.29320         -2.25410         1.06336
  H        -2.00168         -1.97755         0.36936
  H        -1.47607         -0.87826        -1.00831
  H        -1.95726          2.15394         0.22708
  H        -1.44454          0.95977        -1.07123
14
 step=         421     theta[rad]=           4.4087
  C        -1.17753          1.52148        -0.19406
  C         0.05685          1.51556         0.29459
  C         1.18003          0.67183        -0.08729
  C         1.17842         -0.66893        -0.09079
  C         0.06070         -1.53569         0.28157
  C        -1.19070         -1.47267        -0.15265
  H         0.29543          2.25166         1.06053
  H         2.15088          1.14992        -0.18623
  H         2.13192         -1.17467        -0.21469
  H         0.27270         -2.18109         1.13382
  H        -1.92418         -2.23600         0.17350
  H        -1.43960         -0.99797        -1.09804
  H        -1.99581          1.95157         0.40291
  H        -1.49041          0.86654        -0.99660
14
 step=         422     theta[rad]=           4.4192
  C        -1.18512          1.50106        -0.17544
  C         0.05709          1.52531         0.29062
  C         1.18234          0.67132        -0.09018
  C         1.18229         -0.67123        -0.09030
  C         0.05722         -1.52597         0.29019
  C        -1.18556         -1.49945        -0.17406
  H         0.28568          2.22700         1.08935
  H         2.14426          1.16432        -0.19883
  H         2.14363         -1.16514        -0.19977
  H         0.28493         -2.22466         1.09177
  H        -1.97043         -2.08176         0.29038
  H        -1.46136         -0.92653        -1.04449
  H        -1.97281          2.07234         0.29798
  H        -1.46304          0.92218        -1.04114
14
 step=         423     theta[rad]=           4.4296
  C        -1.19341          1.47879        -0.15511
  C         0.05735          1.53595         0.28629
  C         1.18487          0.67077        -0.09334
  C         1.18651         -0.67374        -0.08977
  C         0.05342         -1.51537         0.29960
  C        -1.17996         -1.52866        -0.19742
  H         0.27504          2.20009         1.12079
  H         2.13703          1.18003        -0.21257
  H         2.15641         -1.15474        -0.18350
  H         0.29828         -2.27221         1.04589
  H        -2.02090         -1.91346         0.41793
  H        -1.48511         -0.84857        -0.98606
  H        -1.94770          2.20413         0.18347
  H        -1.43317          0.98289        -1.08974
14
 step=         424     theta[rad]=           4.4401
  C        -1.18124          1.51150        -0.18496
  C         0.05697          1.52032         0.29265
  C         1.18116          0.67158        -0.08870
  C         1.18031         -0.67005        -0.09055
  C         0.05900         -1.53094         0.28578
  C        -1.18819         -1.48576        -0.16312
  H         0.29067          2.23961         1.07461
  H         2.14764          1.15696        -0.19238
  H         2.13764         -1.17002        -0.20740
  H         0.27868         -2.20238         1.11328
  H        -1.94678         -2.16063         0.23061
  H        -1.45023         -0.96306        -1.07188
  H        -1.98457          2.01058         0.35164
  H        -1.47704          0.89373        -1.01836
14
 step=         425     theta[rad]=           4.4506
  C        -1.17952          1.51612        -0.18917
  C         0.05691          1.51812         0.29355
  C         1.18063          0.67170        -0.08805
  C         1.17943         -0.66953        -0.09066
  C         0.05979         -1.53314         0.28383
  C        -1.18935         -1.47970        -0.15828
  H         0.29287          2.24518         1.06810
  H         2.14914          1.15371        -0.18954
  H         2.13499         -1.17217        -0.21077
  H         0.27591         -2.19253         1.12278
  H        -1.93633         -2.19549         0.20420
  H        -1.44532         -0.97921        -1.08398
  H        -1.98977          1.98328         0.37535
  H        -1.48322          0.88115        -1.00830
14
 step=         426     theta[rad]=           4.4611
  C        -1.19252          1.48119        -0.15730
  C         0.05733          1.53480         0.28676
  C         1.18460          0.67083        -0.09300
  C         1.18606         -0.67347        -0.08982
  C         0.05383         -1.51651         0.29858
  C        -1.18057         -1.52551        -0.19490
  H         0.27619          2.20299         1.11740
  H         2.13781          1.17834        -0.21109
  H         2.15503         -1.15586        -0.18525
  H         0.29684         -2.26708         1.05083
  H        -2.01546         -1.93161         0.40418
  H        -1.48255         -0.85698        -0.99236
  H        -1.95041          2.18992         0.19582
  H        -1.43639          0.97634        -1.08450
14
 step=         427     theta[rad]=           4.4715
  C        -1.18778          1.49393        -0.16892
  C         0.05718          1.52872         0.28923
  C         1.18315          0.67115        -0.09119
  C         1.18364         -0.67203        -0.09013
  C         0.05600         -1.52257         0.29320
  C        -1.18377         -1.50881        -0.18155
  H         0.28227          2.21838         1.09942
  H         2.14194          1.16936        -0.20323
  H         2.14772         -1.16181        -0.19456
  H         0.28921         -2.23990         1.07707
  H        -1.98660         -2.02783         0.33126
  H        -1.46897         -0.90155        -1.02577
  H        -1.96476          2.11457         0.26129
  H        -1.45347          0.94163        -1.05671
14
 step=         428     theta[rad]=           4.4820
  C        -1.17711          1.52260        -0.19508
  C         0.05684          1.51502         0.29481
  C         1.17990          0.67186        -0.08713
  C         1.17820         -0.66880        -0.09081
  C         0.06089         -1.53622         0.28110
  C        -1.19098         -1.47120        -0.15148
  H         0.29597          2.25301         1.05895
  H         2.15124          1.14914        -0.18554
  H         2.13128         -1.17520        -0.21551
  H         0.27203         -2.17870         1.13613
  H        -1.92164         -2.24446         0.16709
  H        -1.43841         -1.00189        -1.10098
  H        -1.99708          1.94494         0.40866
  H        -1.49191          0.86349        -0.99416
14
 step=         429     theta[rad]=           4.4925
  C        -1.18668          1.49688        -0.17162
  C         0.05714          1.52731         0.28981
  C         1.18282          0.67122        -0.09077
  C         1.18308         -0.67170        -0.09020
  C         0.05651         -1.52398         0.29196
  C        -1.18451         -1.50493        -0.17845
  H         0.28368          2.22194         1.09526
  H         2.14290          1.16727        -0.20141
  H         2.14603         -1.16319        -0.19671
  H         0.28744         -2.23359         1.08315
  H        -1.97991         -2.05015         0.31434
  H        -1.46582         -0.91189        -1.03352
  H        -1.96809          2.09709         0.27647
  H        -1.45743          0.93358        -1.05027
14
 step=         430     theta[rad]=           4.5029
  C        -1.19312          1.47957        -0.15582
  C         0.05735          1.53557         0.28644
  C         1.18478          0.67079        -0.09323
  C         1.18636         -0.67365        -0.08979
  C         0.05355         -1.51574         0.29927
  C        -1.18016         -1.52764        -0.19661
  H         0.27541          2.20103         1.11969
  H         2.13729          1.17948        -0.21209
  H         2.15596         -1.15510        -0.18407
  H         0.29781         -2.27054         1.04749
  H        -2.01914         -1.91935         0.41347
  H        -1.48428         -0.85130        -0.98810
  H        -1.94858          2.19952         0.18748
  H        -1.43421          0.98076        -1.08804
14
 step=         431     theta[rad]=           4.5134
  C        -1.18094          1.51230        -0.18569
  C         0.05696          1.51994         0.29281
  C         1.18107          0.67160        -0.08859
  C         1.18016         -0.66996        -0.09057
  C         0.05914         -1.53132         0.28544
  C        -1.18839         -1.48471        -0.16228
  H         0.29105          2.24057         1.07349
  H         2.14790          1.15640        -0.19189
  H         2.13718         -1.17039        -0.20798
  H         0.27820         -2.20068         1.11492
  H        -1.94497         -2.16666         0.22604
  H        -1.44938         -0.96585        -1.07397
  H        -1.98547          2.00586         0.35574
  H        -1.47811          0.89155        -1.01662
14
 step=         432     theta[rad]=           4.5239
  C        -1.17934          1.51660        -0.18962
  C         0.05691          1.51789         0.29364
  C         1.18058          0.67171        -0.08798
  C         1.17934         -0.66948        -0.09067
  C         0.05987         -1.53337         0.28363
  C        -1.18947         -1.47907        -0.15777
  H         0.29310          2.24577         1.06741
  H         2.14930          1.15336        -0.18924
  H         2.13471         -1.17240        -0.21113
  H         0.27562         -2.19149         1.12378
  H        -1.93522         -2.19917         0.20141
  H        -1.44480         -0.98091        -1.08526
  H        -1.99032          1.98040         0.37785
  H        -1.48388          0.87982        -1.00723
14
 step=         433     theta[rad]=           4.5344
  C        -1.19204          1.48248        -0.15848
  C         0.05731          1.53418         0.28701
  C         1.18445          0.67087        -0.09282
  C         1.18581         -0.67332        -0.08985
  C         0.05405         -1.51713         0.29804
  C        -1.18089         -1.52382        -0.19355
  H         0.27680          2.20455         1.11558
  H         2.13823          1.17743        -0.21029
  H         2.15429         -1.15646        -0.18619
  H         0.29607         -2.26432         1.05349
  H        -2.01254         -1.94136         0.39679
  H        -1.48118         -0.86150        -0.99574
  H        -1.95186          2.18228         0.20245
  H        -1.43812          0.97283        -1.08168
14
 step=         434     theta[rad]=           4.5448
  C        -1.18915          1.49025        -0.16557
  C         0.05722          1.53047         0.28852
  C         1.18357          0.67106        -0.09171
  C         1.18434         -0.67245        -0.09004
  C         0.05537         -1.52083         0.29476
  C        -1.18285         -1.51363        -0.18540
  H         0.28052          2.21394         1.10461
  H         2.14075          1.17195        -0.20550
  H         2.14983         -1.16009        -0.19187
  H         0.29141         -2.24774         1.06950
  H        -1.99493         -2.00007         0.35230
  H        -1.47289         -0.88869        -1.01613
  H        -1.96062          2.13631         0.24240
  H        -1.44854          0.95165        -1.06473
14
 step=         435     theta[rad]=           4.5553
  C        -1.17750          1.52155        -0.19413
  C         0.05685          1.51552         0.29461
  C         1.18002          0.67183        -0.08728
  C         1.17840         -0.66892        -0.09079
  C         0.06072         -1.53573         0.28154
  C        -1.19071         -1.47258        -0.15258
  H         0.29547          2.25174         1.06043
  H         2.15090          1.14987        -0.18618
  H         2.13188         -1.17471        -0.21474
  H         0.27266         -2.18093         1.13397
  H        -1.92401         -2.23655         0.17308
  H        -1.43952         -0.99823        -1.09823
  H        -1.99590          1.95113         0.40328
  H        -1.49051          0.86634        -0.99644
14
 step=         436     theta[rad]=           4.5658
  C        -1.18400          1.50408        -0.17819
  C         0.05706          1.52387         0.29121
  C         1.18200          0.67140        -0.08975
  C         1.18172         -0.67089        -0.09037
  C         0.05773         -1.52741         0.28892
  C        -1.18632         -1.49549        -0.17090
  H         0.28712          2.23064         1.08509
  H         2.14523          1.16219        -0.19697
  H         2.14190         -1.16655        -0.20198
  H         0.28312         -2.21822         1.09798
  H        -1.96360         -2.10455         0.27312
  H        -1.45815         -0.93708        -1.05240
  H        -1.97620          2.05450         0.31348
  H        -1.46708          0.91396        -1.03456
14
 step=         437     theta[rad]=           4.5763
  C        -1.19367          1.47810        -0.15448
  C         0.05736          1.53627         0.28616
  C         1.18495          0.67076        -0.09344
  C         1.18664         -0.67381        -0.08975
  C         0.05330         -1.51504         0.29989
  C        -1.17979         -1.52957        -0.19815
  H         0.27471          2.19926         1.12177
  H         2.13681          1.18052        -0.21300
  H         2.15680         -1.15442        -0.18299
  H         0.29869         -2.27368         1.04447
  H        -2.02246         -1.90825         0.42188
  H        -1.48585         -0.84616        -0.98425
  H        -1.94692          2.20821         0.17993
  H        -1.43225          0.98477        -1.09124
14
 step=         438     theta[rad]=           4.5867
  C        -1.18460          1.50246        -0.17671
  C         0.05708          1.52464         0.29089
  C         1.18218          0.67136        -0.08998
  C         1.18202         -0.67107        -0.09033
  C         0.05746         -1.52664         0.28960
  C        -1.18591         -1.49761        -0.17260
  H         0.28635          2.22869         1.08738
  H         2.14471          1.16334        -0.19796
  H         2.14283         -1.16579        -0.20079
  H         0.28409         -2.22168         1.09465
  H        -1.96727         -2.09232         0.28239
  H        -1.45987         -0.93142        -1.04816
  H        -1.97438          2.06407         0.30516
  H        -1.46491          0.91837        -1.03809
14
 step=         439     theta[rad]=           4.5972
  C        -1.17728          1.52215        -0.19468
  C         0.05684          1.51523         0.29472
  C         1.17995          0.67184        -0.08719
  C         1.17829         -0.66885        -0.09080
  C         0.06082         -1.53601         0.28128
  C        -1.19087         -1.47179        -0.15194
  H         0.29576          2.25247         1.05958
  H         2.15110          1.14945        -0.18581
  H         2.13153         -1.17499        -0.21518
  H         0.27229         -2.17965         1.13522
  H        -1.92265         -2.24111         0.16963
  H        -1.43888         -1.00034        -1.09982
  H        -1.99658          1.94756         0.40639
  H        -1.49132          0.86470        -0.99512
14
 step=         440     theta[rad]=           4.6077
  C        -1.18795          1.49348        -0.16852
  C         0.05718          1.52893         0.28915
  C         1.18320          0.67114        -0.09126
  C         1.18373         -0.67208        -0.09012
  C         0.05593         -1.52236         0.29339
  C        -1.18366         -1.50939        -0.18202
  H         0.28206          2.21784         1.10005
  H         2.14180          1.16967        -0.20351
  H         2.14798         -1.16160        -0.19423
  H         0.28947         -2.24085         1.07615
  H        -1.98761         -2.02447         0.33380
  H        -1.46945         -0.89999        -1.02460
  H        -1.96426          2.11720         0.25900
  H        -1.45287          0.94284        -1.05768
14
 step=         441     theta[rad]=           4.6181
  C        -1.19299          1.47992        -0.15614
  C         0.05734          1.53540         0.28651
  C         1.18474          0.67080        -0.09318
  C         1.18630         -0.67361        -0.08979
  C         0.05361         -1.51591         0.29912
  C        -1.18025         -1.52718        -0.19624
  H         0.27558          2.20146         1.11920
  H         2.13740          1.17923        -0.21187
  H         2.15576         -1.15527        -0.18432
  H         0.29760         -2.26979         1.04822
  H        -2.01834         -1.92201         0.41145
  H        -1.48391         -0.85253        -0.98903
  H        -1.94897          2.19743         0.18929
  H        -1.43469          0.97980        -1.08727
14
 step=         442     theta[rad]=           4.6286
  C        -1.18147          1.51089        -0.18440
  C         0.05698          1.52061         0.29253
  C         1.18123          0.67157        -0.08879
  C         1.18042         -0.67012        -0.09053
  C         0.05890         -1.53065         0.28604
  C        -1.18803         -1.48656        -0.16376
  H         0.29038          2.23887         1.07548
  H         2.14744          1.15739        -0.19276
  H         2.13799         -1.16973        -0.20695
  H         0.27904         -2.20369         1.11202
  H        -1.94817         -2.15601         0.23412
  H        -1.45089         -0.96092        -1.07027
  H        -1.98388          2.01420         0.34849
  H        -1.47622          0.89539        -1.01970
14
 step=         443     theta[rad]=           4.6391
  C        -1.17839          1.51917        -0.19196
  C         0.05688          1.51666         0.29414
  C         1.18029          0.67177        -0.08762
  C         1.17885         -0.66919        -0.09073
  C         0.06031         -1.53459         0.28254
  C        -1.19012         -1.47570        -0.15507
  H         0.29433          2.24887         1.06378
  H         2.15013          1.15155        -0.18765
  H         2.13324         -1.17360        -0.21300
  H         0.27408         -2.18601         1.12908
  H        -1.92940         -2.21859         0.18669
  H        -1.44206         -0.98991        -1.09200
  H        -1.99322          1.96520         0.39106
  H        -1.48732          0.87282        -1.00163
14
 step=         444     theta[rad]=           4.6496
  C        -1.19026          1.48727        -0.16285
  C         0.05725          1.53189         0.28794
  C         1.18391          0.67098        -0.09214
  C         1.18490         -0.67278        -0.08997
  C         0.05487         -1.51941         0.29601
  C        -1.18210         -1.51754        -0.18853
  H         0.27909          2.21034         1.10882
  H         2.13978          1.17405        -0.20734
  H         2.15154         -1.15870        -0.18969
  H         0.29320         -2.25410         1.06336
  H        -2.00168         -1.97755         0.36936
  H        -1.47607         -0.87826        -1.00831
  H        -1.95726          2.15394         0.22708
  H        -1.44454          0.95977        -1.07123
14
 step=         445     theta[rad]=           4.6600
  C        -1.19183          1.48305        -0.15900
  C         0.05730          1.53391         0.28712
  C         1.18438          0.67088        -0.09273
  C         1.18570         -0.67326        -0.08987
  C         0.05415         -1.51740         0.29780
  C        -1.18104         -1.52307        -0.19295
  H         0.27708          2.20524         1.11477
  H         2.13842          1.17702        -0.20994
  H         2.15396         -1.15673        -0.18661
  H         0.29572         -2.26310         1.05467
  H        -2.01124         -1.94568         0.39351
  H        -1.48057         -0.86350        -0.99724
  H        -1.95250          2.17890         0.20539
  H        -1.43889          0.97127        -1.08044
14
 step=         446     theta[rad]=           4.6705
  C        -1.17990          1.51509        -0.18824
  C         0.05693          1.51861         0.29335
  C         1.18075          0.67167        -0.08819
  C         1.17963         -0.66965        -0.09063
  C         0.05961         -1.53265         0.28426
  C        -1.18909         -1.48104        -0.15935
  H         0.29238          2.24395         1.06954
  H         2.14881          1.15443        -0.19017
  H         2.13558         -1.17169        -0.21002
  H         0.27652         -2.19471         1.12068
  H        -1.93864         -2.18778         0.21004
  H        -1.44640         -0.97564        -1.08130
  H        -1.98862          1.98932         0.37011
  H        -1.48185          0.88393        -1.01052
14
 step=         447     theta[rad]=           4.6810
  C        -1.17934          1.51660        -0.18962
  C         0.05691          1.51789         0.29364
  C         1.18058          0.67171        -0.08798
  C         1.17934         -0.66948        -0.09067
  C         0.05987         -1.53337         0.28363
  C        -1.18947         -1.47907        -0.15777
  H         0.29310          2.24577         1.06741
  H         2.14930          1.15336        -0.18924
  H         2.13471         -1.17240        -0.21113
  H         0.27562         -2.19149         1.12378
  H        -1.93522         -2.19917         0.20141
  H        -1.44480         -0.98091        -1.08526
  H        -1.99032          1.98040         0.37785
  H        -1.48388          0.87982        -1.00723
14
 step=         448     theta[rad]=           4.6914
  C        -1.19118          1.48478        -0.16058
  C         0.05728          1.53308         0.28746
  C         1.18419          0.67092        -0.09249
  C         1.18538         -0.67306        -0.08991
  C         0.05444         -1.51822         0.29707
  C        -1.18147         -1.52081        -0.19114
  H         0.27790          2.20733         1.11234
  H         2.13898          1.17581        -0.20888
  H         2.15297         -1.15754        -0.18787
  H         0.29469         -2.25942         1.05823
  H        -2.00733         -1.95872         0.38363
  H        -1.47873         -0.86954        -1.00177
  H        -1.95445          2.16869         0.21427
  H        -1.44120          0.96656        -1.07667
14
 step=         449     theta[rad]=           4.7019
  C        -1.19125          1.48461        -0.16043
  C         0.05729          1.53316         0.28742
  C         1.18421          0.67092        -0.09251
  C         1.18541         -0.67308        -0.08991
  C         0.05441         -1.51814         0.29714
  C        -1.18143         -1.52102        -0.19132
  H         0.27782          2.20713         1.11257
  H         2.13892          1.17592        -0.20898
  H         2.15306         -1.15746        -0.18775
  H         0.29479         -2.25977         1.05788
  H        -2.00770         -1.95747         0.38458
  H        -1.47890         -0.86896        -1.00134
  H        -1.95426          2.16967         0.21341
  H        -1.44098          0.96701        -1.07703
14
 step=         450     theta[rad]=           4.7124
  C        -1.17952          1.51612        -0.18917
  C         0.05691          1.51812         0.29355
  C         1.18063          0.67170        -0.08805
  C         1.17943         -0.66953        -0.09066
  C         0.05979         -1.53314         0.28383
  C        -1.18935         -1.47970        -0.15828
  H         0.29287          2.24518         1.06810
  H         2.14914          1.15371        -0.18954
  H         2.13499         -1.17217        -0.21077
  H         0.27591         -2.19253         1.12278
  H        -1.93633         -2.19549         0.20420
  H        -1.44532         -0.97921        -1.08398
  H        -1.98977          1.98328         0.37535
  H        -1.48322          0.88115        -1.00830
14
 step=         451     theta[rad]=           4.7229
  C        -1.17946          1.51628        -0.18932
  C         0.05691          1.51804         0.29358
  C         1.18062          0.67170        -0.08803
  C         1.17940         -0.66951        -0.09066
  C         0.05982         -1.53322         0.28376
  C        -1.18939         -1.47949        -0.15810
  H         0.29295          2.24538         1.06787
  H         2.14919          1.15359        -0.18944
  H         2.13490         -1.17225        -0.21089
  H         0.27581         -2.19218         1.12312
  H        -1.93596         -2.19673         0.20326
  H        -1.44514         -0.97978        -1.08441
  H        -1.98996          1.98231         0.37619
  H        -1.48344          0.88070        -1.00794
14
 step=         452     theta[rad]=           4.7333
  C        -1.19106          1.48512        -0.16089
  C         0.05728          1.53292         0.28752
  C         1.18415          0.67093        -0.09244
  C         1.18531         -0.67302        -0.08992
  C         0.05450         -1.51838         0.29692
  C        -1.18155         -1.52036        -0.19079
  H         0.27806          2.20773         1.11186
  H         2.13908          1.17557        -0.20867
  H         2.15278         -1.15769        -0.18812
  H         0.29449         -2.25870         1.05892
  H        -2.00657         -1.96126         0.38170
  H        -1.47837         -0.87072        -1.00266
  H        -1.95483          2.16670         0.21600
  H        -1.44165          0.96564        -1.07594
14
 step=         453     theta[rad]=           4.7438
  C        -1.19160          1.48365        -0.15955
  C         0.05730          1.53362         0.28724
  C         1.18432          0.67089        -0.09265
  C         1.18559         -0.67319        -0.08988
  C         0.05425         -1.51769         0.29754
  C        -1.18119         -1.52228        -0.19232
  H         0.27737          2.20597         1.11392
  H         2.13861          1.17660        -0.20957
  H         2.15361         -1.15701        -0.18705
  H         0.29536         -2.26182         1.05591
  H        -2.00988         -1.95023         0.39007
  H        -1.47992         -0.86560        -0.99882
  H        -1.95318          2.17534         0.20849
  H        -1.43969          0.96963        -1.07912
14
 step=         454     theta[rad]=           4.7543
  C        -1.18017          1.51438        -0.18759
  C         0.05693          1.51895         0.29321
  C         1.18083          0.67165        -0.08829
  C         1.17976         -0.66973        -0.09062
  C         0.05949         -1.53231         0.28456
  C        -1.18891         -1.48198        -0.16009
  H         0.29204          2.24309         1.07055
  H         2.14858          1.15493        -0.19061
  H         2.13599         -1.17136        -0.20950
  H         0.27695         -2.19623         1.11921
  H        -1.94025         -2.18240         0.21412
  H        -1.44716         -0.97314        -1.07943
  H        -1.98782          1.99354         0.36644
  H        -1.48090          0.88587        -1.01208
14
 step=         455     theta[rad]=           4.7647
  C        -1.17868          1.51839        -0.19124
  C         0.05689          1.51703         0.29399
  C         1.18038          0.67175        -0.08773
  C         1.17900         -0.66928        -0.09071
  C         0.06018         -1.53422         0.28287
  C        -1.18992         -1.47673        -0.15590
  H         0.29396          2.24792         1.06490
  H         2.14987          1.15210        -0.18814
  H         2.13369         -1.17323        -0.21243
  H         0.27455         -2.18769         1.12746
  H        -1.93118         -2.21264         0.19120
  H        -1.44290         -0.98715        -1.08993
  H        -1.99233          1.96985         0.38702
  H        -1.48627          0.87496        -1.00334
14
 step=         456     theta[rad]=           4.7752
  C        -1.18983          1.48843        -0.16391
  C         0.05724          1.53134         0.28817
  C         1.18377          0.67101        -0.09197
  C         1.18468         -0.67265        -0.09000
  C         0.05506         -1.51996         0.29553
  C        -1.18239         -1.51602        -0.18731
  H         0.27965          2.21173         1.10719
  H         2.14016          1.17323        -0.20662
  H         2.15088         -1.15924        -0.19054
  H         0.29250         -2.25163         1.06574
  H        -1.99906         -1.98629         0.36273
  H        -1.47483         -0.88231        -1.01135
  H        -1.95856          2.14710         0.23303
  H        -1.44610          0.95662        -1.06871
14
 step=         457     theta[rad]=           4.7857
  C        -1.19269          1.48073        -0.15689
  C         0.05733          1.53502         0.28667
  C         1.18465          0.67082        -0.09306
  C         1.18614         -0.67352        -0.08981
  C         0.05375         -1.51629         0.29878
  C        -1.18045         -1.52611        -0.19538
  H         0.27597          2.20244         1.11805
  H         2.13766          1.17866        -0.21137
  H         2.15529         -1.15565        -0.18492
  H         0.29711         -2.26806         1.04989
  H        -2.01650         -1.92815         0.40680
  H        -1.48304         -0.85538        -0.99116
  H        -1.94989          2.19263         0.19347
  H        -1.43578          0.97759        -1.08550
14
 step=         458     theta[rad]=           4.7962
  C        -1.18209          1.50921        -0.18287
  C         0.05700          1.52142         0.29221
  C         1.18142          0.67153        -0.08903
  C         1.18074         -0.67031        -0.09049
  C         0.05861         -1.52985         0.28675
  C        -1.18761         -1.48876        -0.16552
  H         0.28957          2.23684         1.07785
  H         2.14690          1.15858        -0.19380
  H         2.13895         -1.16895        -0.20573
  H         0.28005         -2.20727         1.10856
  H        -1.95197         -2.14332         0.24373
  H        -1.45268         -0.95504        -1.06587
  H        -1.98199          2.02413         0.33986
  H        -1.47396          0.89997        -1.02336
14
 step=         459     theta[rad]=           4.8066
  C        -1.17750          1.52155        -0.19413
  C         0.05685          1.51552         0.29461
  C         1.18002          0.67183        -0.08728
  C         1.17840         -0.66892        -0.09079
  C         0.06072         -1.53573         0.28154
  C        -1.19071         -1.47258        -0.15258
  H         0.29547          2.25174         1.06043
  H         2.15090          1.14987        -0.18618
  H         2.13188         -1.17471        -0.21474
  H         0.27266         -2.18093         1.13397
  H        -1.92401         -2.23655         0.17308
  H        -1.43952         -0.99823        -1.09823
  H        -1.99590          1.95113         0.40328
  H        -1.49051          0.86634        -0.99644
14
 step=         460     theta[rad]=           4.8171
  C        -1.18711          1.49573        -0.17057
  C         0.05715          1.52785         0.28959
  C         1.18295          0.67119        -0.09094
  C         1.18330         -0.67183        -0.09017
  C         0.05631         -1.52344         0.29244
  C        -1.18422         -1.50644        -0.17965
  H         0.28313          2.22056         1.09687
  H         2.14253          1.16808        -0.20212
  H         2.14669         -1.16265        -0.19588
  H         0.28812         -2.23604         1.08079
  H        -1.98251         -2.04148         0.32091
  H        -1.46705         -0.90787        -1.03051
  H        -1.96680          2.10388         0.27057
  H        -1.45589          0.93671        -1.05277
14
 step=         461     theta[rad]=           4.8276
  C        -1.19364          1.47819        -0.15456
  C         0.05736          1.53623         0.28617
  C         1.18494          0.67076        -0.09342
  C         1.18663         -0.67380        -0.08975
  C         0.05332         -1.51508         0.29985
  C        -1.17981         -1.52945        -0.19805
  H         0.27475          2.19936         1.12164
  H         2.13684          1.18046        -0.21294
  H         2.15675         -1.15446        -0.18306
  H         0.29864         -2.27349         1.04465
  H        -2.02226         -1.90892         0.42137
  H        -1.48575         -0.84647        -0.98448
  H        -1.94702          2.20769         0.18038
  H        -1.43236          0.98453        -1.09105
14
 step=         462     theta[rad]=           4.8381
  C        -1.18565          1.49966        -0.17416
  C         0.05711          1.52598         0.29035
  C         1.18250          0.67129        -0.09038
  C         1.18255         -0.67138        -0.09027
  C         0.05698         -1.52531         0.29078
  C        -1.18521         -1.50128        -0.17553
  H         0.28501          2.22531         1.09132
  H         2.14380          1.16531        -0.19969
  H         2.14443         -1.16449        -0.19875
  H         0.28577         -2.22765         1.08889
  H        -1.97360         -2.07119         0.29840
  H        -1.46285         -0.92163        -1.04082
  H        -1.97123          2.08062         0.29079
  H        -1.46116          0.92599        -1.04419
14
 step=         463     theta[rad]=           4.8485
  C        -1.17721          1.52233        -0.19484
  C         0.05684          1.51515         0.29476
  C         1.17993          0.67185        -0.08717
  C         1.17825         -0.66883        -0.09081
  C         0.06085         -1.53610         0.28121
  C        -1.19091         -1.47156        -0.15176
  H         0.29584          2.25268         1.05933
  H         2.15115          1.14932        -0.18570
  H         2.13143         -1.17507        -0.21531
  H         0.27219         -2.17927         1.13558
  H        -1.92225         -2.24243         0.16863
  H        -1.43869         -1.00095        -1.10028
  H        -1.99677          1.94653         0.40729
  H        -1.49155          0.86422        -0.99474
14
 step=         464     theta[rad]=           4.8590
  C        -1.18282          1.50725        -0.18108
  C         0.05702          1.52235         0.29182
  C         1.18164          0.67148        -0.08931
  C         1.18111         -0.67053        -0.09045
  C         0.05827         -1.52892         0.28758
  C        -1.18712         -1.49134        -0.16758
  H         0.28864          2.23447         1.08062
  H         2.14626          1.15996        -0.19501
  H         2.14008         -1.16803        -0.20429
  H         0.28123         -2.21146         1.10451
  H        -1.95642         -2.12849         0.25497
  H        -1.45477         -0.94817        -1.06072
  H        -1.97978          2.03575         0.32977
  H        -1.47133          0.90532        -1.02765
14
 step=         465     theta[rad]=           4.8695
  C        -1.19277          1.48052        -0.15669
  C         0.05733          1.53512         0.28663
  C         1.18467          0.67082        -0.09309
  C         1.18618         -0.67354        -0.08981
  C         0.05371         -1.51619         0.29887
  C        -1.18040         -1.52640        -0.19561
  H         0.27587          2.20218         1.11835
  H         2.13759          1.17881        -0.21151
  H         2.15541         -1.15555        -0.18476
  H         0.29724         -2.26852         1.04945
  H        -2.01699         -1.92651         0.40804
  H        -1.48327         -0.85462        -0.99059
  H        -1.94965          2.19391         0.19236
  H        -1.43549          0.97818        -1.08597
14
 step=         466     theta[rad]=           4.8799
  C        -1.19033          1.48708        -0.16268
  C         0.05726          1.53198         0.28790
  C         1.18393          0.67098        -0.09216
  C         1.18494         -0.67280        -0.08996
  C         0.05483         -1.51932         0.29609
  C        -1.18205         -1.51778        -0.18872
  H         0.27900          2.21011         1.10909
  H         2.13972          1.17418        -0.20745
  H         2.15165         -1.15861        -0.18956
  H         0.29331         -2.25450         1.06297
  H        -2.00211         -1.97613         0.37044
  H        -1.47627         -0.87760        -1.00782
  H        -1.95705          2.15506         0.22611
  H        -1.44429          0.96028        -1.07164
14
 step=         467     theta[rad]=           4.8904
  C        -1.17971          1.51561        -0.18871
  C         0.05692          1.51836         0.29345
  C         1.18069          0.67168        -0.08812
  C         1.17953         -0.66959        -0.09065
  C         0.05970         -1.53290         0.28405
  C        -1.18922         -1.48036        -0.15880
  H         0.29263          2.24457         1.06881
  H         2.14898          1.15406        -0.18985
  H         2.13528         -1.17194        -0.21040
  H         0.27621         -2.19361         1.12174
  H        -1.93747         -2.19169         0.20707
  H        -1.44585         -0.97745        -1.08266
  H        -1.98920          1.98626         0.37277
  H        -1.48255          0.88252        -1.00939
14
 step=         468     theta[rad]=           4.9009
  C        -1.17839          1.51917        -0.19196
  C         0.05688          1.51666         0.29414
  C         1.18029          0.67177        -0.08762
  C         1.17885         -0.66919        -0.09073
  C         0.06031         -1.53459         0.28254
  C        -1.19012         -1.47570        -0.15507
  H         0.29433          2.24887         1.06378
  H         2.15013          1.15155        -0.18765
  H         2.13324         -1.17360        -0.21300
  H         0.27408         -2.18601         1.12908
  H        -1.92940         -2.21859         0.18669
  H        -1.44206         -0.98991        -1.09200
  H        -1.99322          1.96520         0.39106
  H        -1.48732          0.87282        -1.00163
14
 step=         469     theta[rad]=           4.9114
  C        -1.18836          1.49238        -0.16751
  C         0.05719          1.52945         0.28893
  C         1.18333          0.67111        -0.09141
  C         1.18393         -0.67221        -0.09009
  C         0.05574         -1.52184         0.29386
  C        -1.18338         -1.51083        -0.18317
  H         0.28153          2.21651         1.10161
  H         2.14144          1.17045        -0.20418
  H         2.14861         -1.16109        -0.19343
  H         0.29013         -2.24319         1.07389
  H        -1.99010         -2.01616         0.34010
  H        -1.47062         -0.89614        -1.02172
  H        -1.96302          2.12371         0.25335
  H        -1.45140          0.94584        -1.06008
14
 step=         470     theta[rad]=           4.9218
  C        -1.19357          1.47836        -0.15472
  C         0.05736          1.53615         0.28621
  C         1.18492          0.67076        -0.09340
  C         1.18659         -0.67378        -0.08976
  C         0.05335         -1.51517         0.29978
  C        -1.17986         -1.52922        -0.19787
  H         0.27484          2.19958         1.12140
  H         2.13690          1.18033        -0.21284
  H         2.15665         -1.15454        -0.18318
  H         0.29853         -2.27311         1.04501
  H        -2.02187         -1.91024         0.42037
  H        -1.48557         -0.84708        -0.98494
  H        -1.94722          2.20665         0.18128
  H        -1.43260          0.98405        -1.09067
14
 step=         471     theta[rad]=           4.9323
  C        -1.18591          1.49897        -0.17352
  C         0.05712          1.52631         0.29021
  C         1.18258          0.67127        -0.09048
  C         1.18269         -0.67146        -0.09025
  C         0.05686         -1.52497         0.29108
  C        -1.18504         -1.50220        -0.17626
  H         0.28468          2.22446         1.09231
  H         2.14358          1.16580        -0.20012
  H         2.14483         -1.16416        -0.19824
  H         0.28619         -2.22914         1.08745
  H        -1.97519         -2.06591         0.30240
  H        -1.46360         -0.91919        -1.03899
  H        -1.97044          2.08475         0.28719
  H        -1.46023          0.92790        -1.04572
14
 step=         472     theta[rad]=           4.9428
  C        -1.17745          1.52169        -0.19426
  C         0.05685          1.51546         0.29463
  C         1.18000          0.67183        -0.08726
  C         1.17838         -0.66890        -0.09079
  C         0.06074         -1.53579         0.28148
  C        -1.19075         -1.47239        -0.15243
  H         0.29553          2.25191         1.06023
  H         2.15095          1.14977        -0.18610
  H         2.13180         -1.17477        -0.21484
  H         0.27257         -2.18064         1.13426
  H        -1.92370         -2.23760         0.17228
  H        -1.43937         -0.99871        -1.09860
  H        -1.99605          1.95031         0.40400
  H        -1.49070          0.86596        -0.99614
14
 step=         473     theta[rad]=           4.9532
  C        -1.18117          1.51170        -0.18515
  C         0.05697          1.52023         0.29269
  C         1.18114          0.67159        -0.08867
  C         1.18027         -0.67003        -0.09055
  C         0.05904         -1.53104         0.28570
  C        -1.18824         -1.48549        -0.16290
  H         0.29076          2.23985         1.07433
  H         2.14771          1.15682        -0.19226
  H         2.13752         -1.17011        -0.20755
  H         0.27856         -2.20195         1.11369
  H        -1.94632         -2.16215         0.22946
  H        -1.45002         -0.96377        -1.07240
  H        -1.98480          2.00939         0.35267
  H        -1.47731          0.89318        -1.01792
14
 step=         474     theta[rad]=           4.9637
  C        -1.19125          1.48461        -0.16043
  C         0.05729          1.53316         0.28742
  C         1.18421          0.67092        -0.09251
  C         1.18541         -0.67308        -0.08991
  C         0.05441         -1.51814         0.29714
  C        -1.18143         -1.52102        -0.19132
  H         0.27782          2.20713         1.11257
  H         2.13892          1.17592        -0.20898
  H         2.15306         -1.15746        -0.18775
  H         0.29479         -2.25977         1.05788
  H        -2.00770         -1.95747         0.38458
  H        -1.47890         -0.86896        -1.00134
  H        -1.95426          2.16967         0.21341
  H        -1.44098          0.96701        -1.07703
14
 step=         475     theta[rad]=           4.9742
  C        -1.19256          1.48107        -0.15720
  C         0.05733          1.53485         0.28673
  C         1.18461          0.67083        -0.09301
  C         1.18608         -0.67348        -0.08982
  C         0.05381         -1.51646         0.29863
  C        -1.18054         -1.52567        -0.19503
  H         0.27613          2.20285         1.11757
  H         2.13777          1.17842        -0.21116
  H         2.15510         -1.15581        -0.18517
  H         0.29691         -2.26733         1.05059
  H        -2.01573         -1.93072         0.40485
  H        -1.48268         -0.85657        -0.99205
  H        -1.95027          2.19061         0.19522
  H        -1.43623          0.97666        -1.08476
14
 step=         476     theta[rad]=           4.9847
  C        -1.18332          1.50590        -0.17985
  C         0.05703          1.52300         0.29156
  C         1.18179          0.67144        -0.08950
  C         1.18137         -0.67068        -0.09041
  C         0.05805         -1.52828         0.28815
  C        -1.18678         -1.49310        -0.16899
  H         0.28799          2.23284         1.08252
  H         2.14583          1.16091        -0.19584
  H         2.14085         -1.16740        -0.20331
  H         0.28203         -2.21433         1.10174
  H        -1.95946         -2.11833         0.26267
  H        -1.45620         -0.94347        -1.05719
  H        -1.97826          2.04370         0.32286
  H        -1.46953          0.90898        -1.03058
14
 step=         477     theta[rad]=           4.9951
  C        -1.17710          1.52263        -0.19511
  C         0.05684          1.51501         0.29482
  C         1.17990          0.67186        -0.08713
  C         1.17820         -0.66880        -0.09081
  C         0.06090         -1.53624         0.28108
  C        -1.19099         -1.47116        -0.15145
  H         0.29598          2.25305         1.05891
  H         2.15125          1.14911        -0.18552
  H         2.13126         -1.17521        -0.21553
  H         0.27201         -2.17863         1.13620
  H        -1.92157         -2.24470         0.16690
  H        -1.43837         -1.00200        -1.10107
  H        -1.99711          1.94475         0.40883
  H        -1.49196          0.86340        -0.99409
14
 step=         478     theta[rad]=           5.0056
  C        -1.18274          1.50747        -0.18128
  C         0.05702          1.52225         0.29187
  C         1.18162          0.67148        -0.08927
  C         1.18107         -0.67051        -0.09045
  C         0.05831         -1.52902         0.28748
  C        -1.18717         -1.49104        -0.16734
  H         0.28874          2.23474         1.08031
  H         2.14633          1.15980        -0.19487
  H         2.13995         -1.16813        -0.20445
  H         0.28109         -2.21099         1.10497
  H        -1.95592         -2.13016         0.25371
  H        -1.45453         -0.94895        -1.06130
  H        -1.98003          2.03444         0.33091
  H        -1.47163          0.90472        -1.02716
14
 step=         479     theta[rad]=           5.0161
  C        -1.19209          1.48234        -0.15836
  C         0.05731          1.53425         0.28698
  C         1.18446          0.67086        -0.09284
  C         1.18584         -0.67334        -0.08985
  C         0.05402         -1.51706         0.29810
  C        -1.18086         -1.52400        -0.19370
  H         0.27674          2.20438         1.11578
  H         2.13819          1.17753        -0.21038
  H         2.15437         -1.15640        -0.18609
  H         0.29615         -2.26462         1.05321
  H        -2.01285         -1.94031         0.39758
  H        -1.48132         -0.86101        -0.99538
  H        -1.95170          2.18310         0.20174
  H        -1.43794          0.97320        -1.08199
14
 step=         480     theta[rad]=           5.0265
  C        -1.19209          1.48234        -0.15836
  C         0.05731          1.53425         0.28698
  C         1.18446          0.67086        -0.09284
  C         1.18584         -0.67334        -0.08985
  C         0.05402         -1.51706         0.29810
  C        -1.18086         -1.52400        -0.19370
  H         0.27674          2.20438         1.11578
  H         2.13819          1.17753        -0.21038
  H         2.15437         -1.15640        -0.18609
  H         0.29615         -2.26462         1.05321
  H        -2.01285         -1.94031         0.39758
  H        -1.48132         -0.86101        -0.99538
  H        -1.95170          2.18310         0.20174
  H        -1.43794          0.97320        -1.08199
14
 step=         481     theta[rad]=           5.0370
  C        -1.18291          1.50703        -0.18088
  C         0.05702          1.52246         0.29178
  C         1.18167          0.67147        -0.08934
  C         1.18116         -0.67056        -0.09044
  C         0.05824         -1.52881         0.28767
  C        -1.18706         -1.49163        -0.16781
  H         0.28853          2.23420         1.08093
  H         2.14619          1.16012        -0.19515
  H         2.14021         -1.16793        -0.20413
  H         0.28136         -2.21194         1.10405
  H        -1.95692         -2.12681         0.25625
  H        -1.45501         -0.94739        -1.06013
  H        -1.97953          2.03706         0.32862
  H        -1.47103          0.90593        -1.02813
14
 step=         482     theta[rad]=           5.0475
  C        -1.17710          1.52263        -0.19511
  C         0.05684          1.51501         0.29482
  C         1.17990          0.67186        -0.08713
  C         1.17820         -0.66880        -0.09081
  C         0.06090         -1.53624         0.28108
  C        -1.19099         -1.47116        -0.15145
  H         0.29598          2.25305         1.05891
  H         2.15125          1.14911        -0.18552
  H         2.13126         -1.17521        -0.21553
  H         0.27201         -2.17863         1.13620
  H        -1.92157         -2.24470         0.16690
  H        -1.43837         -1.00200        -1.10107
  H        -1.99711          1.94475         0.40883
  H        -1.49196          0.86340        -0.99409
14
 step=         483     theta[rad]=           5.0580
  C        -1.18233          1.50856        -0.18228
  C         0.05700          1.52172         0.29208
  C         1.18149          0.67151        -0.08912
  C         1.18086         -0.67038        -0.09048
  C         0.05850         -1.52954         0.28702
  C        -1.18745         -1.48961        -0.16620
  H         0.28926          2.23606         1.07876
  H         2.14669          1.15903        -0.19420
  H         2.13933         -1.16864        -0.20525
  H         0.28044         -2.20865         1.10722
  H        -1.95344         -2.13844         0.24743
  H        -1.45337         -0.95278        -1.06417
  H        -1.98126          2.02796         0.33653
  H        -1.47310          0.90173        -1.02477
14
 step=         484     theta[rad]=           5.0684
  C        -1.19154          1.48381        -0.15969
  C         0.05730          1.53355         0.28727
  C         1.18430          0.67090        -0.09263
  C         1.18556         -0.67317        -0.08989
  C         0.05428         -1.51776         0.29748
  C        -1.18123         -1.52208        -0.19216
  H         0.27744          2.20616         1.11371
  H         2.13866          1.17649        -0.20947
  H         2.15353         -1.15708        -0.18717
  H         0.29527         -2.26149         1.05623
  H        -2.00952         -1.95140         0.38918
  H        -1.47976         -0.86615        -0.99923
  H        -1.95336          2.17442         0.20929
  H        -1.43990          0.96920        -1.07878
14
 step=         485     theta[rad]=           5.0789
  C        -1.19277          1.48052        -0.15669
  C         0.05733          1.53512         0.28663
  C         1.18467          0.67082        -0.09309
  C         1.18618         -0.67354        -0.08981
  C         0.05371         -1.51619         0.29887
  C        -1.18040         -1.52640        -0.19561
  H         0.27587          2.20218         1.11835
  H         2.13759          1.17881        -0.21151
  H         2.15541         -1.15555        -0.18476
  H         0.29724         -2.26852         1.04945
  H        -2.01699         -1.92651         0.40804
  H        -1.48327         -0.85462        -0.99059
  H        -1.94965          2.19391         0.19236
  H        -1.43549          0.97818        -1.08597
14
 step=         486     theta[rad]=           5.0894
  C        -1.18460          1.50246        -0.17671
  C         0.05708          1.52464         0.29089
  C         1.18218          0.67136        -0.08998
  C         1.18202         -0.67107        -0.09033
  C         0.05746         -1.52664         0.28960
  C        -1.18591         -1.49761        -0.17260
  H         0.28635          2.22869         1.08738
  H         2.14471          1.16334        -0.19796
  H         2.14283         -1.16579        -0.20079
  H         0.28409         -2.22168         1.09465
  H        -1.96727         -2.09232         0.28239
  H        -1.45987         -0.93142        -1.04816
  H        -1.97438          2.06407         0.30516
  H        -1.46491          0.91837        -1.03809
14
 step=         487     theta[rad]=           5.0999
  C        -1.17745          1.52169        -0.19426
  C         0.05685          1.51546         0.29463
  C         1.18000          0.67183        -0.08726
  C         1.17838         -0.66890        -0.09079
  C         0.06074         -1.53579         0.28148
  C        -1.19075         -1.47239        -0.15243
  H         0.29553          2.25191         1.06023
  H         2.15095          1.14977        -0.18610
  H         2.13180         -1.17477        -0.21484
  H         0.27257         -2.18064         1.13426
  H        -1.92370         -2.23760         0.17228
  H        -1.43937         -0.99871        -1.09860
  H        -1.99605          1.95031         0.40400
  H        -1.49070          0.86596        -0.99614
14
 step=         488     theta[rad]=           5.1103
  C        -1.18010          1.51456        -0.18776
  C         0.05693          1.51886         0.29325
  C         1.18081          0.67166        -0.08827
  C         1.17973         -0.66971        -0.09062
  C         0.05952         -1.53240         0.28449
  C        -1.18896         -1.48174        -0.15990
  H         0.29213          2.24331         1.07029
  H         2.14863          1.15480        -0.19049
  H         2.13588         -1.17145        -0.20964
  H         0.27684         -2.19585         1.11958
  H        -1.93984         -2.18376         0.21309
  H        -1.44697         -0.97378        -1.07991
  H        -1.98802          1.99247         0.36737
  H        -1.48114          0.88538        -1.01168
14
 step=         489     theta[rad]=           5.1208
  C        -1.18915          1.49025        -0.16557
  C         0.05722          1.53047         0.28852
  C         1.18357          0.67106        -0.09171
  C         1.18434         -0.67245        -0.09004
  C         0.05537         -1.52083         0.29476
  C        -1.18285         -1.51363        -0.18540
  H         0.28052          2.21394         1.10461
  H         2.14075          1.17195        -0.20550
  H         2.14983         -1.16009        -0.19187
  H         0.29141         -2.24774         1.06950
  H        -1.99493         -2.00007         0.35230
  H        -1.47289         -0.88869        -1.01613
  H        -1.96062          2.13631         0.24240
  H        -1.44854          0.95165        -1.06473
14
 step=         490     theta[rad]=           5.1313
  C        -1.19366          1.47812        -0.15450
  C         0.05736          1.53627         0.28616
  C         1.18494          0.67076        -0.09343
  C         1.18664         -0.67381        -0.08975
  C         0.05330         -1.51505         0.29988
  C        -1.17980         -1.52954        -0.19813
  H         0.27472          2.19928         1.12174
  H         2.13682          1.18050        -0.21299
  H         2.15679         -1.15443        -0.18301
  H         0.29868         -2.27364         1.04451
  H        -2.02242         -1.90840         0.42176
  H        -1.48583         -0.84623        -0.98430
  H        -1.94694          2.20809         0.18003
  H        -1.43227          0.98471        -1.09120
14
 step=         491     theta[rad]=           5.1417
  C        -1.18844          1.49216        -0.16732
  C         0.05720          1.52956         0.28889
  C         1.18335          0.67110        -0.09144
  C         1.18398         -0.67223        -0.09009
  C         0.05570         -1.52174         0.29395
  C        -1.18333         -1.51112        -0.18340
  H         0.28143          2.21625         1.10191
  H         2.14137          1.17060        -0.20432
  H         2.14873         -1.16099        -0.19327
  H         0.29026         -2.24366         1.07344
  H        -1.99060         -2.01452         0.34134
  H        -1.47085         -0.89538        -1.02115
  H        -1.96277          2.12499         0.25223
  H        -1.45110          0.94643        -1.06056
14
 step=         492     theta[rad]=           5.1522
  C        -1.17971          1.51561        -0.18871
  C         0.05692          1.51836         0.29345
  C         1.18069          0.67168        -0.08812
  C         1.17953         -0.66959        -0.09065
  C         0.05970         -1.53290         0.28405
  C        -1.18922         -1.48036        -0.15880
  H         0.29263          2.24457         1.06881
  H         2.14898          1.15406        -0.18985
  H         2.13528         -1.17194        -0.21040
  H         0.27621         -2.19361         1.12174
  H        -1.93747         -2.19169         0.20707
  H        -1.44585         -0.97745        -1.08266
  H        -1.98920          1.98626         0.37277
  H        -1.48255          0.88252        -1.00939
14
 step=         493     theta[rad]=           5.1627
  C        -1.17748          1.52162        -0.19419
  C         0.05685          1.51549         0.29462
  C         1.18001          0.67183        -0.08727
  C         1.17839         -0.66891        -0.09079
  C         0.06073         -1.53576         0.28151
  C        -1.19073         -1.47248        -0.15250
  H         0.29550          2.25183         1.06033
  H         2.15092          1.14982        -0.18614
  H         2.13184         -1.17474        -0.21479
  H         0.27261         -2.18078         1.13412
  H        -1.92385         -2.23709         0.17268
  H        -1.43945         -0.99847        -1.09842
  H        -1.99598          1.95071         0.40365
  H        -1.49060          0.86615        -0.99629
14
 step=         494     theta[rad]=           5.1732
  C        -1.18409          1.50385        -0.17798
  C         0.05706          1.52398         0.29116
  C         1.18203          0.67139        -0.08979
  C         1.18176         -0.67091        -0.09037
  C         0.05769         -1.52730         0.28901
  C        -1.18626         -1.49579        -0.17114
  H         0.28701          2.23036         1.08542
  H         2.14516          1.16236        -0.19711
  H         2.14203         -1.16644        -0.20181
  H         0.28326         -2.21872         1.09751
  H        -1.96412         -2.10281         0.27444
  H        -1.45839         -0.93628        -1.05180
  H        -1.97594          2.05586         0.31229
  H        -1.46677          0.91459        -1.03506
14
 step=         495     theta[rad]=           5.1836
  C        -1.19209          1.48234        -0.15836
  C         0.05731          1.53425         0.28698
  C         1.18446          0.67086        -0.09284
  C         1.18584         -0.67334        -0.08985
  C         0.05402         -1.51706         0.29810
  C        -1.18086         -1.52400        -0.19370
  H         0.27674          2.20438         1.11578
  H         2.13819          1.17753        -0.21038
  H         2.15437         -1.15640        -0.18609
  H         0.29615         -2.26462         1.05321
  H        -2.01285         -1.94031         0.39758
  H        -1.48132         -0.86101        -0.99538
  H        -1.95170          2.18310         0.20174
  H        -1.43794          0.97320        -1.08199
14
 step=         496     theta[rad]=           5.1941
  C        -1.19281          1.48041        -0.15659
  C         0.05734          1.53517         0.28661
  C         1.18468          0.67081        -0.09311
  C         1.18620         -0.67355        -0.08981
  C         0.05370         -1.51614         0.29891
  C        -1.18037         -1.52653        -0.19572
  H         0.27582          2.20205         1.11850
  H         2.13756          1.17889        -0.21157
  H         2.15547         -1.15550        -0.18468
  H         0.29730         -2.26874         1.04923
  H        -2.01722         -1.92572         0.40864
  H        -1.48338         -0.85425        -0.99032
  H        -1.94953          2.19453         0.19182
  H        -1.43535          0.97847        -1.08620
14
 step=         497     theta[rad]=           5.2046
  C        -1.18565          1.49966        -0.17416
  C         0.05711          1.52598         0.29035
  C         1.18250          0.67129        -0.09038
  C         1.18255         -0.67138        -0.09027
  C         0.05698         -1.52531         0.29078
  C        -1.18521         -1.50128        -0.17553
  H         0.28501          2.22531         1.09132
  H         2.14380          1.16531        -0.19969
  H         2.14443         -1.16449        -0.19875
  H         0.28577         -2.22765         1.08889
  H        -1.97360         -2.07119         0.29840
  H        -1.46285         -0.92163        -1.04082
  H        -1.97123          2.08062         0.29079
  H        -1.46116          0.92599        -1.04419
14
 step=         498     theta[rad]=           5.2150
  C        -1.17825          1.51954        -0.19229
  C         0.05687          1.51648         0.29421
  C         1.18025          0.67178        -0.08756
  C         1.17878         -0.66915        -0.09074
  C         0.06037         -1.53477         0.28239
  C        -1.19021         -1.47522        -0.15469
  H         0.29451          2.24931         1.06327
  H         2.15025          1.15129        -0.18742
  H         2.13303         -1.17377        -0.21327
  H         0.27386         -2.18523         1.12983
  H        -1.92857         -2.22135         0.18460
  H        -1.44167         -0.99118        -1.09296
  H        -1.99363          1.96303         0.39294
  H        -1.48781          0.87182        -1.00083
14
 step=         499     theta[rad]=           5.2255
  C        -1.17821          1.51966        -0.19240
  C         0.05687          1.51643         0.29424
  C         1.18023          0.67178        -0.08755
  C         1.17876         -0.66913        -0.09074
  C         0.06039         -1.53482         0.28234
  C        -1.19024         -1.47506        -0.15456
  H         0.29456          2.24946         1.06310
  H         2.15029          1.15121        -0.18735
  H         2.13296         -1.17382        -0.21336
  H         0.27379         -2.18498         1.13007
  H        -1.92831         -2.22224         0.18393
  H        -1.44154         -0.99160        -1.09327
  H        -1.99376          1.96234         0.39355
  H        -1.48797          0.87150        -1.00057
14
 step=         500     theta[rad]=           5.2360
  C        -1.18539          1.50036        -0.17480
  C         0.05710          1.52564         0.29049
  C         1.18242          0.67131        -0.09028
  C         1.18242         -0.67131        -0.09028
  C         0.05710         -1.52564         0.29049
  C        -1.18539         -1.50036        -0.17480
  H         0.28535          2.22615         1.09034
  H         2.14403          1.16482        -0.19926
  H         2.14403         -1.16481        -0.19926
  H         0.28535         -2.22615         1.09033
  H        -1.97202         -2.07648         0.29439
  H        -1.46211         -0.92408        -1.04266
  H        -1.97202          2.07648         0.29438
  H        -1.46210          0.92408        -1.04267
14
 step=         501     theta[rad]=           5.2465
  C        -1.19252          1.48119        -0.15730
  C         0.05733          1.53480         0.28676
  C         1.18460          0.67083        -0.09300
  C         1.18606         -0.67347        -0.08982
  C         0.05383         -1.51651         0.29858
  C        -1.18057         -1.52551        -0.19490
  H         0.27619          2.20299         1.11740
  H         2.13781          1.17834        -0.21109
  H         2.15503         -1.15586        -0.18525
  H         0.29684         -2.26708         1.05083
  H        -2.01546         -1.93161         0.40418
  H        -1.48255         -0.85698        -0.99236
  H        -1.95041          2.18992         0.19582
  H        -1.43639          0.97634        -1.08450
14
 step=         502     theta[rad]=           5.2569
  C        -1.19269          1.48073        -0.15689
  C         0.05733          1.53502         0.28667
  C         1.18465          0.67082        -0.09306
  C         1.18614         -0.67352        -0.08981
  C         0.05375         -1.51629         0.29878
  C        -1.18045         -1.52611        -0.19538
  H         0.27597          2.20244         1.11805
  H         2.13766          1.17866        -0.21137
  H         2.15529         -1.15565        -0.18492
  H         0.29711         -2.26806         1.04989
  H        -2.01650         -1.92815         0.40680
  H        -1.48304         -0.85538        -0.99116
  H        -1.94989          2.19263         0.19347
  H        -1.43578          0.97759        -1.08550
14
 step=         503     theta[rad]=           5.2674
  C        -1.18591          1.49897        -0.17352
  C         0.05712          1.52631         0.29021
  C         1.18258          0.67127        -0.09048
  C         1.18269         -0.67146        -0.09025
  C         0.05686         -1.52497         0.29108
  C        -1.18504         -1.50220        -0.17626
  H         0.28468          2.22446         1.09231
  H         2.14358          1.16580        -0.20012
  H         2.14483         -1.16416        -0.19824
  H         0.28619         -2.22914         1.08745
  H        -1.97519         -2.06591         0.30240
  H        -1.46360         -0.91919        -1.03899
  H        -1.97044          2.08475         0.28719
  H        -1.46023          0.92790        -1.04572
14
 step=         504     theta[rad]=           5.2779
  C        -1.17868          1.51839        -0.19124
  C         0.05689          1.51703         0.29399
  C         1.18038          0.67175        -0.08773
  C         1.17900         -0.66928        -0.09071
  C         0.06018         -1.53422         0.28287
  C        -1.18992         -1.47673        -0.15590
  H         0.29396          2.24792         1.06490
  H         2.14987          1.15210        -0.18814
  H         2.13369         -1.17323        -0.21243
  H         0.27455         -2.18769         1.12746
  H        -1.93118         -2.21264         0.19120
  H        -1.44290         -0.98715        -1.08993
  H        -1.99233          1.96985         0.38702
  H        -1.48627          0.87496        -1.00334
14
 step=         505     theta[rad]=           5.2883
  C        -1.17765          1.52116        -0.19377
  C         0.05685          1.51571         0.29453
  C         1.18006          0.67182        -0.08733
  C         1.17848         -0.66896        -0.09078
  C         0.06065         -1.53554         0.28170
  C        -1.19062         -1.47309        -0.15299
  H         0.29528          2.25127         1.06098
  H         2.15077          1.15015        -0.18642
  H         2.13210         -1.17453        -0.21446
  H         0.27289         -2.18177         1.13317
  H        -1.92490         -2.23361         0.17531
  H        -1.43994         -0.99686        -1.09721
  H        -1.99546          1.95344         0.40128
  H        -1.48999          0.86740        -0.99729
14
 step=         506     theta[rad]=           5.2988
  C        -1.18358          1.50522        -0.17923
  C         0.05704          1.52332         0.29143
  C         1.18187          0.67143        -0.08959
  C         1.18150         -0.67076        -0.09040
  C         0.05793         -1.52795         0.28843
  C        -1.18661         -1.49399        -0.16970
  H         0.28767          2.23202         1.08348
  H         2.14561          1.16139        -0.19626
  H         2.14124         -1.16708        -0.20281
  H         0.28244         -2.21578         1.10034
  H        -1.96101         -2.11319         0.26656
  H        -1.45693         -0.94109        -1.05541
  H        -1.97749          2.04773         0.31936
  H        -1.46862          0.91084        -1.03206
14
 step=         507     theta[rad]=           5.3093
  C        -1.19106          1.48512        -0.16089
  C         0.05728          1.53292         0.28752
  C         1.18415          0.67093        -0.09244
  C         1.18531         -0.67302        -0.08992
  C         0.05450         -1.51838         0.29692
  C        -1.18155         -1.52036        -0.19079
  H         0.27806          2.20773         1.11186
  H         2.13908          1.17557        -0.20867
  H         2.15278         -1.15769        -0.18812
  H         0.29449         -2.25870         1.05892
  H        -2.00657         -1.96126         0.38170
  H        -1.47837         -0.87072        -1.00266
  H        -1.95483          2.16670         0.21600
  H        -1.44165          0.96564        -1.07594
14
 step=         508     theta[rad]=           5.3198
  C        -1.19358          1.47833        -0.15469
  C         0.05736          1.53617         0.28620
  C         1.18492          0.67076        -0.09340
  C         1.18660         -0.67379        -0.08976
  C         0.05334         -1.51515         0.29979
  C        -1.17985         -1.52927        -0.19791
  H         0.27482          2.19953         1.12144
  H         2.13688          1.18036        -0.21286
  H         2.15667         -1.15452        -0.18316
  H         0.29855         -2.27319         1.04494
  H        -2.02195         -1.90997         0.42057
  H        -1.48560         -0.84696        -0.98485
  H        -1.94718          2.20686         0.18110
  H        -1.43255          0.98415        -1.09075
14
 step=         509     theta[rad]=           5.3302
  C        -1.18915          1.49025        -0.16557
  C         0.05722          1.53047         0.28852
  C         1.18357          0.67106        -0.09171
  C         1.18434         -0.67245        -0.09004
  C         0.05537         -1.52083         0.29476
  C        -1.18285         -1.51363        -0.18540
  H         0.28052          2.21394         1.10461
  H         2.14075          1.17195        -0.20550
  H         2.14983         -1.16009        -0.19187
  H         0.29141         -2.24774         1.06950
  H        -1.99493         -2.00007         0.35230
  H        -1.47289         -0.88869        -1.01613
  H        -1.96062          2.13631         0.24240
  H        -1.44854          0.95165        -1.06473
14
 step=         510     theta[rad]=           5.3407
  C        -1.18162          1.51048        -0.18403
  C         0.05698          1.52081         0.29245
  C         1.18127          0.67156        -0.08885
  C         1.18050         -0.67017        -0.09052
  C         0.05883         -1.53045         0.28621
  C        -1.18793         -1.48710        -0.16419
  H         0.29018          2.23837         1.07606
  H         2.14731          1.15768        -0.19302
  H         2.13823         -1.16954        -0.20665
  H         0.27929         -2.20457         1.11116
  H        -1.94910         -2.15289         0.23648
  H        -1.45133         -0.95947        -1.06919
  H        -1.98342          2.01664         0.34637
  H        -1.47566          0.89652        -1.02060
14
 step=         511     theta[rad]=           5.3512
  C        -1.17721          1.52233        -0.19484
  C         0.05684          1.51515         0.29476
  C         1.17993          0.67185        -0.08717
  C         1.17825         -0.66883        -0.09081
  C         0.06085         -1.53610         0.28121
  C        -1.19091         -1.47156        -0.15176
  H         0.29584          2.25268         1.05933
  H         2.15115          1.14932        -0.18570
  H         2.13143         -1.17507        -0.21531
  H         0.27219         -2.17927         1.13558
  H        -1.92225         -2.24243         0.16863
  H        -1.43869         -1.00095        -1.10028
  H        -1.99677          1.94653         0.40729
  H        -1.49155          0.86422        -0.99474
14
 step=         512     theta[rad]=           5.3617
  C        -1.17934          1.51660        -0.18962
  C         0.05691          1.51789         0.29364
  C         1.18058          0.67171        -0.08798
  C         1.17934         -0.66948        -0.09067
  C         0.05987         -1.53337         0.28363
  C        -1.18947         -1.47907        -0.15777
  H         0.29310          2.24577         1.06741
  H         2.14930          1.15336        -0.18924
  H         2.13471         -1.17240        -0.21113
  H         0.27562         -2.19149         1.12378
  H        -1.93522         -2.19917         0.20141
  H        -1.44480         -0.98091        -1.08526
  H        -1.99032          1.98040         0.37785
  H        -1.48388          0.87982        -1.00723
14
 step=         513     theta[rad]=           5.3721
  C        -1.18617          1.49827        -0.17289
  C         0.05712          1.52664         0.29008
  C         1.18266          0.67126        -0.09058
  C         1.18282         -0.67154        -0.09023
  C         0.05674         -1.52464         0.29137
  C        -1.18486         -1.50311        -0.17699
  H         0.28435          2.22362         1.09330
  H         2.14335          1.16629        -0.20055
  H         2.14523         -1.16384        -0.19773
  H         0.28661         -2.23063         1.08601
  H        -1.97677         -2.06064         0.30639
  H        -1.46434         -0.91675        -1.03716
  H        -1.96965          2.08888         0.28361
  H        -1.45929          0.92980        -1.04724
14
 step=         514     theta[rad]=           5.3826
  C        -1.19234          1.48168        -0.15775
  C         0.05732          1.53456         0.28685
  C         1.18454          0.67085        -0.09293
  C         1.18596         -0.67341        -0.08984
  C         0.05391         -1.51675         0.29837
  C        -1.18069         -1.52487        -0.19439
  H         0.27642          2.20359         1.11671
  H         2.13797          1.17799        -0.21079
  H         2.15475         -1.15609        -0.18561
  H         0.29654         -2.26603         1.05185
  H        -2.01434         -1.93532         0.40136
  H        -1.48203         -0.85870        -0.99365
  H        -1.95096          2.18701         0.19835
  H        -1.43705          0.97500        -1.08343
14
 step=         515     theta[rad]=           5.3931
  C        -1.19327          1.47918        -0.15547
  C         0.05735          1.53576         0.28637
  C         1.18482          0.67078        -0.09328
  C         1.18644         -0.67369        -0.08978
  C         0.05348         -1.51555         0.29943
  C        -1.18006         -1.52815        -0.19701
  H         0.27523          2.20056         1.12024
  H         2.13716          1.17976        -0.21233
  H         2.15618         -1.15492        -0.18378
  H         0.29804         -2.27137         1.04669
  H        -2.02002         -1.91641         0.41570
  H        -1.48470         -0.84994        -0.98708
  H        -1.94814          2.20182         0.18548
  H        -1.43369          0.98183        -1.08889
14
 step=         516     theta[rad]=           5.4035
  C        -1.18844          1.49216        -0.16732
  C         0.05720          1.52956         0.28889
  C         1.18335          0.67110        -0.09144
  C         1.18398         -0.67223        -0.09009
  C         0.05570         -1.52174         0.29395
  C        -1.18333         -1.51112        -0.18340
  H         0.28143          2.21625         1.10191
  H         2.14137          1.17060        -0.20432
  H         2.14873         -1.16099        -0.19327
  H         0.29026         -2.24366         1.07344
  H        -1.99060         -2.01452         0.34134
  H        -1.47085         -0.89538        -1.02115
  H        -1.96277          2.12499         0.25223
  H        -1.45110          0.94643        -1.06056
14
 step=         517     theta[rad]=           5.4140
  C        -1.18147          1.51089        -0.18440
  C         0.05698          1.52061         0.29253
  C         1.18123          0.67157        -0.08879
  C         1.18042         -0.67012        -0.09053
  C         0.05890         -1.53065         0.28604
  C        -1.18803         -1.48656        -0.16376
  H         0.29038          2.23887         1.07548
  H         2.14744          1.15739        -0.19276
  H         2.13799         -1.16973        -0.20695
  H         0.27904         -2.20369         1.11202
  H        -1.94817         -2.15601         0.23412
  H        -1.45089         -0.96092        -1.07027
  H        -1.98388          2.01420         0.34849
  H        -1.47622          0.89539        -1.01970
14
 step=         518     theta[rad]=           5.4245
  C        -1.17730          1.52210        -0.19464
  C         0.05684          1.51526         0.29471
  C         1.17996          0.67184        -0.08720
  C         1.17830         -0.66886        -0.09080
  C         0.06081         -1.53599         0.28130
  C        -1.19085         -1.47185        -0.15200
  H         0.29573          2.25241         1.05965
  H         2.15108          1.14948        -0.18584
  H         2.13156         -1.17497        -0.21515
  H         0.27232         -2.17975         1.13511
  H        -1.92276         -2.24073         0.16991
  H        -1.43893         -1.00016        -1.09969
  H        -1.99652          1.94786         0.40613
  H        -1.49125          0.86483        -0.99523
14
 step=         519     theta[rad]=           5.4350
  C        -1.17868          1.51839        -0.19124
  C         0.05689          1.51703         0.29399
  C         1.18038          0.67175        -0.08773
  C         1.17900         -0.66928        -0.09071
  C         0.06018         -1.53422         0.28287
  C        -1.18992         -1.47673        -0.15590
  H         0.29396          2.24792         1.06490
  H         2.14987          1.15210        -0.18814
  H         2.13369         -1.17323        -0.21243
  H         0.27455         -2.18769         1.12746
  H        -1.93118         -2.21264         0.19120
  H        -1.44290         -0.98715        -1.08993
  H        -1.99233          1.96985         0.38702
  H        -1.48627          0.87496        -1.00334
14
 step=         520     theta[rad]=           5.4454
  C        -1.18452          1.50269        -0.17692
  C         0.05707          1.52453         0.29094
  C         1.18216          0.67136        -0.08995
  C         1.18198         -0.67104        -0.09034
  C         0.05750         -1.52675         0.28950
  C        -1.18597         -1.49731        -0.17235
  H         0.28646          2.22897         1.08705
  H         2.14479          1.16317        -0.19782
  H         2.14269         -1.16590        -0.20096
  H         0.28395         -2.22118         1.09513
  H        -1.96674         -2.09407         0.28106
  H        -1.45963         -0.93223        -1.04877
  H        -1.97464          2.06270         0.30635
  H        -1.46522          0.91774        -1.03758
14
 step=         521     theta[rad]=           5.4559
  C        -1.19087          1.48563        -0.16136
  C         0.05727          1.53268         0.28762
  C         1.18409          0.67094        -0.09237
  C         1.18521         -0.67297        -0.08993
  C         0.05459         -1.51863         0.29671
  C        -1.18168         -1.51969        -0.19025
  H         0.27831          2.20836         1.11113
  H         2.13925          1.17520        -0.20835
  H         2.15248         -1.15794        -0.18850
  H         0.29418         -2.25760         1.05999
  H        -2.00539         -1.96517         0.37874
  H        -1.47781         -0.87253        -1.00401
  H        -1.95541          2.16363         0.21866
  H        -1.44235          0.96423        -1.07481
14
 step=         522     theta[rad]=           5.4664
  C        -1.19367          1.47810        -0.15448
  C         0.05736          1.53627         0.28616
  C         1.18495          0.67076        -0.09344
  C         1.18664         -0.67381        -0.08975
  C         0.05330         -1.51504         0.29989
  C        -1.17979         -1.52957        -0.19815
  H         0.27471          2.19926         1.12177
  H         2.13681          1.18052        -0.21300
  H         2.15680         -1.15442        -0.18299
  H         0.29869         -2.27368         1.04447
  H        -2.02246         -1.90825         0.42188
  H        -1.48585         -0.84616        -0.98425
  H        -1.94692          2.20821         0.17993
  H        -1.43225          0.98477        -1.09124
14
 step=         523     theta[rad]=           5.4768
  C        -1.19131          1.48445        -0.16028
  C         0.05729          1.53324         0.28739
  C         1.18423          0.67091        -0.09254
  C         1.18544         -0.67310        -0.08990
  C         0.05438         -1.51806         0.29721
  C        -1.18139         -1.52124        -0.19149
  H         0.27774          2.20693         1.11280
  H         2.13887          1.17604        -0.20908
  H         2.15316         -1.15738        -0.18763
  H         0.29489         -2.26012         1.05755
  H        -2.00808         -1.95623         0.38552
  H        -1.47908         -0.86838        -1.00091
  H        -1.95408          2.17064         0.21257
  H        -1.44076          0.96746        -1.07739
14
 step=         524     theta[rad]=           5.4873
  C        -1.18538          1.50036        -0.17480
  C         0.05710          1.52564         0.29049
  C         1.18242          0.67131        -0.09028
  C         1.18242         -0.67131        -0.09028
  C         0.05710         -1.52564         0.29048
  C        -1.18539         -1.50036        -0.17480
  H         0.28535          2.22615         1.09034
  H         2.14403          1.16481        -0.19926
  H         2.14403         -1.16481        -0.19926
  H         0.28535         -2.22615         1.09033
  H        -1.97202         -2.07648         0.29439
  H        -1.46211         -0.92408        -1.04266
  H        -1.97202          2.07648         0.29438
  H        -1.46210          0.92408        -1.04267
14
 step=         525     theta[rad]=           5.4978
  C        -1.17952          1.51612        -0.18917
  C         0.05691          1.51812         0.29355
  C         1.18063          0.67170        -0.08805
  C         1.17943         -0.66953        -0.09066
  C         0.05979         -1.53314         0.28383
  C        -1.18935         -1.47970        -0.15828
  H         0.29287          2.24518         1.06810
  H         2.14914          1.15371        -0.18954
  H         2.13499         -1.17217        -0.21077
  H         0.27591         -2.19253         1.12278
  H        -1.93633         -2.19549         0.20420
  H        -1.44532         -0.97921        -1.08398
  H        -1.98977          1.98328         0.37535
  H        -1.48322          0.88115        -1.00830
14
 step=         526     theta[rad]=           5.5083
  C        -1.17710          1.52264        -0.19512
  C         0.05684          1.51500         0.29482
  C         1.17990          0.67186        -0.08712
  C         1.17820         -0.66880        -0.09081
  C         0.06090         -1.53624         0.28108
  C        -1.19099         -1.47115        -0.15144
  H         0.29599          2.25306         1.05889
  H         2.15125          1.14910        -0.18551
  H         2.13125         -1.17522        -0.21554
  H         0.27200         -2.17861         1.13622
  H        -1.92155         -2.24478         0.16685
  H        -1.43836         -1.00204        -1.10109
  H        -1.99712          1.94469         0.40888
  H        -1.49197          0.86337        -0.99406
14
 step=         527     theta[rad]=           5.5187
  C        -1.17934          1.51660        -0.18962
  C         0.05691          1.51789         0.29364
  C         1.18058          0.67171        -0.08798
  C         1.17934         -0.66948        -0.09067
  C         0.05987         -1.53337         0.28363
  C        -1.18947         -1.47907        -0.15777
  H         0.29310          2.24577         1.06741
  H         2.14930          1.15336        -0.18924
  H         2.13471         -1.17240        -0.21113
  H         0.27562         -2.19149         1.12378
  H        -1.93522         -2.19917         0.20141
  H        -1.44480         -0.98091        -1.08526
  H        -1.99032          1.98040         0.37785
  H        -1.48388          0.87982        -1.00723
14
 step=         528     theta[rad]=           5.5292
  C        -1.18486          1.50176        -0.17608
  C         0.05708          1.52497         0.29076
  C         1.18226          0.67134        -0.09008
  C         1.18215         -0.67115        -0.09032
  C         0.05734         -1.52631         0.28989
  C        -1.18574         -1.49853        -0.17333
  H         0.28602          2.22784         1.08836
  H         2.14448          1.16383        -0.19839
  H         2.14323         -1.16547        -0.20028
  H         0.28451         -2.22317         1.09321
  H        -1.96885         -2.08705         0.28638
  H        -1.46062         -0.92898        -1.04633
  H        -1.97359          2.06820         0.30157
  H        -1.46398          0.92027        -1.03961
14
 step=         529     theta[rad]=           5.5397
  C        -1.19060          1.48635        -0.16201
  C         0.05727          1.53234         0.28776
  C         1.18401          0.67096        -0.09227
  C         1.18508         -0.67289        -0.08995
  C         0.05471         -1.51897         0.29641
  C        -1.18186         -1.51875        -0.18950
  H         0.27865          2.20922         1.11013
  H         2.13948          1.17470        -0.20791
  H         2.15207         -1.15827        -0.18902
  H         0.29375         -2.25608         1.06145
  H        -2.00378         -1.97056         0.37466
  H        -1.47706         -0.87502        -1.00588
  H        -1.95622          2.15942         0.22232
  H        -1.44330          0.96229        -1.07325
14
 step=         530     theta[rad]=           5.5501
  C        -1.19357          1.47836        -0.15472
  C         0.05736          1.53615         0.28621
  C         1.18492          0.67076        -0.09340
  C         1.18659         -0.67378        -0.08976
  C         0.05335         -1.51517         0.29978
  C        -1.17986         -1.52922        -0.19787
  H         0.27484          2.19958         1.12140
  H         2.13690          1.18033        -0.21284
  H         2.15665         -1.15454        -0.18318
  H         0.29853         -2.27311         1.04501
  H        -2.02187         -1.91024         0.42037
  H        -1.48557         -0.84708        -0.98494
  H        -1.94722          2.20665         0.18128
  H        -1.43260          0.98405        -1.09067
14
 step=         531     theta[rad]=           5.5606
  C        -1.19238          1.48156        -0.15764
  C         0.05732          1.53462         0.28683
  C         1.18455          0.67084        -0.09295
  C         1.18599         -0.67342        -0.08983
  C         0.05389         -1.51669         0.29843
  C        -1.18066         -1.52503        -0.19452
  H         0.27636          2.20343         1.11689
  H         2.13793          1.17808        -0.21087
  H         2.15482         -1.15603        -0.18552
  H         0.29662         -2.26630         1.05159
  H        -2.01463         -1.93437         0.40208
  H        -1.48216         -0.85826        -0.99332
  H        -1.95082          2.18775         0.19770
  H        -1.43688          0.97535        -1.08370
14
 step=         532     theta[rad]=           5.5711
  C        -1.18778          1.49393        -0.16892
  C         0.05718          1.52872         0.28923
  C         1.18315          0.67115        -0.09119
  C         1.18364         -0.67203        -0.09013
  C         0.05600         -1.52257         0.29320
  C        -1.18377         -1.50881        -0.18155
  H         0.28227          2.21838         1.09942
  H         2.14194          1.16936        -0.20323
  H         2.14772         -1.16181        -0.19456
  H         0.28921         -2.23990         1.07707
  H        -1.98660         -2.02783         0.33126
  H        -1.46897         -0.90155        -1.02577
  H        -1.96476          2.11457         0.26129
  H        -1.45347          0.94163        -1.05671
14
 step=         533     theta[rad]=           5.5816
  C        -1.18209          1.50921        -0.18287
  C         0.05700          1.52142         0.29221
  C         1.18142          0.67153        -0.08903
  C         1.18074         -0.67031        -0.09049
  C         0.05861         -1.52985         0.28675
  C        -1.18761         -1.48876        -0.16552
  H         0.28957          2.23684         1.07785
  H         2.14690          1.15858        -0.19380
  H         2.13895         -1.16895        -0.20573
  H         0.28005         -2.20727         1.10856
  H        -1.95197         -2.14332         0.24373
  H        -1.45268         -0.95504        -1.06587
  H        -1.98199          2.02413         0.33986
  H        -1.47396          0.89997        -1.02336
14
 step=         534     theta[rad]=           5.5920
  C        -1.17800          1.52021        -0.19291
  C         0.05687          1.51616         0.29435
  C         1.18017          0.67180        -0.08747
  C         1.17866         -0.66907        -0.09076
  C         0.06049         -1.53509         0.28210
  C        -1.19038         -1.47433        -0.15398
  H         0.29483          2.25013         1.06232
  H         2.15047          1.15082        -0.18701
  H         2.13264         -1.17408        -0.21376
  H         0.27346         -2.18379         1.13122
  H        -1.92705         -2.22644         0.18074
  H        -1.44095         -0.99354        -1.09473
  H        -1.99439          1.95905         0.39641
  H        -1.48872          0.86999        -0.99936
14
 step=         535     theta[rad]=           5.6025
  C        -1.17728          1.52215        -0.19468
  C         0.05684          1.51523         0.29472
  C         1.17995          0.67184        -0.08719
  C         1.17829         -0.66885        -0.09080
  C         0.06082         -1.53601         0.28128
  C        -1.19087         -1.47179        -0.15194
  H         0.29576          2.25247         1.05958
  H         2.15110          1.14945        -0.18581
  H         2.13153         -1.17499        -0.21518
  H         0.27229         -2.17965         1.13522
  H        -1.92265         -2.24111         0.16963
  H        -1.43888         -1.00034        -1.09982
  H        -1.99658          1.94756         0.40639
  H        -1.49132          0.86470        -0.99512
14
 step=         536     theta[rad]=           5.6130
  C        -1.18010          1.51456        -0.18776
  C         0.05693          1.51886         0.29325
  C         1.18081          0.67166        -0.08827
  C         1.17973         -0.66971        -0.09062
  C         0.05952         -1.53240         0.28449
  C        -1.18896         -1.48174        -0.15990
  H         0.29213          2.24331         1.07029
  H         2.14863          1.15480        -0.19049
  H         2.13588         -1.17145        -0.20964
  H         0.27684         -2.19585         1.11958
  H        -1.93984         -2.18376         0.21309
  H        -1.44697         -0.97378        -1.07991
  H        -1.98802          1.99247         0.36737
  H        -1.48114          0.88538        -1.01168
14
 step=         537     theta[rad]=           5.6235
  C        -1.18512          1.50106        -0.17544
  C         0.05709          1.52531         0.29062
  C         1.18234          0.67132        -0.09018
  C         1.18229         -0.67123        -0.09030
  C         0.05722         -1.52597         0.29019
  C        -1.18556         -1.49945        -0.17406
  H         0.28568          2.22700         1.08935
  H         2.14426          1.16432        -0.19883
  H         2.14363         -1.16514        -0.19977
  H         0.28493         -2.22466         1.09177
  H        -1.97043         -2.08176         0.29038
  H        -1.46136         -0.92653        -1.04449
  H        -1.97281          2.07234         0.29798
  H        -1.46304          0.92218        -1.04114
14
 step=         538     theta[rad]=           5.6339
  C        -1.19019          1.48746        -0.16302
  C         0.05725          1.53180         0.28798
  C         1.18388          0.67099        -0.09211
  C         1.18487         -0.67276        -0.08997
  C         0.05490         -1.51950         0.29593
  C        -1.18214         -1.51729        -0.18833
  H         0.27918          2.21057         1.10855
  H         2.13985          1.17392        -0.20722
  H         2.15143         -1.15879        -0.18983
  H         0.29308         -2.25370         1.06375
  H        -2.00125         -1.97898         0.36828
  H        -1.47587         -0.87892        -1.00881
  H        -1.95747          2.15282         0.22805
  H        -1.44480          0.95925        -1.07082
14
 step=         539     theta[rad]=           5.6444
  C        -1.19327          1.47918        -0.15547
  C         0.05735          1.53576         0.28637
  C         1.18482          0.67078        -0.09328
  C         1.18644         -0.67369        -0.08978
  C         0.05348         -1.51555         0.29943
  C        -1.18006         -1.52815        -0.19701
  H         0.27523          2.20056         1.12024
  H         2.13716          1.17976        -0.21233
  H         2.15618         -1.15492        -0.18378
  H         0.29804         -2.27137         1.04669
  H        -2.02002         -1.91641         0.41570
  H        -1.48470         -0.84994        -0.98708
  H        -1.94814          2.20182         0.18548
  H        -1.43369          0.98183        -1.08889
14
 step=         540     theta[rad]=           5.6549
  C        -1.19327          1.47918        -0.15547
  C         0.05735          1.53576         0.28637
  C         1.18482          0.67078        -0.09328
  C         1.18644         -0.67369        -0.08978
  C         0.05348         -1.51555         0.29943
  C        -1.18006         -1.52815        -0.19701
  H         0.27523          2.20056         1.12024
  H         2.13716          1.17976        -0.21233
  H         2.15618         -1.15492        -0.18378
  H         0.29804         -2.27137         1.04669
  H        -2.02002         -1.91641         0.41570
  H        -1.48470         -0.84994        -0.98708
  H        -1.94814          2.20182         0.18548
  H        -1.43369          0.98183        -1.08889
14
 step=         541     theta[rad]=           5.6653
  C        -1.19033          1.48708        -0.16268
  C         0.05726          1.53198         0.28790
  C         1.18393          0.67098        -0.09216
  C         1.18494         -0.67280        -0.08996
  C         0.05483         -1.51932         0.29609
  C        -1.18205         -1.51778        -0.18872
  H         0.27900          2.21011         1.10909
  H         2.13972          1.17418        -0.20745
  H         2.15165         -1.15861        -0.18956
  H         0.29331         -2.25450         1.06297
  H        -2.00211         -1.97613         0.37044
  H        -1.47627         -0.87760        -1.00782
  H        -1.95705          2.15506         0.22611
  H        -1.44429          0.96028        -1.07164
14
 step=         542     theta[rad]=           5.6758
  C        -1.18565          1.49966        -0.17416
  C         0.05711          1.52598         0.29035
  C         1.18250          0.67129        -0.09038
  C         1.18255         -0.67138        -0.09027
  C         0.05698         -1.52531         0.29078
  C        -1.18521         -1.50128        -0.17553
  H         0.28501          2.22531         1.09132
  H         2.14380          1.16531        -0.19969
  H         2.14443         -1.16449        -0.19875
  H         0.28577         -2.22765         1.08889
  H        -1.97360         -2.07119         0.29840
  H        -1.46285         -0.92163        -1.04082
  H        -1.97123          2.08062         0.29079
  H        -1.46116          0.92599        -1.04419
14
 step=         543     theta[rad]=           5.6863
  C        -1.18094          1.51230        -0.18569
  C         0.05696          1.51994         0.29281
  C         1.18107          0.67160        -0.08859
  C         1.18016         -0.66996        -0.09057
  C         0.05914         -1.53132         0.28544
  C        -1.18839         -1.48471        -0.16228
  H         0.29105          2.24057         1.07349
  H         2.14790          1.15640        -0.19189
  H         2.13718         -1.17039        -0.20798
  H         0.27820         -2.20068         1.11492
  H        -1.94497         -2.16666         0.22604
  H        -1.44938         -0.96585        -1.07397
  H        -1.98547          2.00586         0.35574
  H        -1.47811          0.89155        -1.01662
14
 step=         544     theta[rad]=           5.6968
  C        -1.17781          1.52071        -0.19337
  C         0.05686          1.51592         0.29444
  C         1.18011          0.67181        -0.08740
  C         1.17856         -0.66901        -0.09077
  C         0.06057         -1.53533         0.28189
  C        -1.19050         -1.47367        -0.15345
  H         0.29507          2.25074         1.06161
  H         2.15063          1.15046        -0.18670
  H         2.13236         -1.17432        -0.21413
  H         0.27316         -2.18272         1.13225
  H        -1.92591         -2.23024         0.17787
  H        -1.44041         -0.99530        -1.09604
  H        -1.99495          1.95608         0.39899
  H        -1.48939          0.86862        -0.99826
14
 step=         545     theta[rad]=           5.7072
  C        -1.17720          1.52237        -0.19487
  C         0.05684          1.51513         0.29476
  C         1.17993          0.67185        -0.08716
  C         1.17825         -0.66883        -0.09081
  C         0.06085         -1.53611         0.28119
  C        -1.19092         -1.47151        -0.15172
  H         0.29586          2.25273         1.05928
  H         2.15116          1.14930        -0.18568
  H         2.13141         -1.17509        -0.21534
  H         0.27217         -2.17919         1.13565
  H        -1.92217         -2.24272         0.16841
  H        -1.43865         -1.00108        -1.10038
  H        -1.99682          1.94630         0.40748
  H        -1.49160          0.86412        -0.99466
14
 step=         546     theta[rad]=           5.7177
  C        -1.17917          1.51707        -0.19005
  C         0.05690          1.51766         0.29374
  C         1.18053          0.67172        -0.08791
  C         1.17925         -0.66942        -0.09068
  C         0.05995         -1.53359         0.28343
  C        -1.18959         -1.47845        -0.15727
  H         0.29333          2.24634         1.06675
  H         2.14945          1.15303        -0.18895
  H         2.13444         -1.17262        -0.21147
  H         0.27534         -2.19049         1.12475
  H        -1.93416         -2.20273         0.19871
  H        -1.44429         -0.98256        -1.08649
  H        -1.99085          1.97762         0.38028
  H        -1.48451          0.87854        -1.00621
14
 step=         547     theta[rad]=           5.7282
  C        -1.18299          1.50680        -0.18067
  C         0.05702          1.52257         0.29174
  C         1.18169          0.67147        -0.08937
  C         1.18120         -0.67058        -0.09044
  C         0.05820         -1.52871         0.28777
  C        -1.18701         -1.49192        -0.16804
  H         0.28842          2.23393         1.08125
  H         2.14612          1.16027        -0.19528
  H         2.14034         -1.16782        -0.20397
  H         0.28149         -2.21241         1.10359
  H        -1.95743         -2.12512         0.25752
  H        -1.45524         -0.94661        -1.05955
  H        -1.97927          2.03838         0.32748
  H        -1.47073          0.90653        -1.02862
14
 step=         548     theta[rad]=           5.7386
  C        -1.18745          1.49482        -0.16974
  C         0.05717          1.52829         0.28941
  C         1.18305          0.67117        -0.09107
  C         1.18347         -0.67193        -0.09015
  C         0.05615         -1.52300         0.29282
  C        -1.18400         -1.50763        -0.18061
  H         0.28270          2.21946         1.09816
  H         2.14223          1.16872        -0.20268
  H         2.14721         -1.16223        -0.19521
  H         0.28867         -2.23798         1.07892
  H        -1.98457         -2.03462         0.32611
  H        -1.46802         -0.90469        -1.02813
  H        -1.96577          2.10925         0.26591
  H        -1.45467          0.93918        -1.05475
14
 step=         549     theta[rad]=           5.7491
  C        -1.19125          1.48461        -0.16043
  C         0.05729          1.53316         0.28742
  C         1.18421          0.67092        -0.09251
  C         1.18541         -0.67308        -0.08991
  C         0.05441         -1.51814         0.29714
  C        -1.18143         -1.52102        -0.19132
  H         0.27782          2.20713         1.11257
  H         2.13892          1.17592        -0.20898
  H         2.15306         -1.15746        -0.18775
  H         0.29479         -2.25977         1.05788
  H        -2.00770         -1.95747         0.38458
  H        -1.47890         -0.86896        -1.00134
  H        -1.95426          2.16967         0.21341
  H        -1.44098          0.96701        -1.07703
14
 step=         550     theta[rad]=           5.7596
  C        -1.19339          1.47885        -0.15517
  C         0.05735          1.53592         0.28630
  C         1.18486          0.67078        -0.09333
  C         1.18650         -0.67373        -0.08977
  C         0.05343         -1.51540         0.29957
  C        -1.17998         -1.52859        -0.19736
  H         0.27507          2.20016         1.12071
  H         2.13705          1.17999        -0.21254
  H         2.15637         -1.15477        -0.18354
  H         0.29824         -2.27208         1.04601
  H        -2.02077         -1.91390         0.41759
  H        -1.48505         -0.84878        -0.98621
  H        -1.94776          2.20378         0.18378
  H        -1.43325          0.98273        -1.08961
14
 step=         551     theta[rad]=           5.7701
  C        -1.19341          1.47879        -0.15511
  C         0.05735          1.53595         0.28629
  C         1.18487          0.67077        -0.09334
  C         1.18651         -0.67374        -0.08977
  C         0.05342         -1.51537         0.29960
  C        -1.17996         -1.52866        -0.19742
  H         0.27504          2.20009         1.12079
  H         2.13703          1.18003        -0.21257
  H         2.15641         -1.15474        -0.18350
  H         0.29828         -2.27221         1.04589
  H        -2.02090         -1.91346         0.41793
  H        -1.48511         -0.84857        -0.98606
  H        -1.94770          2.20413         0.18347
  H        -1.43317          0.98289        -1.08974
14
 step=         552     theta[rad]=           5.7805
  C        -1.19143          1.48413        -0.15998
  C         0.05729          1.53340         0.28733
  C         1.18426          0.67091        -0.09258
  C         1.18550         -0.67314        -0.08989
  C         0.05433         -1.51791         0.29734
  C        -1.18131         -1.52166        -0.19183
  H         0.27759          2.20654         1.11326
  H         2.13876          1.17627        -0.20928
  H         2.15334         -1.15723        -0.18740
  H         0.29508         -2.26081         1.05688
  H        -2.00881         -1.95379         0.38737
  H        -1.47942         -0.86725        -1.00006
  H        -1.95371          2.17255         0.21091
  H        -1.44033          0.96834        -1.07810
14
 step=         553     theta[rad]=           5.7910
  C        -1.18803          1.49326        -0.16832
  C         0.05718          1.52903         0.28910
  C         1.18323          0.67113        -0.09129
  C         1.18377         -0.67211        -0.09011
  C         0.05589         -1.52226         0.29349
  C        -1.18360         -1.50968        -0.18225
  H         0.28195          2.21757         1.10037
  H         2.14173          1.16983        -0.20364
  H         2.14810         -1.16150        -0.19407
  H         0.28961         -2.24132         1.07570
  H        -1.98811         -2.02279         0.33507
  H        -1.46968         -0.89922        -1.02402
  H        -1.96401          2.11851         0.25786
  H        -1.45257          0.94345        -1.05817
14
 step=         554     theta[rad]=           5.8015
  C        -1.18409          1.50385        -0.17798
  C         0.05706          1.52398         0.29116
  C         1.18203          0.67139        -0.08979
  C         1.18176         -0.67091        -0.09037
  C         0.05769         -1.52730         0.28901
  C        -1.18626         -1.49579        -0.17114
  H         0.28701          2.23036         1.08542
  H         2.14516          1.16236        -0.19711
  H         2.14203         -1.16644        -0.20181
  H         0.28326         -2.21872         1.09751
  H        -1.96412         -2.10281         0.27444
  H        -1.45839         -0.93628        -1.05180
  H        -1.97594          2.05586         0.31229
  H        -1.46677          0.91459        -1.03506
14
 step=         555     theta[rad]=           5.8119
  C        -1.18051          1.51346        -0.18675
  C         0.05695          1.51939         0.29303
  C         1.18094          0.67163        -0.08843
  C         1.17994         -0.66983        -0.09059
  C         0.05933         -1.53187         0.28496
  C        -1.18868         -1.48319        -0.16106
  H         0.29160          2.24197         1.07185
  H         2.14828          1.15558        -0.19118
  H         2.13652         -1.17093        -0.20883
  H         0.27750         -2.19821         1.11730
  H        -1.94235         -2.17541         0.21942
  H        -1.44815         -0.96991        -1.07701
  H        -1.98678          1.99901         0.36169
  H        -1.47966          0.88840        -1.01410
14
 step=         556     theta[rad]=           5.8224
  C        -1.17804          1.52010        -0.19281
  C         0.05687          1.51621         0.29432
  C         1.18018          0.67179        -0.08748
  C         1.17868         -0.66908        -0.09075
  C         0.06047         -1.53504         0.28215
  C        -1.19035         -1.47447        -0.15409
  H         0.29478          2.25000         1.06247
  H         2.15043          1.15089        -0.18707
  H         2.13270         -1.17403        -0.21369
  H         0.27352         -2.18402         1.13100
  H        -1.92729         -2.22563         0.18135
  H        -1.44106         -0.99317        -1.09444
  H        -1.99427          1.95968         0.39586
  H        -1.48857          0.87028        -0.99959
14
 step=         557     theta[rad]=           5.8329
  C        -1.17710          1.52263        -0.19511
  C         0.05684          1.51501         0.29482
  C         1.17990          0.67186        -0.08713
  C         1.17820         -0.66880        -0.09081
  C         0.06090         -1.53624         0.28108
  C        -1.19099         -1.47116        -0.15145
  H         0.29598          2.25305         1.05891
  H         2.15125          1.14911        -0.18552
  H         2.13126         -1.17521        -0.21553
  H         0.27201         -2.17863         1.13620
  H        -1.92157         -2.24470         0.16690
  H        -1.43837         -1.00200        -1.10107
  H        -1.99711          1.94475         0.40883
  H        -1.49196          0.86340        -0.99409
14
 step=         558     theta[rad]=           5.8434
  C        -1.17778          1.52081        -0.19345
  C         0.05686          1.51588         0.29446
  C         1.18010          0.67181        -0.08738
  C         1.17854         -0.66900        -0.09077
  C         0.06059         -1.53537         0.28185
  C        -1.19053         -1.47355        -0.15336
  H         0.29511          2.25085         1.06148
  H         2.15066          1.15040        -0.18664
  H         2.13230         -1.17436        -0.21420
  H         0.27310         -2.18252         1.13245
  H        -1.92570         -2.23094         0.17733
  H        -1.44031         -0.99563        -1.09629
  H        -1.99506          1.95552         0.39947
  H        -1.48951          0.86836        -0.99806
14
 step=         559     theta[rad]=           5.8538
  C        -1.17984          1.51527        -0.18840
  C         0.05692          1.51852         0.29338
  C         1.18073          0.67167        -0.08817
  C         1.17959         -0.66963        -0.09064
  C         0.05964         -1.53274         0.28419
  C        -1.18914         -1.48081        -0.15916
  H         0.29247          2.24416         1.06929
  H         2.14886          1.15430        -0.19006
  H         2.13548         -1.17178        -0.21015
  H         0.27642         -2.19434         1.12104
  H        -1.93824         -2.18910         0.20904
  H        -1.44622         -0.97625        -1.08176
  H        -1.98882          1.98829         0.37100
  H        -1.48209          0.88346        -1.01014
14
 step=         560     theta[rad]=           5.8643
  C        -1.18282          1.50725        -0.18108
  C         0.05702          1.52235         0.29182
  C         1.18164          0.67148        -0.08931
  C         1.18111         -0.67053        -0.09045
  C         0.05827         -1.52892         0.28758
  C        -1.18712         -1.49134        -0.16758
  H         0.28864          2.23447         1.08062
  H         2.14626          1.15996        -0.19501
  H         2.14008         -1.16803        -0.20429
  H         0.28123         -2.21146         1.10451
  H        -1.95642         -2.12849         0.25497
  H        -1.45477         -0.94817        -1.06072
  H        -1.97978          2.03575         0.32977
  H        -1.47133          0.90532        -1.02765
14
 step=         561     theta[rad]=           5.8748
  C        -1.18617          1.49827        -0.17289
  C         0.05712          1.52664         0.29008
  C         1.18266          0.67126        -0.09058
  C         1.18282         -0.67154        -0.09023
  C         0.05674         -1.52464         0.29137
  C        -1.18486         -1.50311        -0.17699
  H         0.28435          2.22362         1.09330
  H         2.14335          1.16629        -0.20055
  H         2.14523         -1.16384        -0.19773
  H         0.28661         -2.23063         1.08601
  H        -1.97677         -2.06064         0.30639
  H        -1.46434         -0.91675        -1.03716
  H        -1.96965          2.08888         0.28361
  H        -1.45929          0.92980        -1.04724
14
 step=         562     theta[rad]=           5.8853
  C        -1.18930          1.48984        -0.16519
  C         0.05722          1.53067         0.28844
  C         1.18361          0.67105        -0.09177
  C         1.18442         -0.67249        -0.09003
  C         0.05530         -1.52063         0.29493
  C        -1.18274         -1.51417        -0.18584
  H         0.28032          2.21344         1.10520
  H         2.14062          1.17224        -0.20575
  H         2.15007         -1.15990        -0.19157
  H         0.29166         -2.24862         1.06865
  H        -1.99587         -1.99694         0.35466
  H        -1.47333         -0.88724        -1.01504
  H        -1.96015          2.13876         0.24027
  H        -1.44799          0.95277        -1.06563
14
 step=         563     theta[rad]=           5.8957
  C        -1.19177          1.48320        -0.15914
  C         0.05730          1.53384         0.28715
  C         1.18437          0.67088        -0.09271
  C         1.18567         -0.67324        -0.08987
  C         0.05417         -1.51747         0.29773
  C        -1.18107         -1.52288        -0.19280
  H         0.27715          2.20542         1.11457
  H         2.13846          1.17692        -0.20985
  H         2.15387         -1.15680        -0.18672
  H         0.29563         -2.26279         1.05498
  H        -2.01090         -1.94679         0.39267
  H        -1.48041         -0.86401        -0.99763
  H        -1.95267          2.17803         0.20615
  H        -1.43909          0.97086        -1.08011
14
 step=         564     theta[rad]=           5.9062
  C        -1.19327          1.47918        -0.15547
  C         0.05735          1.53576         0.28637
  C         1.18482          0.67078        -0.09328
  C         1.18644         -0.67369        -0.08978
  C         0.05348         -1.51555         0.29943
  C        -1.18006         -1.52815        -0.19701
  H         0.27523          2.20056         1.12024
  H         2.13716          1.17976        -0.21233
  H         2.15618         -1.15492        -0.18378
  H         0.29804         -2.27137         1.04669
  H        -2.02002         -1.91641         0.41570
  H        -1.48470         -0.84994        -0.98708
  H        -1.94814          2.20182         0.18548
  H        -1.43369          0.98183        -1.08889
14
 step=         565     theta[rad]=           5.9167
  C        -1.19366          1.47812        -0.15450
  C         0.05736          1.53627         0.28616
  C         1.18494          0.67076        -0.09343
  C         1.18664         -0.67381        -0.08975
  C         0.05330         -1.51505         0.29988
  C        -1.17980         -1.52954        -0.19813
  H         0.27472          2.19928         1.12174
  H         2.13682          1.18050        -0.21299
  H         2.15679         -1.15443        -0.18301
  H         0.29868         -2.27364         1.04451
  H        -2.02242         -1.90840         0.42176
  H        -1.48583         -0.84623        -0.98430
  H        -1.94694          2.20809         0.18003
  H        -1.43227          0.98471        -1.09120
14
 step=         566     theta[rad]=           5.9271
  C        -1.19299          1.47992        -0.15614
  C         0.05734          1.53540         0.28651
  C         1.18474          0.67080        -0.09318
  C         1.18630         -0.67361        -0.08979
  C         0.05361         -1.51591         0.29912
  C        -1.18025         -1.52718        -0.19624
  H         0.27558          2.20146         1.11920
  H         2.13740          1.17923        -0.21187
  H         2.15576         -1.15527        -0.18432
  H         0.29760         -2.26979         1.04822
  H        -2.01834         -1.92201         0.41145
  H        -1.48391         -0.85253        -0.98903
  H        -1.94897          2.19743         0.18929
  H        -1.43469          0.97980        -1.08727
14
 step=         567     theta[rad]=           5.9376
  C        -1.19143          1.48413        -0.15998
  C         0.05729          1.53340         0.28733
  C         1.18426          0.67091        -0.09258
  C         1.18550         -0.67314        -0.08989
  C         0.05433         -1.51791         0.29734
  C        -1.18131         -1.52166        -0.19183
  H         0.27759          2.20654         1.11326
  H         2.13876          1.17627        -0.20928
  H         2.15334         -1.15723        -0.18740
  H         0.29508         -2.26081         1.05688
  H        -2.00881         -1.95379         0.38737
  H        -1.47942         -0.86725        -1.00006
  H        -1.95371          2.17255         0.21091
  H        -1.44033          0.96834        -1.07810
14
 step=         568     theta[rad]=           5.9481
  C        -1.18923          1.49004        -0.16538
  C         0.05722          1.53057         0.28848
  C         1.18359          0.67105        -0.09174
  C         1.18438         -0.67247        -0.09004
  C         0.05534         -1.52073         0.29484
  C        -1.18279         -1.51390        -0.18562
  H         0.28042          2.21369         1.10490
  H         2.14068          1.17209        -0.20563
  H         2.14995         -1.16000        -0.19172
  H         0.29153         -2.24818         1.06907
  H        -1.99540         -1.99850         0.35348
  H        -1.47311         -0.88796        -1.01558
  H        -1.96038          2.13754         0.24133
  H        -1.44826          0.95221        -1.06518
14
 step=         569     theta[rad]=           5.9586
  C        -1.18668          1.49688        -0.17162
  C         0.05714          1.52731         0.28981
  C         1.18282          0.67122        -0.09077
  C         1.18308         -0.67170        -0.09020
  C         0.05651         -1.52398         0.29196
  C        -1.18451         -1.50493        -0.17845
  H         0.28368          2.22194         1.09526
  H         2.14290          1.16727        -0.20141
  H         2.14603         -1.16319        -0.19671
  H         0.28744         -2.23359         1.08315
  H        -1.97991         -2.05015         0.31434
  H        -1.46582         -0.91189        -1.03352
  H        -1.96809          2.09709         0.27647
  H        -1.45743          0.93358        -1.05027
14
 step=         570     theta[rad]=           5.9690
  C        -1.18409          1.50385        -0.17798
  C         0.05706          1.52398         0.29116
  C         1.18203          0.67139        -0.08979
  C         1.18176         -0.67091        -0.09037
  C         0.05769         -1.52730         0.28901
  C        -1.18626         -1.49579        -0.17114
  H         0.28701          2.23036         1.08542
  H         2.14516          1.16236        -0.19711
  H         2.14203         -1.16644        -0.20181
  H         0.28326         -2.21872         1.09751
  H        -1.96412         -2.10281         0.27444
  H        -1.45839         -0.93628        -1.05180
  H        -1.97594          2.05586         0.31229
  H        -1.46677          0.91459        -1.03506
14
 step=         571     theta[rad]=           5.9795
  C        -1.18170          1.51027        -0.18384
  C         0.05698          1.52091         0.29241
  C         1.18130          0.67155        -0.08888
  C         1.18054         -0.67019        -0.09052
  C         0.05879         -1.53036         0.28630
  C        -1.18788         -1.48737        -0.16441
  H         0.29008          2.23812         1.07635
  H         2.14724          1.15783        -0.19315
  H         2.13835         -1.16944        -0.20650
  H         0.27942         -2.20501         1.11074
  H        -1.94957         -2.15131         0.23768
  H        -1.45155         -0.95875        -1.06864
  H        -1.98318          2.01788         0.34530
  H        -1.47538          0.89709        -1.02105
14
 step=         572     theta[rad]=           5.9900
  C        -1.17971          1.51561        -0.18871
  C         0.05692          1.51836         0.29345
  C         1.18069          0.67168        -0.08812
  C         1.17953         -0.66959        -0.09065
  C         0.05970         -1.53290         0.28405
  C        -1.18922         -1.48036        -0.15880
  H         0.29263          2.24457         1.06881
  H         2.14898          1.15406        -0.18985
  H         2.13528         -1.17194        -0.21040
  H         0.27621         -2.19361         1.12174
  H        -1.93747         -2.19169         0.20707
  H        -1.44585         -0.97745        -1.08266
  H        -1.98920          1.98626         0.37277
  H        -1.48255          0.88252        -1.00939
14
 step=         573     theta[rad]=           6.0004
  C        -1.17825          1.51954        -0.19229
  C         0.05687          1.51648         0.29421
  C         1.18025          0.67178        -0.08756
  C         1.17878         -0.66915        -0.09074
  C         0.06037         -1.53477         0.28239
  C        -1.19021         -1.47522        -0.15469
  H         0.29451          2.24931         1.06327
  H         2.15025          1.15129        -0.18742
  H         2.13303         -1.17377        -0.21327
  H         0.27386         -2.18523         1.12983
  H        -1.92857         -2.22135         0.18460
  H        -1.44167         -0.99118        -1.09296
  H        -1.99363          1.96303         0.39294
  H        -1.48781          0.87182        -1.00083
14
 step=         574     theta[rad]=           6.0109
  C        -1.17738          1.52188        -0.19443
  C         0.05685          1.51536         0.29467
  C         1.17998          0.67184        -0.08723
  C         1.17834         -0.66888        -0.09080
  C         0.06077         -1.53588         0.28140
  C        -1.19080         -1.47214        -0.15223
  H         0.29563          2.25214         1.05996
  H         2.15101          1.14964        -0.18598
  H         2.13169         -1.17486        -0.21498
  H         0.27246         -2.18023         1.13466
  H        -1.92326         -2.23905         0.17119
  H        -1.43917         -0.99938        -1.09910
  H        -1.99627          1.94917         0.40499
  H        -1.49095          0.86544        -0.99572
14
 step=         575     theta[rad]=           6.0214
  C        -1.17710          1.52264        -0.19512
  C         0.05684          1.51500         0.29482
  C         1.17990          0.67186        -0.08712
  C         1.17820         -0.66880        -0.09081
  C         0.06090         -1.53624         0.28108
  C        -1.19099         -1.47115        -0.15143
  H         0.29599          2.25306         1.05889
  H         2.15125          1.14910        -0.18551
  H         2.13125         -1.17522        -0.21554
  H         0.27200         -2.17861         1.13622
  H        -1.92154         -2.24479         0.16684
  H        -1.43836         -1.00204        -1.10109
  H        -1.99713          1.94468         0.40889
  H        -1.49197          0.86337        -0.99406
14
 step=         576     theta[rad]=           6.0319
  C        -1.17736          1.52194        -0.19449
  C         0.05685          1.51534         0.29468
  C         1.17997          0.67184        -0.08722
  C         1.17833         -0.66888        -0.09080
  C         0.06078         -1.53591         0.28137
  C        -1.19081         -1.47206        -0.15217
  H         0.29565          2.25222         1.05988
  H         2.15103          1.14960        -0.18594
  H         2.13165         -1.17489        -0.21503
  H         0.27242         -2.18010         1.13478
  H        -1.92313         -2.23950         0.17085
  H        -1.43911         -0.99959        -1.09926
  H        -1.99634          1.94882         0.40529
  H        -1.49103          0.86528        -0.99559
14
 step=         577     theta[rad]=           6.0423
  C        -1.17808          1.52000        -0.19271
  C         0.05687          1.51626         0.29430
  C         1.18019          0.67179        -0.08750
  C         1.17870         -0.66909        -0.09075
  C         0.06045         -1.53499         0.28219
  C        -1.19032         -1.47461        -0.15421
  H         0.29472          2.24987         1.06262
  H         2.15040          1.15097        -0.18714
  H         2.13277         -1.17398        -0.21361
  H         0.27359         -2.18425         1.13077
  H        -1.92754         -2.22481         0.18198
  H        -1.44118         -0.99279        -1.09416
  H        -1.99414          1.96033         0.39530
  H        -1.48843          0.87058        -0.99983
14
 step=         578     theta[rad]=           6.0528
  C        -1.17917          1.51707        -0.19005
  C         0.05690          1.51766         0.29374
  C         1.18053          0.67172        -0.08791
  C         1.17925         -0.66942        -0.09068
  C         0.05995         -1.53359         0.28343
  C        -1.18959         -1.47845        -0.15727
  H         0.29333          2.24634         1.06675
  H         2.14945          1.15303        -0.18895
  H         2.13444         -1.17262        -0.21147
  H         0.27534         -2.19049         1.12475
  H        -1.93416         -2.20273         0.19871
  H        -1.44429         -0.98256        -1.08649
  H        -1.99085          1.97762         0.38028
  H        -1.48451          0.87854        -1.00621
14
 step=         579     theta[rad]=           6.0633
  C        -1.18051          1.51346        -0.18675
  C         0.05695          1.51939         0.29303
  C         1.18094          0.67163        -0.08843
  C         1.17994         -0.66983        -0.09059
  C         0.05933         -1.53187         0.28496
  C        -1.18868         -1.48319        -0.16106
  H         0.29160          2.24197         1.07185
  H         2.14828          1.15558        -0.19118
  H         2.13652         -1.17093        -0.20883
  H         0.27750         -2.19821         1.11730
  H        -1.94235         -2.17541         0.21942
  H        -1.44815         -0.96991        -1.07701
  H        -1.98678          1.99901         0.36169
  H        -1.47966          0.88840        -1.01410
14
 step=         580     theta[rad]=           6.0737
  C        -1.18201          1.50942        -0.18307
  C         0.05699          1.52131         0.29225
  C         1.18139          0.67153        -0.08900
  C         1.18070         -0.67029        -0.09050
  C         0.05865         -1.52995         0.28666
  C        -1.18767         -1.48848        -0.16529
  H         0.28967          2.23710         1.07755
  H         2.14697          1.15842        -0.19367
  H         2.13883         -1.16905        -0.20588
  H         0.27992         -2.20682         1.10900
  H        -1.95149         -2.14494         0.24251
  H        -1.45245         -0.95579        -1.06643
  H        -1.98223          2.02287         0.34096
  H        -1.47425          0.89939        -1.02290
14
 step=         581     theta[rad]=           6.0842
  C        -1.18358          1.50522        -0.17923
  C         0.05704          1.52332         0.29143
  C         1.18187          0.67143        -0.08959
  C         1.18150         -0.67076        -0.09040
  C         0.05793         -1.52795         0.28843
  C        -1.18661         -1.49399        -0.16970
  H         0.28767          2.23202         1.08348
  H         2.14561          1.16139        -0.19626
  H         2.14124         -1.16708        -0.20281
  H         0.28244         -2.21578         1.10034
  H        -1.96101         -2.11319         0.26656
  H        -1.45693         -0.94109        -1.05541
  H        -1.97749          2.04773         0.31936
  H        -1.46862          0.91084        -1.03206
14
 step=         582     theta[rad]=           6.0947
  C        -1.18512          1.50106        -0.17544
  C         0.05709          1.52531         0.29062
  C         1.18234          0.67132        -0.09018
  C         1.18229         -0.67123        -0.09030
  C         0.05722         -1.52597         0.29019
  C        -1.18556         -1.49945        -0.17406
  H         0.28568          2.22700         1.08935
  H         2.14426          1.16432        -0.19883
  H         2.14363         -1.16514        -0.19977
  H         0.28493         -2.22466         1.09177
  H        -1.97043         -2.08176         0.29038
  H        -1.46136         -0.92653        -1.04449
  H        -1.97281          2.07234         0.29798
  H        -1.46304          0.92218        -1.04114
14
 step=         583     theta[rad]=           6.1052
  C        -1.18660          1.49711        -0.17183
  C         0.05714          1.52720         0.28985
  C         1.18279          0.67123        -0.09074
  C         1.18304         -0.67167        -0.09020
  C         0.05654         -1.52409         0.29186
  C        -1.18457         -1.50463        -0.17821
  H         0.28379          2.22222         1.09493
  H         2.14297          1.16711        -0.20127
  H         2.14590         -1.16330        -0.19688
  H         0.28730         -2.23310         1.08363
  H        -1.97939         -2.05189         0.31302
  H        -1.46558         -0.91269        -1.03412
  H        -1.96835          2.09573         0.27765
  H        -1.45774          0.93295        -1.04977
14
 step=         584     theta[rad]=           6.1156
  C        -1.18795          1.49348        -0.16852
  C         0.05718          1.52893         0.28915
  C         1.18320          0.67114        -0.09126
  C         1.18373         -0.67208        -0.09012
  C         0.05593         -1.52236         0.29339
  C        -1.18366         -1.50939        -0.18202
  H         0.28206          2.21784         1.10005
  H         2.14180          1.16967        -0.20351
  H         2.14798         -1.16160        -0.19423
  H         0.28947         -2.24085         1.07615
  H        -1.98761         -2.02447         0.33380
  H        -1.46945         -0.89999        -1.02460
  H        -1.96426          2.11720         0.25900
  H        -1.45287          0.94284        -1.05768
14
 step=         585     theta[rad]=           6.1261
  C        -1.18915          1.49025        -0.16557
  C         0.05722          1.53047         0.28852
  C         1.18357          0.67106        -0.09171
  C         1.18434         -0.67245        -0.09004
  C         0.05537         -1.52083         0.29476
  C        -1.18285         -1.51363        -0.18540
  H         0.28052          2.21394         1.10461
  H         2.14075          1.17195        -0.20550
  H         2.14983         -1.16009        -0.19187
  H         0.29141         -2.24774         1.06950
  H        -1.99493         -2.00007         0.35230
  H        -1.47289         -0.88869        -1.01613
  H        -1.96062          2.13631         0.24240
  H        -1.44854          0.95165        -1.06473
14
 step=         586     theta[rad]=           6.1366
  C        -1.19019          1.48746        -0.16302
  C         0.05725          1.53180         0.28798
  C         1.18388          0.67099        -0.09211
  C         1.18487         -0.67276        -0.08997
  C         0.05490         -1.51950         0.29593
  C        -1.18214         -1.51729        -0.18833
  H         0.27918          2.21057         1.10855
  H         2.13985          1.17392        -0.20722
  H         2.15143         -1.15879        -0.18983
  H         0.29308         -2.25370         1.06375
  H        -2.00125         -1.97898         0.36828
  H        -1.47587         -0.87892        -1.00881
  H        -1.95747          2.15282         0.22805
  H        -1.44480          0.95925        -1.07082
14
 step=         587     theta[rad]=           6.1470
  C        -1.19106          1.48512        -0.16089
  C         0.05728          1.53292         0.28752
  C         1.18415          0.67093        -0.09244
  C         1.18531         -0.67302        -0.08992
  C         0.05450         -1.51838         0.29692
  C        -1.18155         -1.52036        -0.19079
  H         0.27806          2.20773         1.11186
  H         2.13908          1.17557        -0.20867
  H         2.15278         -1.15769        -0.18812
  H         0.29449         -2.25870         1.05892
  H        -2.00657         -1.96126         0.38170
  H        -1.47837         -0.87072        -1.00266
  H        -1.95483          2.16670         0.21600
  H        -1.44165          0.96564        -1.07594
14
 step=         588     theta[rad]=           6.1575
  C        -1.19177          1.48320        -0.15914
  C         0.05730          1.53384         0.28715
  C         1.18437          0.67088        -0.09271
  C         1.18567         -0.67324        -0.08987
  C         0.05417         -1.51747         0.29773
  C        -1.18107         -1.52288        -0.19280
  H         0.27715          2.20542         1.11457
  H         2.13846          1.17692        -0.20985
  H         2.15387         -1.15680        -0.18672
  H         0.29563         -2.26279         1.05498
  H        -2.01090         -1.94679         0.39267
  H        -1.48041         -0.86401        -0.99763
  H        -1.95267          2.17803         0.20615
  H        -1.43909          0.97086        -1.08011
14
 step=         589     theta[rad]=           6.1680
  C        -1.19234          1.48168        -0.15775
  C         0.05732          1.53456         0.28685
  C         1.18454          0.67085        -0.09293
  C         1.18596         -0.67341        -0.08984
  C         0.05391         -1.51675         0.29837
  C        -1.18069         -1.52487        -0.19439
  H         0.27642          2.20359         1.11671
  H         2.13797          1.17799        -0.21079
  H         2.15475         -1.15609        -0.18561
  H         0.29654         -2.26603         1.05185
  H        -2.01434         -1.93532         0.40136
  H        -1.48203         -0.85870        -0.99365
  H        -1.95096          2.18701         0.19835
  H        -1.43705          0.97500        -1.08343
14
 step=         590     theta[rad]=           6.1785
  C        -1.19277          1.48052        -0.15669
  C         0.05733          1.53512         0.28663
  C         1.18467          0.67082        -0.09309
  C         1.18618         -0.67354        -0.08981
  C         0.05371         -1.51619         0.29887
  C        -1.18040         -1.52640        -0.19561
  H         0.27587          2.20218         1.11835
  H         2.13759          1.17881        -0.21151
  H         2.15541         -1.15555        -0.18476
  H         0.29724         -2.26852         1.04945
  H        -2.01699         -1.92651         0.40804
  H        -1.48327         -0.85462        -0.99059
  H        -1.94965          2.19391         0.19236
  H        -1.43549          0.97818        -1.08597
14
 step=         591     theta[rad]=           6.1889
  C        -1.19309          1.47965        -0.15590
  C         0.05734          1.53553         0.28646
  C         1.18477          0.67080        -0.09322
  C         1.18635         -0.67364        -0.08979
  C         0.05357         -1.51578         0.29923
  C        -1.18018         -1.52753        -0.19652
  H         0.27545          2.20113         1.11957
  H         2.13731          1.17942        -0.21204
  H         2.15591         -1.15514        -0.18413
  H         0.29776         -2.27036         1.04767
  H        -2.01894         -1.91999         0.41298
  H        -1.48419         -0.85160        -0.98833
  H        -1.94867          2.19902         0.18792
  H        -1.43433          0.98053        -1.08786
14
 step=         592     theta[rad]=           6.1994
  C        -1.19332          1.47904        -0.15534
  C         0.05735          1.53583         0.28634
  C         1.18484          0.67078        -0.09330
  C         1.18646         -0.67371        -0.08977
  C         0.05346         -1.51549         0.29949
  C        -1.18003         -1.52833        -0.19716
  H         0.27516          2.20039         1.12044
  H         2.13711          1.17986        -0.21242
  H         2.15626         -1.15486        -0.18368
  H         0.29813         -2.27167         1.04640
  H        -2.02033         -1.91535         0.41650
  H        -1.48484         -0.84945        -0.98672
  H        -1.94798          2.20265         0.18476
  H        -1.43351          0.98221        -1.08919
14
 step=         593     theta[rad]=           6.2099
  C        -1.19347          1.47863        -0.15496
  C         0.05736          1.53602         0.28626
  C         1.18489          0.67077        -0.09336
  C         1.18654         -0.67375        -0.08976
  C         0.05339         -1.51529         0.29967
  C        -1.17992         -1.52888        -0.19760
  H         0.27496          2.19989         1.12102
  H         2.13698          1.18015        -0.21267
  H         2.15650         -1.15466        -0.18338
  H         0.29838         -2.27256         1.04555
  H        -2.02127         -1.91222         0.41887
  H        -1.48529         -0.84800        -0.98563
  H        -1.94751          2.20510         0.18263
  H        -1.43295          0.98333        -1.09010
14
 step=         594     theta[rad]=           6.2204
  C        -1.19357          1.47836        -0.15472
  C         0.05736          1.53615         0.28621
  C         1.18492          0.67076        -0.09340
  C         1.18659         -0.67378        -0.08976
  C         0.05335         -1.51517         0.29978
  C        -1.17986         -1.52922        -0.19787
  H         0.27484          2.19958         1.12140
  H         2.13690          1.18033        -0.21284
  H         2.15665         -1.15454        -0.18318
  H         0.29853         -2.27311         1.04501
  H        -2.02187         -1.91024         0.42037
  H        -1.48557         -0.84708        -0.98494
  H        -1.94722          2.20665         0.18128
  H        -1.43260          0.98405        -1.09067
14
 step=         595     theta[rad]=           6.2308
  C        -1.19363          1.47821        -0.15458
  C         0.05736          1.53622         0.28618
  C         1.18493          0.67076        -0.09342
  C         1.18662         -0.67380        -0.08975
  C         0.05332         -1.51509         0.29984
  C        -1.17982         -1.52942        -0.19803
  H         0.27476          2.19939         1.12161
  H         2.13685          1.18044        -0.21293
  H         2.15674         -1.15447        -0.18307
  H         0.29862         -2.27344         1.04470
  H        -2.02221         -1.90909         0.42124
  H        -1.48573         -0.84655        -0.98454
  H        -1.94705          2.20755         0.18050
  H        -1.43239          0.98446        -1.09100
14
 step=         596     theta[rad]=           6.2413
  C        -1.19366          1.47813        -0.15451
  C         0.05736          1.53626         0.28616
  C         1.18494          0.67076        -0.09343
  C         1.18664         -0.67381        -0.08975
  C         0.05331         -1.51506         0.29987
  C        -1.17980         -1.52952        -0.19811
  H         0.27473          2.19930         1.12172
  H         2.13682          1.18049        -0.21298
  H         2.15678         -1.15443        -0.18302
  H         0.29867         -2.27361         1.04454
  H        -2.02239         -1.90850         0.42169
  H        -1.48581         -0.84628        -0.98434
  H        -1.94696          2.20801         0.18010
  H        -1.43229          0.98468        -1.09117
14
 step=         597     theta[rad]=           6.2518
  C        -1.19367          1.47810        -0.15448
  C         0.05736          1.53627         0.28616
  C         1.18495          0.67076        -0.09344
  C         1.18664         -0.67381        -0.08975
  C         0.05330         -1.51504         0.29989
  C        -1.17979         -1.52957        -0.19815
  H         0.27471          2.19926         1.12177
  H         2.13681          1.18052        -0.21300
  H         2.15680         -1.15442        -0.18299
  H         0.29869         -2.27368         1.04447
  H        -2.02246         -1.90825         0.42188
  H        -1.48585         -0.84616        -0.98425
  H        -1.94692          2.20821         0.17993
  H        -1.43225          0.98477        -1.09124
14
 step=         598     theta[rad]=           6.2622
  C        -1.19367          1.47809        -0.15447
  C         0.05736          1.53628         0.28615
  C         1.18495          0.67076        -0.09344
  C         1.18664         -0.67382        -0.08975
  C         0.05330         -1.51504         0.29989
  C        -1.17979         -1.52958        -0.19816
  H         0.27471          2.19925         1.12178
  H         2.13681          1.18053        -0.21300
  H         2.15681         -1.15441        -0.18299
  H         0.29870         -2.27370         1.04445
  H        -2.02248         -1.90818         0.42193
  H        -1.48586         -0.84613        -0.98422
  H        -1.94691          2.20826         0.17988
  H        -1.43223          0.98479        -1.09127
14
 step=         599     theta[rad]=           6.2727
  C        -1.19367          1.47809        -0.15447
  C         0.05736          1.53628         0.28615
  C         1.18495          0.67076        -0.09344
  C         1.18664         -0.67382        -0.08975
  C         0.05330         -1.51504         0.29989
  C        -1.17979         -1.52958        -0.19816
  H         0.27471          2.19924         1.12178
  H         2.13681          1.18053        -0.21301
  H         2.15681         -1.15441        -0.18298
  H         0.29870         -2.27370         1.04444
  H        -2.02249         -1.90817         0.42194
  H        -1.48586         -0.84612        -0.98422
  H        -1.94691          2.20827         0.17987
  H        -1.43223          0.98480        -1.09127
14
 step=         600     theta[rad]=           6.2832
  C        -1.19367          1.47809        -0.15447
  C         0.05736          1.53628         0.28615
  C         1.18495          0.67076        -0.09344
  C         1.18664         -0.67382        -0.08975
  C         0.05330         -1.51504         0.29989
  C        -1.17979         -1.52958        -0.19816
  H         0.27471          2.19924         1.12178
  H         2.13681          1.18053        -0.21301
  H         2.15681         -1.15441        -0.18298
  H         0.29870         -2.27370         1.04444
  H        -2.02249         -1.90817         0.42194
  H        -1.48586         -0.84612        -0.98422
  H        -1.94691          2.20827         0.17987
  H        -1.43223          0.98480        -1.09127
