14
 step=           0     theta[rad]=           0.0000
  C        -1.17377          1.51257        -0.15707
  C         0.06280          1.51219         0.27594
  C         1.17886          0.66731        -0.09306
  C         1.18545         -0.67566        -0.08785
  C         0.05195         -1.53806         0.30372
  C        -1.19589         -1.48923        -0.19091
  H         0.06223          2.29017         1.07618
  H         2.12738          1.18417        -0.20168
  H         2.15966         -1.14671        -0.19582
  H         0.49037         -2.16789         1.10279
  H        -1.97187         -2.07670         0.29107
  H        -1.53363         -0.93684        -1.05392
  H        -1.97256          2.07627         0.29715
  H        -1.38359          0.91044        -1.03050
14
 step=           1     theta[rad]=           0.0105
  C        -1.17377          1.51256        -0.15707
  C         0.06280          1.51219         0.27594
  C         1.17886          0.66731        -0.09306
  C         1.18545         -0.67566        -0.08785
  C         0.05195         -1.53806         0.30372
  C        -1.19589         -1.48923        -0.19091
  H         0.06224          2.29016         1.07618
  H         2.12738          1.18417        -0.20168
  H         2.15966         -1.14672        -0.19582
  H         0.49035         -2.16790         1.10279
  H        -1.97187         -2.07670         0.29107
  H        -1.53363         -0.93684        -1.05392
  H        -1.97256          2.07627         0.29715
  H        -1.38360          0.91044        -1.03050
14
 step=           2     theta[rad]=           0.0209
  C        -1.17377          1.51256        -0.15707
  C         0.06280          1.51220         0.27595
  C         1.17886          0.66732        -0.09306
  C         1.18545         -0.67565        -0.08785
  C         0.05195         -1.53805         0.30371
  C        -1.19589         -1.48924        -0.19090
  H         0.06234          2.29014         1.07619
  H         2.12739          1.18416        -0.20168
  H         2.15965         -1.14672        -0.19582
  H         0.49026         -2.16792         1.10278
  H        -1.97187         -2.07670         0.29107
  H        -1.53360         -0.93684        -1.05391
  H        -1.97256          2.07627         0.29714
  H        -1.38363          0.91045        -1.03050
14
 step=           3     theta[rad]=           0.0314
  C        -1.17379          1.51254        -0.15710
  C         0.06279          1.51222         0.27597
  C         1.17887          0.66732        -0.09305
  C         1.18544         -0.67565        -0.08785
  C         0.05196         -1.53803         0.30369
  C        -1.19587         -1.48926        -0.19087
  H         0.06267          2.29004         1.07621
  H         2.12741          1.18413        -0.20168
  H         2.15963         -1.14675        -0.19583
  H         0.48996         -2.16801         1.10276
  H        -1.97187         -2.07670         0.29108
  H        -1.53349         -0.93682        -1.05390
  H        -1.97256          2.07627         0.29714
  H        -1.38375          0.91047        -1.03052
14
 step=           4     theta[rad]=           0.0419
  C        -1.17383          1.51250        -0.15716
  C         0.06277          1.51227         0.27602
  C         1.17888          0.66734        -0.09304
  C         1.18543         -0.67563        -0.08786
  C         0.05198         -1.53799         0.30365
  C        -1.19583         -1.48930        -0.19082
  H         0.06345          2.28982         1.07626
  H         2.12747          1.18406        -0.20167
  H         2.15957         -1.14681        -0.19584
  H         0.48924         -2.16821         1.10272
  H        -1.97187         -2.07670         0.29109
  H        -1.53324         -0.93677        -1.05386
  H        -1.97255          2.07627         0.29713
  H        -1.38402          0.91052        -1.03057
14
 step=           5     theta[rad]=           0.0524
  C        -1.17391          1.51241        -0.15728
  C         0.06273          1.51236         0.27612
  C         1.17891          0.66736        -0.09302
  C         1.18541         -0.67560        -0.08788
  C         0.05201         -1.53791         0.30356
  C        -1.19576         -1.48937        -0.19071
  H         0.06497          2.28938         1.07636
  H         2.12759          1.18393        -0.20165
  H         2.15947         -1.14694        -0.19586
  H         0.48784         -2.16861         1.10264
  H        -1.97187         -2.07669         0.29111
  H        -1.53275         -0.93669        -1.05378
  H        -1.97255          2.07627         0.29711
  H        -1.38456          0.91061        -1.03065
14
 step=           6     theta[rad]=           0.0628
  C        -1.17405          1.51227        -0.15749
  C         0.06266          1.51252         0.27629
  C         1.17895          0.66741        -0.09299
  C         1.18538         -0.67555        -0.08791
  C         0.05207         -1.53776         0.30340
  C        -1.19564         -1.48950        -0.19052
  H         0.06760          2.28863         1.07652
  H         2.12778          1.18370        -0.20163
  H         2.15928         -1.14715        -0.19590
  H         0.48543         -2.16930         1.10249
  H        -1.97187         -2.07669         0.29115
  H        -1.53191         -0.93654        -1.05365
  H        -1.97254          2.07628         0.29708
  H        -1.38548          0.91077        -1.03079
14
 step=           7     theta[rad]=           0.0733
  C        -1.17426          1.51204        -0.15782
  C         0.06256          1.51277         0.27656
  C         1.17901          0.66748        -0.09294
  C         1.18532         -0.67547        -0.08795
  C         0.05217         -1.53753         0.30315
  C        -1.19544         -1.48971        -0.19022
  H         0.07175          2.28744         1.07679
  H         2.12809          1.18334        -0.20158
  H         2.15899         -1.14749        -0.19597
  H         0.48161         -2.17038         1.10226
  H        -1.97188         -2.07669         0.29121
  H        -1.53058         -0.93630        -1.05344
  H        -1.97253          2.07628         0.29703
  H        -1.38694          0.91103        -1.03102
14
 step=           8     theta[rad]=           0.0838
  C        -1.17458          1.51171        -0.15831
  C         0.06240          1.51314         0.27696
  C         1.17911          0.66759        -0.09286
  C         1.18524         -0.67535        -0.08802
  C         0.05231         -1.53719         0.30279
  C        -1.19515         -1.49002        -0.18978
  H         0.07789          2.28567         1.07718
  H         2.12855          1.18281        -0.20151
  H         2.15856         -1.14799        -0.19606
  H         0.47597         -2.17199         1.10191
  H        -1.97188         -2.07668         0.29130
  H        -1.52861         -0.93595        -1.05313
  H        -1.97252          2.07628         0.29695
  H        -1.38911          0.91140        -1.03135
14
 step=           9     theta[rad]=           0.0942
  C        -1.17503          1.51124        -0.15900
  C         0.06218          1.51366         0.27753
  C         1.17925          0.66775        -0.09276
  C         1.18512         -0.67518        -0.08811
  C         0.05251         -1.53670         0.30228
  C        -1.19475         -1.49045        -0.18915
  H         0.08654          2.28319         1.07773
  H         2.12920          1.18206        -0.20142
  H         2.15795         -1.14869        -0.19620
  H         0.46802         -2.17424         1.10143
  H        -1.97189         -2.07667         0.29143
  H        -1.52584         -0.93545        -1.05269
  H        -1.97250          2.07629         0.29685
  H        -1.39215          0.91193        -1.03182
14
 step=          10     theta[rad]=           0.1047
  C        -1.17564          1.51060        -0.15993
  C         0.06188          1.51436         0.27829
  C         1.17944          0.66796        -0.09261
  C         1.18496         -0.67495        -0.08824
  C         0.05278         -1.53605         0.30158
  C        -1.19420         -1.49103        -0.18831
  H         0.09822          2.27984         1.07847
  H         2.13007          1.18105        -0.20129
  H         2.15714         -1.14963        -0.19638
  H         0.45729         -2.17729         1.10078
  H        -1.97189         -2.07666         0.29161
  H        -1.52209         -0.93479        -1.05210
  H        -1.97247          2.07630         0.29670
  H        -1.39626          0.91264        -1.03246
14
 step=          11     theta[rad]=           0.1152
  C        -1.17643          1.50977        -0.16114
  C         0.06149          1.51528         0.27928
  C         1.17968          0.66823        -0.09242
  C         1.18475         -0.67466        -0.08841
  C         0.05313         -1.53521         0.30068
  C        -1.19348         -1.49179        -0.18721
  H         0.11343          2.27548         1.07943
  H         2.13120          1.17973        -0.20113
  H         2.15607         -1.15087        -0.19661
  H         0.44332         -2.18126         1.09993
  H        -1.97190         -2.07665         0.29183
  H        -1.51722         -0.93392        -1.05134
  H        -1.97243          2.07632         0.29651
  H        -1.40161          0.91357        -1.03329
14
 step=          12     theta[rad]=           0.1257
  C        -1.17743          1.50872        -0.16266
  C         0.06100          1.51643         0.28053
  C         1.17998          0.66857        -0.09218
  C         1.18449         -0.67428        -0.08862
  C         0.05357         -1.53414         0.29954
  C        -1.19258         -1.49275        -0.18582
  H         0.13261          2.26997         1.08065
  H         2.13263          1.17806        -0.20092
  H         2.15473         -1.15242        -0.19691
  H         0.42569         -2.18627         1.09886
  H        -1.97192         -2.07663         0.29212
  H        -1.51107         -0.93282        -1.05037
  H        -1.97239          2.07634         0.29627
  H        -1.40836          0.91475        -1.03434
14
 step=          13     theta[rad]=           0.1361
  C        -1.17865          1.50743        -0.16453
  C         0.06040          1.51785         0.28206
  C         1.18036          0.66899        -0.09189
  C         1.18418         -0.67383        -0.08887
  C         0.05412         -1.53283         0.29815
  C        -1.19147         -1.49392        -0.18413
  H         0.15610          2.26324         1.08214
  H         2.13439          1.17603        -0.20066
  H         2.15308         -1.15433        -0.19727
  H         0.40411         -2.19241         1.09755
  H        -1.97193         -2.07660         0.29247
  H        -1.50354         -0.93148        -1.04918
  H        -1.97233          2.07636         0.29598
  H        -1.41662          0.91618        -1.03562
14
 step=          14     theta[rad]=           0.1466
  C        -1.18011          1.50590        -0.16675
  C         0.05969          1.51953         0.28388
  C         1.18080          0.66949        -0.09154
  C         1.18380         -0.67328        -0.08918
  C         0.05476         -1.53128         0.29649
  C        -1.19016         -1.49531        -0.18211
  H         0.18405          2.25522         1.08391
  H         2.13647          1.17360        -0.20036
  H         2.15112         -1.15660        -0.19770
  H         0.37842         -2.19970         1.09599
  H        -1.97195         -2.07658         0.29288
  H        -1.49458         -0.92988        -1.04777
  H        -1.97226          2.07638         0.29564
  H        -1.42646          0.91789        -1.03714
14
 step=          15     theta[rad]=           0.1571
  C        -1.18179          1.50413        -0.16932
  C         0.05886          1.52148         0.28599
  C         1.18132          0.67007        -0.09114
  C         1.18336         -0.67265        -0.08953
  C         0.05551         -1.52948         0.29457
  C        -1.18863         -1.49692        -0.17977
  H         0.21640          2.24593         1.08596
  H         2.13889          1.17080        -0.20001
  H         2.14886         -1.15922        -0.19820
  H         0.34870         -2.20815         1.09418
  H        -1.97197         -2.07655         0.29336
  H        -1.48421         -0.92803        -1.04614
  H        -1.97218          2.07641         0.29524
  H        -1.43784          0.91987        -1.03891
14
 step=          16     theta[rad]=           0.1676
  C        -1.18369          1.50215        -0.17221
  C         0.05793          1.52368         0.28836
  C         1.18190          0.67072        -0.09069
  C         1.18286         -0.67194        -0.08993
  C         0.05635         -1.52745         0.29242
  C        -1.18692         -1.49874        -0.17715
  H         0.25275          2.23550         1.08827
  H         2.14160          1.16764        -0.19961
  H         2.14631         -1.16217        -0.19876
  H         0.31530         -2.21764         1.09215
  H        -1.97199         -2.07651         0.29390
  H        -1.47256         -0.92595        -1.04430
  H        -1.97210          2.07645         0.29479
  H        -1.45063          0.92209        -1.04089
14
 step=          17     theta[rad]=           0.1780
  C        -1.18575          1.49998        -0.17536
  C         0.05692          1.52606         0.29094
  C         1.18253          0.67143        -0.09019
  C         1.18232         -0.67117        -0.09036
  C         0.05726         -1.52525         0.29007
  C        -1.18506         -1.50071        -0.17429
  H         0.29236          2.22414         1.09078
  H         2.14455          1.16421        -0.19918
  H         2.14354         -1.16538        -0.19937
  H         0.27891         -2.22798         1.08994
  H        -1.97202         -2.07647         0.29449
  H        -1.45986         -0.92368        -1.04230
  H        -1.97200          2.07648         0.29430
  H        -1.46457          0.92451        -1.04305
14
 step=          18     theta[rad]=           0.1885
  C        -1.18792          1.49770        -0.17867
  C         0.05586          1.52857         0.29366
  C         1.18320          0.67218        -0.08967
  C         1.18176         -0.67036        -0.09081
  C         0.05822         -1.52293         0.28760
  C        -1.18310         -1.50279        -0.17128
  H         0.33402          2.21219         1.09342
  H         2.14766          1.16059        -0.19873
  H         2.14062         -1.16876        -0.20001
  H         0.24063         -2.23886         1.08761
  H        -1.97205         -2.07643         0.29511
  H        -1.44651         -0.92130        -1.04020
  H        -1.97190          2.07652         0.29378
  H        -1.47923          0.92706        -1.04532
14
 step=          19     theta[rad]=           0.1990
  C        -1.19011          1.49540        -0.18201
  C         0.05478          1.53111         0.29640
  C         1.18387          0.67293        -0.08915
  C         1.18119         -0.66954        -0.09127
  C         0.05919         -1.52059         0.28510
  C        -1.18112         -1.50489        -0.16824
  H         0.37610          2.20012         1.09609
  H         2.15080          1.15694        -0.19827
  H         2.13767         -1.17218        -0.20066
  H         0.20196         -2.24985         1.08527
  H        -1.97208         -2.07639         0.29574
  H        -1.43302         -0.91889        -1.03808
  H        -1.97180          2.07656         0.29326
  H        -1.49403          0.92963        -1.04761
14
 step=          20     theta[rad]=           0.2094
  C        -1.19221          1.49319        -0.18522
  C         0.05375          1.53355         0.29904
  C         1.18451          0.67365        -0.08865
  C         1.18064         -0.66875        -0.09171
  C         0.06013         -1.51834         0.28271
  C        -1.17921         -1.50691        -0.16533
  H         0.41649          2.18853         1.09865
  H         2.15382          1.15344        -0.19783
  H         2.13484         -1.17545        -0.20128
  H         0.16485         -2.26040         1.08301
  H        -1.97210         -2.07635         0.29634
  H        -1.42007         -0.91658        -1.03604
  H        -1.97170          2.07660         0.29276
  H        -1.50825          0.93210        -1.04982
14
 step=          21     theta[rad]=           0.2199
  C        -1.19410          1.49121        -0.18810
  C         0.05282          1.53573         0.30140
  C         1.18509          0.67430        -0.08820
  C         1.18015         -0.66804        -0.09211
  C         0.06096         -1.51632         0.28056
  C        -1.17751         -1.50871        -0.16271
  H         0.45271          2.17813         1.10095
  H         2.15652          1.15030        -0.19744
  H         2.13231         -1.17839        -0.20184
  H         0.13157         -2.26986         1.08099
  H        -1.97213         -2.07631         0.29688
  H        -1.40846         -0.91451        -1.03421
  H        -1.97161          2.07663         0.29231
  H        -1.52099          0.93431        -1.05179
14
 step=          22     theta[rad]=           0.2304
  C        -1.19562          1.48961        -0.19043
  C         0.05208          1.53749         0.30330
  C         1.18556          0.67483        -0.08783
  C         1.17975         -0.66747        -0.09243
  C         0.06164         -1.51470         0.27882
  C        -1.17613         -1.51017        -0.16060
  H         0.48198          2.16974         1.10281
  H         2.15870          1.14776        -0.19712
  H         2.13026         -1.18077        -0.20229
  H         0.10467         -2.27750         1.07935
  H        -1.97214         -2.07629         0.29731
  H        -1.39907         -0.91283        -1.03273
  H        -1.97154          2.07666         0.29195
  H        -1.53129          0.93610        -1.05339
14
 step=          23     theta[rad]=           0.2409
  C        -1.19664          1.48855        -0.19197
  C         0.05158          1.53867         0.30457
  C         1.18587          0.67517        -0.08759
  C         1.17948         -0.66709        -0.09264
  C         0.06209         -1.51361         0.27767
  C        -1.17521         -1.51114        -0.15919
  H         0.50146          2.16415         1.10404
  H         2.16016          1.14607        -0.19691
  H         2.12889         -1.18235        -0.20259
  H         0.08678         -2.28258         1.07827
  H        -1.97216         -2.07627         0.29760
  H        -1.39283         -0.91172        -1.03175
  H        -1.97149          2.07668         0.29170
  H        -1.53814          0.93729        -1.05445
14
 step=          24     theta[rad]=           0.2513
  C        -1.19700          1.48816        -0.19253
  C         0.05140          1.53909         0.30503
  C         1.18598          0.67530        -0.08750
  C         1.17939         -0.66696        -0.09272
  C         0.06225         -1.51322         0.27725
  C        -1.17488         -1.51149        -0.15869
  H         0.50847          2.16214         1.10449
  H         2.16068          1.14546        -0.19683
  H         2.12840         -1.18292        -0.20270
  H         0.08033         -2.28441         1.07788
  H        -1.97216         -2.07626         0.29771
  H        -1.39059         -0.91132        -1.03140
  H        -1.97148          2.07668         0.29162
  H        -1.54061          0.93772        -1.05483
14
 step=          25     theta[rad]=           0.2618
  C        -1.19661          1.48858        -0.19193
  C         0.05159          1.53863         0.30454
  C         1.18586          0.67516        -0.08760
  C         1.17949         -0.66710        -0.09263
  C         0.06207         -1.51364         0.27770
  C        -1.17524         -1.51111        -0.15923
  H         0.50087          2.16432         1.10401
  H         2.16011          1.14612        -0.19691
  H         2.12893         -1.18230        -0.20258
  H         0.08732         -2.28243         1.07830
  H        -1.97216         -2.07627         0.29759
  H        -1.39302         -0.91175        -1.03178
  H        -1.97150          2.07667         0.29171
  H        -1.53793          0.93726        -1.05442
14
 step=          26     theta[rad]=           0.2723
  C        -1.19539          1.48986        -0.19006
  C         0.05219          1.53722         0.30301
  C         1.18548          0.67474        -0.08789
  C         1.17981         -0.66756        -0.09238
  C         0.06153         -1.51495         0.27909
  C        -1.17635         -1.50994        -0.16093
  H         0.47740          2.17105         1.10252
  H         2.15836          1.14816        -0.19717
  H         2.13058         -1.18039        -0.20222
  H         0.10888         -2.27630         1.07961
  H        -1.97214         -2.07629         0.29725
  H        -1.40055         -0.91310        -1.03296
  H        -1.97155          2.07665         0.29200
  H        -1.52968          0.93582        -1.05314
14
 step=          27     theta[rad]=           0.2827
  C        -1.19334          1.49201        -0.18694
  C         0.05320          1.53485         0.30044
  C         1.18486          0.67404        -0.08838
  C         1.18035         -0.66833        -0.09195
  C         0.06063         -1.51714         0.28143
  C        -1.17820         -1.50798        -0.16377
  H         0.43808          2.18233         1.10002
  H         2.15543          1.15157        -0.19760
  H         2.13333         -1.17721        -0.20162
  H         0.14501         -2.26604         1.08180
  H        -1.97212         -2.07633         0.29666
  H        -1.41315         -0.91535        -1.03495
  H        -1.97165          2.07662         0.29249
  H        -1.51584          0.93342        -1.05099
14
 step=          28     theta[rad]=           0.2932
  C        -1.19055          1.49494        -0.18268
  C         0.05456          1.53162         0.29695
  C         1.18400          0.67308        -0.08905
  C         1.18107         -0.66937        -0.09136
  C         0.05939         -1.52012         0.28460
  C        -1.18072         -1.50531        -0.16763
  H         0.38455          2.19769         1.09663
  H         2.15143          1.15621        -0.19818
  H         2.13708         -1.17286        -0.20079
  H         0.19419         -2.25206         1.08479
  H        -1.97208         -2.07638         0.29586
  H        -1.43031         -0.91841        -1.03765
  H        -1.97178          2.07657         0.29315
  H        -1.49701          0.93015        -1.04807
14
 step=          29     theta[rad]=           0.3037
  C        -1.18720          1.49846        -0.17757
  C         0.05621          1.52774         0.29276
  C         1.18298          0.67193        -0.08985
  C         1.18195         -0.67063        -0.09066
  C         0.05791         -1.52370         0.28841
  C        -1.18374         -1.50211        -0.17228
  H         0.32025          2.21614         1.09255
  H         2.14663          1.16179        -0.19888
  H         2.14158         -1.16765        -0.19980
  H         0.25328         -2.23527         1.08838
  H        -1.97204         -2.07644         0.29491
  H        -1.45092         -0.92209        -1.04090
  H        -1.97193          2.07651         0.29395
  H        -1.47438          0.92622        -1.04457
14
 step=          30     theta[rad]=           0.3142
  C        -1.18357          1.50227        -0.17202
  C         0.05799          1.52354         0.28821
  C         1.18186          0.67068        -0.09072
  C         1.18289         -0.67199        -0.08990
  C         0.05629         -1.52758         0.29256
  C        -1.18703         -1.49862        -0.17732
  H         0.25044          2.23617         1.08812
  H         2.14143          1.16784        -0.19964
  H         2.14647         -1.16198        -0.19872
  H         0.31742         -2.21704         1.09228
  H        -1.97199         -2.07651         0.29387
  H        -1.47330         -0.92608        -1.04442
  H        -1.97210          2.07644         0.29481
  H        -1.44982          0.92195        -1.04076
14
 step=          31     theta[rad]=           0.3246
  C        -1.18000          1.50602        -0.16658
  C         0.05974          1.51941         0.28375
  C         1.18077          0.66946        -0.09157
  C         1.18382         -0.67332        -0.08915
  C         0.05471         -1.53139         0.29662
  C        -1.19025         -1.49521        -0.18226
  H         0.18198          2.25581         1.08378
  H         2.13632          1.17378        -0.20038
  H         2.15127         -1.15643        -0.19767
  H         0.38033         -2.19916         1.09610
  H        -1.97195         -2.07658         0.29285
  H        -1.49525         -0.92999        -1.04788
  H        -1.97227          2.07638         0.29566
  H        -1.42573          0.91776        -1.03703
14
 step=          32     theta[rad]=           0.3351
  C        -1.17692          1.50926        -0.16187
  C         0.06126          1.51584         0.27988
  C         1.17983          0.66840        -0.09231
  C         1.18463         -0.67448        -0.08851
  C         0.05335         -1.53469         0.30013
  C        -1.19304         -1.49225        -0.18654
  H         0.12270          2.27282         1.08002
  H         2.13189          1.17892        -0.20103
  H         2.15542         -1.15162        -0.19675
  H         0.43480         -2.18368         1.09941
  H        -1.97191         -2.07664         0.29197
  H        -1.51425         -0.93339        -1.05087
  H        -1.97241          2.07633         0.29640
  H        -1.40487          0.91414        -1.03380
14
 step=          33     theta[rad]=           0.3456
  C        -1.17472          1.51156        -0.15852
  C         0.06233          1.51330         0.27714
  C         1.17915          0.66764        -0.09283
  C         1.18520         -0.67530        -0.08805
  C         0.05237         -1.53704         0.30263
  C        -1.19503         -1.49015        -0.18958
  H         0.08058          2.28490         1.07735
  H         2.12875          1.18258        -0.20148
  H         2.15837         -1.14820        -0.19610
  H         0.47350         -2.17269         1.10176
  H        -1.97188         -2.07668         0.29134
  H        -1.52775         -0.93579        -1.05299
  H        -1.97251          2.07629         0.29692
  H        -1.39005          0.91156        -1.03150
14
 step=          34     theta[rad]=           0.3560
  C        -1.17378          1.51255        -0.15709
  C         0.06279          1.51221         0.27596
  C         1.17887          0.66732        -0.09306
  C         1.18545         -0.67565        -0.08785
  C         0.05196         -1.53804         0.30370
  C        -1.19588         -1.48925        -0.19088
  H         0.06253          2.29008         1.07620
  H         2.12740          1.18414        -0.20168
  H         2.15964         -1.14674        -0.19583
  H         0.49008         -2.16797         1.10277
  H        -1.97187         -2.07670         0.29108
  H        -1.53353         -0.93683        -1.05391
  H        -1.97256          2.07627         0.29714
  H        -1.38370          0.91046        -1.03052
14
 step=          35     theta[rad]=           0.3665
  C        -1.17433          1.51197        -0.15793
  C         0.06252          1.51285         0.27665
  C         1.17904          0.66751        -0.09292
  C         1.18530         -0.67544        -0.08797
  C         0.05220         -1.53745         0.30307
  C        -1.19538         -1.48978        -0.19012
  H         0.07315          2.28704         1.07688
  H         2.12820          1.18322        -0.20157
  H         2.15889         -1.14760        -0.19599
  H         0.48033         -2.17075         1.10218
  H        -1.97188         -2.07669         0.29123
  H        -1.53013         -0.93622        -1.05337
  H        -1.97253          2.07628         0.29701
  H        -1.38743          0.91111        -1.03109
14
 step=          36     theta[rad]=           0.3770
  C        -1.17643          1.50977        -0.16114
  C         0.06149          1.51528         0.27928
  C         1.17968          0.66823        -0.09242
  C         1.18475         -0.67466        -0.08841
  C         0.05313         -1.53521         0.30068
  C        -1.19348         -1.49179        -0.18721
  H         0.11343          2.27548         1.07943
  H         2.13120          1.17973        -0.20113
  H         2.15607         -1.15087        -0.19661
  H         0.44332         -2.18126         1.09993
  H        -1.97190         -2.07665         0.29183
  H        -1.51722         -0.93392        -1.05134
  H        -1.97243          2.07632         0.29651
  H        -1.40161          0.91357        -1.03329
14
 step=          37     theta[rad]=           0.3875
  C        -1.17989          1.50613        -0.16642
  C         0.05979          1.51929         0.28361
  C         1.18074          0.66942        -0.09159
  C         1.18385         -0.67336        -0.08913
  C         0.05467         -1.53151         0.29674
  C        -1.19035         -1.49510        -0.18241
  H         0.17991          2.25640         1.08365
  H         2.13616          1.17396        -0.20040
  H         2.15141         -1.15626        -0.19764
  H         0.38223         -2.19862         1.09622
  H        -1.97195         -2.07658         0.29282
  H        -1.49591         -0.93011        -1.04798
  H        -1.97227          2.07638         0.29569
  H        -1.42500          0.91764        -1.03692
14
 step=          38     theta[rad]=           0.3979
  C        -1.18429          1.50151        -0.17313
  C         0.05764          1.52438         0.28912
  C         1.18209          0.67093        -0.09054
  C         1.18271         -0.67172        -0.09005
  C         0.05662         -1.52681         0.29173
  C        -1.18638         -1.49932        -0.17631
  H         0.26435          2.23218         1.08900
  H         2.14246          1.16664        -0.19949
  H         2.14550         -1.16311        -0.19894
  H         0.30464         -2.22067         1.09150
  H        -1.97200         -2.07650         0.29408
  H        -1.46884         -0.92528        -1.04372
  H        -1.97207          2.07646         0.29464
  H        -1.45471          0.92280        -1.04152
14
 step=          39     theta[rad]=           0.4084
  C        -1.18898          1.49659        -0.18028
  C         0.05534          1.52980         0.29498
  C         1.18352          0.67254        -0.08942
  C         1.18148         -0.66996        -0.09103
  C         0.05869         -1.52180         0.28640
  C        -1.18214         -1.50380        -0.16982
  H         0.35430          2.20637         1.09471
  H         2.14917          1.15883        -0.19851
  H         2.13920         -1.17041        -0.20032
  H         0.22200         -2.24416         1.08648
  H        -1.97206         -2.07641         0.29541
  H        -1.44001         -0.92014        -1.03918
  H        -1.97185          2.07654         0.29353
  H        -1.48636          0.92830        -1.04642
14
 step=          40     theta[rad]=           0.4189
  C        -1.19316          1.49220        -0.18666
  C         0.05328          1.53464         0.30022
  C         1.18480          0.67398        -0.08842
  C         1.18039         -0.66840        -0.09191
  C         0.06055         -1.51733         0.28163
  C        -1.17836         -1.50781        -0.16402
  H         0.43464          2.18332         1.09981
  H         2.15517          1.15186        -0.19763
  H         2.13357         -1.17693        -0.20156
  H         0.14817         -2.26514         1.08200
  H        -1.97211         -2.07633         0.29661
  H        -1.41425         -0.91554        -1.03512
  H        -1.97166          2.07661         0.29253
  H        -1.51463          0.93321        -1.05081
14
 step=          41     theta[rad]=           0.4294
  C        -1.19605          1.48917        -0.19107
  C         0.05187          1.53798         0.30384
  C         1.18569          0.67497        -0.08773
  C         1.17964         -0.66731        -0.09252
  C         0.06183         -1.51424         0.27834
  C        -1.17575         -1.51058        -0.16001
  H         0.49012          2.16740         1.10332
  H         2.15931          1.14705        -0.19703
  H         2.12969         -1.18143        -0.20242
  H         0.09720         -2.27962         1.07890
  H        -1.97215         -2.07628         0.29743
  H        -1.39647         -0.91237        -1.03232
  H        -1.97152          2.07666         0.29185
  H        -1.53415          0.93660        -1.05383
14
 step=          42     theta[rad]=           0.4398
  C        -1.19700          1.48817        -0.19252
  C         0.05140          1.53908         0.30502
  C         1.18598          0.67530        -0.08750
  C         1.17939         -0.66696        -0.09272
  C         0.06225         -1.51323         0.27726
  C        -1.17489         -1.51149        -0.15869
  H         0.50836          2.16217         1.10448
  H         2.16067          1.14547        -0.19683
  H         2.12841         -1.18291        -0.20270
  H         0.08044         -2.28438         1.07788
  H        -1.97216         -2.07626         0.29771
  H        -1.39062         -0.91133        -1.03140
  H        -1.97148          2.07668         0.29162
  H        -1.54057          0.93772        -1.05483
14
 step=          43     theta[rad]=           0.4503
  C        -1.19568          1.48955        -0.19051
  C         0.05205          1.53756         0.30338
  C         1.18558          0.67485        -0.08782
  C         1.17973         -0.66745        -0.09244
  C         0.06166         -1.51463         0.27876
  C        -1.17608         -1.51023        -0.16052
  H         0.48308          2.16942         1.10288
  H         2.15878          1.14766        -0.19711
  H         2.13018         -1.18086        -0.20231
  H         0.10366         -2.27778         1.07929
  H        -1.97215         -2.07628         0.29733
  H        -1.39872         -0.91277        -1.03268
  H        -1.97154          2.07666         0.29193
  H        -1.53168          0.93617        -1.05345
14
 step=          44     theta[rad]=           0.4608
  C        -1.19221          1.49319        -0.18522
  C         0.05375          1.53355         0.29904
  C         1.18451          0.67365        -0.08865
  C         1.18064         -0.66875        -0.09171
  C         0.06013         -1.51834         0.28271
  C        -1.17921         -1.50691        -0.16533
  H         0.41649          2.18853         1.09865
  H         2.15382          1.15344        -0.19783
  H         2.13484         -1.17545        -0.20128
  H         0.16485         -2.26040         1.08301
  H        -1.97210         -2.07635         0.29634
  H        -1.42007         -0.91658        -1.03604
  H        -1.97170          2.07660         0.29276
  H        -1.50825          0.93210        -1.04982
14
 step=          45     theta[rad]=           0.4712
  C        -1.18720          1.49846        -0.17757
  C         0.05621          1.52774         0.29276
  C         1.18298          0.67193        -0.08985
  C         1.18195         -0.67063        -0.09066
  C         0.05791         -1.52370         0.28841
  C        -1.18374         -1.50211        -0.17228
  H         0.32025          2.21614         1.09255
  H         2.14663          1.16179        -0.19888
  H         2.14158         -1.16765        -0.19980
  H         0.25328         -2.23527         1.08838
  H        -1.97204         -2.07644         0.29491
  H        -1.45092         -0.92209        -1.04090
  H        -1.97193          2.07651         0.29395
  H        -1.47438          0.92622        -1.04457
14
 step=          46     theta[rad]=           0.4817
  C        -1.18168          1.50426        -0.16914
  C         0.05892          1.52135         0.28585
  C         1.18129          0.67003        -0.09117
  C         1.18339         -0.67269        -0.08951
  C         0.05546         -1.52960         0.29471
  C        -1.18874         -1.49681        -0.17993
  H         0.21418          2.24657         1.08582
  H         2.13872          1.17099        -0.20003
  H         2.14901         -1.15904        -0.19816
  H         0.35074         -2.20757         1.09431
  H        -1.97197         -2.07655         0.29333
  H        -1.48492         -0.92815        -1.04625
  H        -1.97219          2.07641         0.29526
  H        -1.43706          0.91973        -1.03878
14
 step=          47     theta[rad]=           0.4922
  C        -1.17692          1.50926        -0.16187
  C         0.06126          1.51584         0.27988
  C         1.17983          0.66840        -0.09231
  C         1.18463         -0.67448        -0.08851
  C         0.05335         -1.53469         0.30013
  C        -1.19304         -1.49225        -0.18654
  H         0.12270          2.27282         1.08002
  H         2.13189          1.17892        -0.20103
  H         2.15542         -1.15162        -0.19675
  H         0.43480         -2.18368         1.09941
  H        -1.97191         -2.07664         0.29197
  H        -1.51425         -0.93339        -1.05087
  H        -1.97241          2.07633         0.29640
  H        -1.40487          0.91414        -1.03380
14
 step=          48     theta[rad]=           0.5027
  C        -1.17413          1.51218        -0.15762
  C         0.06262          1.51261         0.27640
  C         1.17897          0.66744        -0.09297
  C         1.18536         -0.67552        -0.08792
  C         0.05211         -1.53767         0.30330
  C        -1.19556         -1.48958        -0.19040
  H         0.06924          2.28816         1.07663
  H         2.12790          1.18356        -0.20161
  H         2.15917         -1.14728        -0.19593
  H         0.48392         -2.16972         1.10240
  H        -1.97187         -2.07669         0.29118
  H        -1.53139         -0.93644        -1.05357
  H        -1.97254          2.07628         0.29706
  H        -1.38606          0.91087        -1.03088
14
 step=          49     theta[rad]=           0.5131
  C        -1.17416          1.51215        -0.15767
  C         0.06261          1.51265         0.27644
  C         1.17898          0.66745        -0.09296
  C         1.18535         -0.67551        -0.08793
  C         0.05213         -1.53764         0.30327
  C        -1.19553         -1.48961        -0.19036
  H         0.06983          2.28799         1.07667
  H         2.12795          1.18351        -0.20160
  H         2.15913         -1.14733        -0.19594
  H         0.48338         -2.16988         1.10236
  H        -1.97188         -2.07669         0.29118
  H        -1.53120         -0.93641        -1.05354
  H        -1.97254          2.07628         0.29705
  H        -1.38627          0.91091        -1.03091
14
 step=          50     theta[rad]=           0.5236
  C        -1.17717          1.50899        -0.16226
  C         0.06113          1.51613         0.28020
  C         1.17990          0.66848        -0.09225
  C         1.18456         -0.67438        -0.08856
  C         0.05346         -1.53442         0.29984
  C        -1.19282         -1.49249        -0.18619
  H         0.12758          2.27142         1.08033
  H         2.13226          1.17850        -0.20097
  H         2.15508         -1.15202        -0.19683
  H         0.43032         -2.18496         1.09914
  H        -1.97191         -2.07663         0.29204
  H        -1.51268         -0.93311        -1.05062
  H        -1.97240          2.07633         0.29634
  H        -1.40659          0.91444        -1.03406
14
 step=          51     theta[rad]=           0.5341
  C        -1.18250          1.50340        -0.17039
  C         0.05852          1.52230         0.28687
  C         1.18154          0.67031        -0.09097
  C         1.18317         -0.67239        -0.08968
  C         0.05582         -1.52873         0.29378
  C        -1.18800         -1.49760        -0.17880
  H         0.22986          2.24207         1.08682
  H         2.13989          1.16963        -0.19986
  H         2.14792         -1.16031        -0.19841
  H         0.33634         -2.21167         1.09343
  H        -1.97198         -2.07653         0.29356
  H        -1.47990         -0.92726        -1.04546
  H        -1.97215          2.07642         0.29507
  H        -1.44258          0.92069        -1.03964
14
 step=          52     theta[rad]=           0.5445
  C        -1.18874          1.49684        -0.17992
  C         0.05545          1.52953         0.29469
  C         1.18345          0.67246        -0.08948
  C         1.18154         -0.67005        -0.09099
  C         0.05859         -1.52205         0.28666
  C        -1.18235         -1.50358        -0.17014
  H         0.34984          2.20765         1.09443
  H         2.14884          1.15922        -0.19856
  H         2.13951         -1.17005        -0.20026
  H         0.22609         -2.24299         1.08673
  H        -1.97206         -2.07641         0.29535
  H        -1.44144         -0.92039        -1.03940
  H        -1.97186          2.07654         0.29358
  H        -1.48479          0.92803        -1.04618
14
 step=          53     theta[rad]=           0.5550
  C        -1.19410          1.49121        -0.18810
  C         0.05282          1.53573         0.30140
  C         1.18509          0.67430        -0.08820
  C         1.18015         -0.66804        -0.09211
  C         0.06096         -1.51632         0.28056
  C        -1.17751         -1.50871        -0.16271
  H         0.45271          2.17813         1.10095
  H         2.15652          1.15030        -0.19744
  H         2.13231         -1.17839        -0.20184
  H         0.13157         -2.26986         1.08099
  H        -1.97213         -2.07631         0.29688
  H        -1.40846         -0.91451        -1.03421
  H        -1.97161          2.07663         0.29231
  H        -1.52099          0.93431        -1.05179
14
 step=          54     theta[rad]=           0.5655
  C        -1.19686          1.48831        -0.19231
  C         0.05147          1.53893         0.30485
  C         1.18594          0.67525        -0.08754
  C         1.17943         -0.66701        -0.09269
  C         0.06219         -1.51337         0.27741
  C        -1.17501         -1.51136        -0.15888
  H         0.50572          2.16293         1.10431
  H         2.16047          1.14570        -0.19686
  H         2.12859         -1.18269        -0.20266
  H         0.08286         -2.28370         1.07803
  H        -1.97216         -2.07626         0.29767
  H        -1.39147         -0.91148        -1.03153
  H        -1.97148          2.07668         0.29165
  H        -1.53964          0.93755        -1.05468
14
 step=          55     theta[rad]=           0.5760
  C        -1.19600          1.48922        -0.19100
  C         0.05189          1.53793         0.30377
  C         1.18567          0.67496        -0.08774
  C         1.17965         -0.66733        -0.09251
  C         0.06180         -1.51430         0.27840
  C        -1.17579         -1.51053        -0.16008
  H         0.48918          2.16767         1.10326
  H         2.15924          1.14713        -0.19704
  H         2.12975         -1.18135        -0.20240
  H         0.09806         -2.27938         1.07895
  H        -1.97215         -2.07628         0.29742
  H        -1.39677         -0.91242        -1.03237
  H        -1.97152          2.07666         0.29186
  H        -1.53382          0.93654        -1.05378
14
 step=          56     theta[rad]=           0.5864
  C        -1.19161          1.49383        -0.18430
  C         0.05404          1.53285         0.29828
  C         1.18433          0.67345        -0.08879
  C         1.18080         -0.66898        -0.09159
  C         0.05986         -1.51899         0.28339
  C        -1.17976         -1.50633        -0.16616
  H         0.40490          2.19185         1.09792
  H         2.15295          1.15444        -0.19796
  H         2.13565         -1.17451        -0.20110
  H         0.17550         -2.25737         1.08366
  H        -1.97209         -2.07636         0.29617
  H        -1.42378         -0.91724        -1.03662
  H        -1.97173          2.07659         0.29290
  H        -1.50417          0.93139        -1.04918
14
 step=          57     theta[rad]=           0.5969
  C        -1.18502          1.50075        -0.17424
  C         0.05728          1.52522         0.29003
  C         1.18231          0.67118        -0.09037
  C         1.18252         -0.67144        -0.09021
  C         0.05694         -1.52603         0.29090
  C        -1.18572         -1.50001        -0.17530
  H         0.27834          2.22816         1.08989
  H         2.14351          1.16542        -0.19933
  H         2.14452         -1.16425        -0.19915
  H         0.29179         -2.22432         1.09072
  H        -1.97201         -2.07648         0.29428
  H        -1.46436         -0.92448        -1.04301
  H        -1.97203          2.07647         0.29447
  H        -1.45963          0.92365        -1.04228
14
 step=          58     theta[rad]=           0.6074
  C        -1.17846          1.50764        -0.16423
  C         0.06050          1.51762         0.28181
  C         1.18030          0.66893        -0.09194
  C         1.18423         -0.67390        -0.08883
  C         0.05403         -1.53304         0.29838
  C        -1.19165         -1.49373        -0.18440
  H         0.15232          2.26432         1.08190
  H         2.13410          1.17636        -0.20070
  H         2.15335         -1.15402        -0.19721
  H         0.40759         -2.19142         1.09776
  H        -1.97193         -2.07661         0.29241
  H        -1.50475         -0.93169        -1.04937
  H        -1.97234          2.07635         0.29603
  H        -1.41529          0.91595        -1.03541
14
 step=          59     theta[rad]=           0.6178
  C        -1.17433          1.51197        -0.15793
  C         0.06252          1.51285         0.27665
  C         1.17904          0.66751        -0.09292
  C         1.18530         -0.67544        -0.08797
  C         0.05220         -1.53745         0.30307
  C        -1.19538         -1.48978        -0.19012
  H         0.07315          2.28704         1.07688
  H         2.12820          1.18322        -0.20157
  H         2.15889         -1.14760        -0.19599
  H         0.48033         -2.17075         1.10218
  H        -1.97188         -2.07669         0.29123
  H        -1.53013         -0.93622        -1.05337
  H        -1.97253          2.07628         0.29701
  H        -1.38743          0.91111        -1.03109
14
 step=          60     theta[rad]=           0.6283
  C        -1.17433          1.51197        -0.15793
  C         0.06252          1.51285         0.27665
  C         1.17904          0.66751        -0.09292
  C         1.18530         -0.67544        -0.08797
  C         0.05220         -1.53745         0.30307
  C        -1.19538         -1.48978        -0.19012
  H         0.07315          2.28704         1.07688
  H         2.12820          1.18322        -0.20157
  H         2.15889         -1.14760        -0.19599
  H         0.48033         -2.17075         1.10218
  H        -1.97188         -2.07669         0.29123
  H        -1.53013         -0.93622        -1.05337
  H        -1.97253          2.07628         0.29701
  H        -1.38743          0.91111        -1.03109
14
 step=          61     theta[rad]=           0.6388
  C        -1.17865          1.50743        -0.16453
  C         0.06040          1.51785         0.28206
  C         1.18036          0.66899        -0.09189
  C         1.18418         -0.67383        -0.08887
  C         0.05412         -1.53283         0.29815
  C        -1.19147         -1.49392        -0.18413
  H         0.15610          2.26324         1.08214
  H         2.13439          1.17603        -0.20066
  H         2.15308         -1.15433        -0.19727
  H         0.40411         -2.19241         1.09755
  H        -1.97193         -2.07660         0.29247
  H        -1.50354         -0.93148        -1.04918
  H        -1.97233          2.07636         0.29598
  H        -1.41662          0.91618        -1.03562
14
 step=          62     theta[rad]=           0.6493
  C        -1.18575          1.49998        -0.17536
  C         0.05692          1.52606         0.29094
  C         1.18253          0.67143        -0.09019
  C         1.18232         -0.67117        -0.09036
  C         0.05726         -1.52525         0.29007
  C        -1.18506         -1.50071        -0.17429
  H         0.29236          2.22414         1.09078
  H         2.14455          1.16421        -0.19918
  H         2.14354         -1.16538        -0.19937
  H         0.27891         -2.22798         1.08994
  H        -1.97202         -2.07647         0.29449
  H        -1.45986         -0.92368        -1.04230
  H        -1.97200          2.07648         0.29430
  H        -1.46457          0.92451        -1.04305
14
 step=          63     theta[rad]=           0.6597
  C        -1.19279          1.49259        -0.18610
  C         0.05347          1.53421         0.29976
  C         1.18469          0.67385        -0.08851
  C         1.18049         -0.66853        -0.09183
  C         0.06038         -1.51772         0.28205
  C        -1.17869         -1.50746        -0.16453
  H         0.42757          2.18535         1.09936
  H         2.15464          1.15248        -0.19771
  H         2.13407         -1.17635        -0.20145
  H         0.15467         -2.26329         1.08239
  H        -1.97211         -2.07634         0.29650
  H        -1.41652         -0.91595        -1.03548
  H        -1.97167          2.07661         0.29262
  H        -1.51214          0.93278        -1.05042
14
 step=          64     theta[rad]=           0.6702
  C        -1.19675          1.48843        -0.19214
  C         0.05152          1.53880         0.30471
  C         1.18590          0.67521        -0.08756
  C         1.17946         -0.66705        -0.09266
  C         0.06214         -1.51349         0.27754
  C        -1.17511         -1.51125        -0.15904
  H         0.50359          2.16354         1.10418
  H         2.16032          1.14588        -0.19688
  H         2.12874         -1.18252        -0.20263
  H         0.08482         -2.28314         1.07815
  H        -1.97216         -2.07626         0.29763
  H        -1.39215         -0.91160        -1.03164
  H        -1.97149          2.07668         0.29168
  H        -1.53889          0.93742        -1.05457
14
 step=          65     theta[rad]=           0.6807
  C        -1.19574          1.48949        -0.19060
  C         0.05202          1.53762         0.30345
  C         1.18559          0.67487        -0.08781
  C         1.17972         -0.66743        -0.09245
  C         0.06169         -1.51458         0.27869
  C        -1.17603         -1.51028        -0.16044
  H         0.48415          2.16912         1.10295
  H         2.15886          1.14757        -0.19710
  H         2.13010         -1.18094        -0.20233
  H         0.10268         -2.27806         1.07923
  H        -1.97215         -2.07628         0.29735
  H        -1.39838         -0.91271        -1.03262
  H        -1.97154          2.07666         0.29192
  H        -1.53205          0.93624        -1.05351
14
 step=          66     theta[rad]=           0.6912
  C        -1.19000          1.49552        -0.18184
  C         0.05484          1.53098         0.29626
  C         1.18383          0.67289        -0.08918
  C         1.18122         -0.66958        -0.09125
  C         0.05915         -1.52071         0.28523
  C        -1.18122         -1.50478        -0.16840
  H         0.37396          2.20073         1.09596
  H         2.15064          1.15713        -0.19829
  H         2.13782         -1.17200        -0.20063
  H         0.20393         -2.24929         1.08538
  H        -1.97207         -2.07639         0.29571
  H        -1.43370         -0.91901        -1.03819
  H        -1.97180          2.07656         0.29328
  H        -1.49328          0.92950        -1.04750
14
 step=          67     theta[rad]=           0.7016
  C        -1.18203          1.50389        -0.16967
  C         0.05875          1.52175         0.28628
  C         1.18139          0.67015        -0.09108
  C         1.18330         -0.67256        -0.08958
  C         0.05561         -1.52923         0.29431
  C        -1.18842         -1.49715        -0.17945
  H         0.22086          2.24466         1.08625
  H         2.13922          1.17041        -0.19996
  H         2.14855         -1.15958        -0.19827
  H         0.34461         -2.20932         1.09393
  H        -1.97197         -2.07654         0.29343
  H        -1.48278         -0.92777        -1.04591
  H        -1.97217          2.07642         0.29518
  H        -1.43941          0.92014        -1.03915
14
 step=          68     theta[rad]=           0.7121
  C        -1.17557          1.51067        -0.15983
  C         0.06191          1.51429         0.27820
  C         1.17942          0.66794        -0.09263
  C         1.18498         -0.67498        -0.08823
  C         0.05275         -1.53613         0.30166
  C        -1.19426         -1.49097        -0.18840
  H         0.09696          2.28020         1.07839
  H         2.12997          1.18116        -0.20131
  H         2.15722         -1.14953        -0.19636
  H         0.45845         -2.17696         1.10085
  H        -1.97189         -2.07666         0.29159
  H        -1.52250         -0.93486        -1.05217
  H        -1.97247          2.07630         0.29672
  H        -1.39581          0.91257        -1.03239
14
 step=          69     theta[rad]=           0.7226
  C        -1.17391          1.51241        -0.15728
  C         0.06273          1.51236         0.27612
  C         1.17891          0.66736        -0.09302
  C         1.18541         -0.67560        -0.08788
  C         0.05201         -1.53791         0.30356
  C        -1.19576         -1.48937        -0.19071
  H         0.06497          2.28938         1.07636
  H         2.12759          1.18393        -0.20165
  H         2.15947         -1.14694        -0.19586
  H         0.48784         -2.16861         1.10264
  H        -1.97187         -2.07669         0.29111
  H        -1.53275         -0.93669        -1.05378
  H        -1.97255          2.07627         0.29711
  H        -1.38456          0.91061        -1.03065
14
 step=          70     theta[rad]=           0.7330
  C        -1.17807          1.50804        -0.16364
  C         0.06069          1.51718         0.28133
  C         1.18018          0.66879        -0.09203
  C         1.18433         -0.67404        -0.08875
  C         0.05386         -1.53346         0.29881
  C        -1.19200         -1.49336        -0.18493
  H         0.14493          2.26644         1.08143
  H         2.13355          1.17700        -0.20078
  H         2.15386         -1.15342        -0.19710
  H         0.41437         -2.18949         1.09817
  H        -1.97192         -2.07662         0.29230
  H        -1.50712         -0.93211        -1.04975
  H        -1.97236          2.07635         0.29612
  H        -1.41269          0.91550        -1.03501
14
 step=          71     theta[rad]=           0.7435
  C        -1.18611          1.49960        -0.17591
  C         0.05674          1.52649         0.29140
  C         1.18264          0.67156        -0.09011
  C         1.18223         -0.67103        -0.09043
  C         0.05742         -1.52486         0.28965
  C        -1.18473         -1.50106        -0.17378
  H         0.29936          2.22213         1.09122
  H         2.14508          1.16360        -0.19911
  H         2.14305         -1.16595        -0.19948
  H         0.27248         -2.22981         1.08955
  H        -1.97203         -2.07646         0.29460
  H        -1.45762         -0.92328        -1.04195
  H        -1.97198          2.07649         0.29421
  H        -1.46703          0.92494        -1.04343
14
 step=          72     theta[rad]=           0.7540
  C        -1.19385          1.49147        -0.18773
  C         0.05294          1.53545         0.30109
  C         1.18502          0.67422        -0.08826
  C         1.18021         -0.66814        -0.09206
  C         0.06085         -1.51659         0.28084
  C        -1.17773         -1.50848        -0.16305
  H         0.44800          2.17949         1.10065
  H         2.15617          1.15071        -0.19749
  H         2.13264         -1.17801        -0.20177
  H         0.13590         -2.26862         1.08125
  H        -1.97212         -2.07632         0.29681
  H        -1.40997         -0.91478        -1.03445
  H        -1.97162          2.07663         0.29237
  H        -1.51933          0.93403        -1.05153
14
 step=          73     theta[rad]=           0.7645
  C        -1.19700          1.48816        -0.19253
  C         0.05140          1.53909         0.30503
  C         1.18598          0.67530        -0.08750
  C         1.17939         -0.66696        -0.09272
  C         0.06225         -1.51322         0.27725
  C        -1.17489         -1.51149        -0.15869
  H         0.50846          2.16214         1.10449
  H         2.16068          1.14546        -0.19683
  H         2.12840         -1.18291        -0.20270
  H         0.08035         -2.28441         1.07788
  H        -1.97216         -2.07626         0.29771
  H        -1.39059         -0.91132        -1.03140
  H        -1.97148          2.07668         0.29162
  H        -1.54061          0.93772        -1.05483
14
 step=          74     theta[rad]=           0.7749
  C        -1.19360          1.49174        -0.18734
  C         0.05307          1.53515         0.30077
  C         1.18494          0.67413        -0.08832
  C         1.18028         -0.66823        -0.09200
  C         0.06074         -1.51686         0.28113
  C        -1.17796         -1.50823        -0.16340
  H         0.44312          2.18089         1.10034
  H         2.15580          1.15113        -0.19754
  H         2.13298         -1.17761        -0.20169
  H         0.14038         -2.26735         1.08152
  H        -1.97212         -2.07632         0.29674
  H        -1.41153         -0.91506        -1.03469
  H        -1.97164          2.07662         0.29243
  H        -1.51762          0.93373        -1.05127
14
 step=          75     theta[rad]=           0.7854
  C        -1.18538          1.50036        -0.17480
  C         0.05710          1.52564         0.29049
  C         1.18242          0.67131        -0.09028
  C         1.18242         -0.67131        -0.09028
  C         0.05710         -1.52564         0.29048
  C        -1.18539         -1.50036        -0.17480
  H         0.28535          2.22615         1.09034
  H         2.14403          1.16481        -0.19926
  H         2.14403         -1.16481        -0.19926
  H         0.28535         -2.22615         1.09033
  H        -1.97202         -2.07648         0.29439
  H        -1.46211         -0.92408        -1.04266
  H        -1.97202          2.07648         0.29438
  H        -1.46210          0.92408        -1.04266
14
 step=          76     theta[rad]=           0.7959
  C        -1.17708          1.50908        -0.16213
  C         0.06117          1.51603         0.28009
  C         1.17988          0.66845        -0.09227
  C         1.18459         -0.67441        -0.08854
  C         0.05342         -1.53451         0.29994
  C        -1.19289         -1.49241        -0.18631
  H         0.12593          2.27189         1.08022
  H         2.13213          1.17864        -0.20099
  H         2.15520         -1.15188        -0.19680
  H         0.43183         -2.18453         1.09923
  H        -1.97191         -2.07663         0.29202
  H        -1.51321         -0.93320        -1.05070
  H        -1.97240          2.07633         0.29636
  H        -1.40601          0.91434        -1.03397
14
 step=          77     theta[rad]=           0.8063
  C        -1.17377          1.51256        -0.15707
  C         0.06280          1.51220         0.27595
  C         1.17886          0.66732        -0.09306
  C         1.18545         -0.67565        -0.08785
  C         0.05195         -1.53805         0.30371
  C        -1.19589         -1.48924        -0.19090
  H         0.06234          2.29014         1.07619
  H         2.12739          1.18416        -0.20168
  H         2.15965         -1.14672        -0.19582
  H         0.49026         -2.16792         1.10278
  H        -1.97187         -2.07670         0.29107
  H        -1.53360         -0.93684        -1.05391
  H        -1.97256          2.07627         0.29714
  H        -1.38363          0.91045        -1.03050
14
 step=          78     theta[rad]=           0.8168
  C        -1.17770          1.50843        -0.16307
  C         0.06087          1.51675         0.28087
  C         1.18007          0.66867        -0.09212
  C         1.18442         -0.67418        -0.08867
  C         0.05369         -1.53385         0.29924
  C        -1.19233         -1.49300        -0.18545
  H         0.13779          2.26849         1.08098
  H         2.13302          1.17761        -0.20086
  H         2.15436         -1.15285        -0.19699
  H         0.42093         -2.18763         1.09857
  H        -1.97192         -2.07662         0.29219
  H        -1.50941         -0.93252        -1.05011
  H        -1.97237          2.07634         0.29621
  H        -1.41018          0.91506        -1.03462
14
 step=          79     theta[rad]=           0.8273
  C        -1.18660          1.49909        -0.17665
  C         0.05650          1.52705         0.29201
  C         1.18279          0.67172        -0.08999
  C         1.18210         -0.67085        -0.09054
  C         0.05764         -1.52434         0.28910
  C        -1.18429         -1.50153        -0.17311
  H         0.30867          2.21946         1.09182
  H         2.14577          1.16279        -0.19900
  H         2.14240         -1.16671        -0.19962
  H         0.26392         -2.23224         1.08903
  H        -1.97203         -2.07646         0.29474
  H        -1.45463         -0.92275        -1.04148
  H        -1.97196          2.07650         0.29409
  H        -1.47031          0.92551        -1.04394
14
 step=          80     theta[rad]=           0.8378
  C        -1.19478          1.49049        -0.18915
  C         0.05249          1.53652         0.30225
  C         1.18530          0.67454        -0.08803
  C         1.17997         -0.66779        -0.09225
  C         0.06127         -1.51559         0.27978
  C        -1.17689         -1.50937        -0.16176
  H         0.46586          2.17436         1.10179
  H         2.15750          1.14916        -0.19730
  H         2.13139         -1.17946        -0.20204
  H         0.11949         -2.27329         1.08025
  H        -1.97213         -2.07630         0.29707
  H        -1.40424         -0.91376        -1.03355
  H        -1.97158          2.07664         0.29215
  H        -1.52562          0.93512        -1.05251
14
 step=          81     theta[rad]=           0.8482
  C        -1.19672          1.48846        -0.19210
  C         0.05154          1.53877         0.30468
  C         1.18589          0.67520        -0.08757
  C         1.17946         -0.66706        -0.09266
  C         0.06213         -1.51352         0.27757
  C        -1.17514         -1.51123        -0.15907
  H         0.50310          2.16368         1.10415
  H         2.16028          1.14593        -0.19689
  H         2.12878         -1.18248        -0.20262
  H         0.08527         -2.28301         1.07818
  H        -1.97216         -2.07626         0.29763
  H        -1.39231         -0.91163        -1.03167
  H        -1.97149          2.07668         0.29168
  H        -1.53872          0.93739        -1.05454
14
 step=          82     theta[rad]=           0.8587
  C        -1.19088          1.49460        -0.18318
  C         0.05441          1.53200         0.29736
  C         1.18410          0.67319        -0.08897
  C         1.18099         -0.66925        -0.09143
  C         0.05953         -1.51977         0.28423
  C        -1.18042         -1.50562        -0.16718
  H         0.39078          2.19590         1.09702
  H         2.15190          1.15567        -0.19811
  H         2.13664         -1.17337        -0.20089
  H         0.18847         -2.25368         1.08445
  H        -1.97208         -2.07637         0.29596
  H        -1.42831         -0.91805        -1.03734
  H        -1.97176          2.07657         0.29308
  H        -1.49920          0.93053        -1.04841
14
 step=          83     theta[rad]=           0.8692
  C        -1.18111          1.50486        -0.16827
  C         0.05920          1.52069         0.28513
  C         1.18111          0.66984        -0.09130
  C         1.18354         -0.67291        -0.08939
  C         0.05520         -1.53021         0.29536
  C        -1.18925         -1.49627        -0.18073
  H         0.20321          2.24972         1.08513
  H         2.13790          1.17194        -0.20015
  H         2.14978         -1.15815        -0.19799
  H         0.36082         -2.20471         1.09492
  H        -1.97196         -2.07656         0.29317
  H        -1.48844         -0.92878        -1.04680
  H        -1.97222          2.07640         0.29540
  H        -1.43320          0.91906        -1.03819
14
 step=          84     theta[rad]=           0.8796
  C        -1.17433          1.51197        -0.15793
  C         0.06252          1.51285         0.27665
  C         1.17904          0.66751        -0.09292
  C         1.18530         -0.67544        -0.08797
  C         0.05220         -1.53745         0.30307
  C        -1.19538         -1.48978        -0.19012
  H         0.07315          2.28704         1.07688
  H         2.12820          1.18322        -0.20157
  H         2.15889         -1.14760        -0.19599
  H         0.48033         -2.17075         1.10218
  H        -1.97188         -2.07669         0.29123
  H        -1.53013         -0.93622        -1.05337
  H        -1.97253          2.07628         0.29701
  H        -1.38743          0.91111        -1.03109
14
 step=          85     theta[rad]=           0.8901
  C        -1.17564          1.51060        -0.15993
  C         0.06188          1.51436         0.27829
  C         1.17944          0.66796        -0.09261
  C         1.18496         -0.67495        -0.08824
  C         0.05278         -1.53605         0.30158
  C        -1.19420         -1.49103        -0.18831
  H         0.09822          2.27984         1.07847
  H         2.13007          1.18105        -0.20129
  H         2.15714         -1.14963        -0.19638
  H         0.45729         -2.17729         1.10078
  H        -1.97189         -2.07666         0.29161
  H        -1.52209         -0.93479        -1.05210
  H        -1.97247          2.07630         0.29670
  H        -1.39626          0.91264        -1.03246
14
 step=          86     theta[rad]=           0.9006
  C        -1.18429          1.50151        -0.17313
  C         0.05764          1.52438         0.28912
  C         1.18209          0.67093        -0.09054
  C         1.18271         -0.67172        -0.09005
  C         0.05662         -1.52681         0.29173
  C        -1.18638         -1.49932        -0.17631
  H         0.26435          2.23218         1.08900
  H         2.14246          1.16664        -0.19949
  H         2.14550         -1.16311        -0.19894
  H         0.30464         -2.22067         1.09150
  H        -1.97200         -2.07650         0.29408
  H        -1.46884         -0.92528        -1.04372
  H        -1.97207          2.07646         0.29464
  H        -1.45471          0.92280        -1.04152
14
 step=          87     theta[rad]=           0.9111
  C        -1.19385          1.49147        -0.18773
  C         0.05294          1.53545         0.30109
  C         1.18502          0.67422        -0.08826
  C         1.18021         -0.66814        -0.09206
  C         0.06085         -1.51659         0.28084
  C        -1.17773         -1.50848        -0.16305
  H         0.44800          2.17949         1.10065
  H         2.15617          1.15071        -0.19749
  H         2.13264         -1.17801        -0.20177
  H         0.13590         -2.26862         1.08125
  H        -1.97212         -2.07632         0.29681
  H        -1.40997         -0.91478        -1.03445
  H        -1.97162          2.07663         0.29237
  H        -1.51933          0.93403        -1.05153
14
 step=          88     theta[rad]=           0.9215
  C        -1.19684          1.48833        -0.19228
  C         0.05148          1.53890         0.30483
  C         1.18593          0.67524        -0.08754
  C         1.17943         -0.66702        -0.09268
  C         0.06218         -1.51340         0.27744
  C        -1.17503         -1.51134        -0.15891
  H         0.50534          2.16303         1.10429
  H         2.16045          1.14573        -0.19687
  H         2.12862         -1.18266        -0.20265
  H         0.08321         -2.28360         1.07805
  H        -1.97216         -2.07626         0.29766
  H        -1.39159         -0.91150        -1.03155
  H        -1.97149          2.07668         0.29166
  H        -1.53951          0.93753        -1.05466
14
 step=          89     theta[rad]=           0.9320
  C        -1.19066          1.49482        -0.18285
  C         0.05451          1.53175         0.29709
  C         1.18404          0.67312        -0.08902
  C         1.18104         -0.66933        -0.09139
  C         0.05944         -1.52000         0.28448
  C        -1.18062         -1.50542        -0.16748
  H         0.38664          2.19709         1.09676
  H         2.15159          1.15603        -0.19816
  H         2.13693         -1.17303        -0.20082
  H         0.19228         -2.25260         1.08468
  H        -1.97208         -2.07638         0.29590
  H        -1.42964         -0.91829        -1.03754
  H        -1.97177          2.07657         0.29313
  H        -1.49774          0.93028        -1.04819
14
 step=          90     theta[rad]=           0.9425
  C        -1.18011          1.50590        -0.16675
  C         0.05969          1.51953         0.28388
  C         1.18080          0.66949        -0.09154
  C         1.18380         -0.67328        -0.08918
  C         0.05476         -1.53128         0.29649
  C        -1.19016         -1.49531        -0.18211
  H         0.18405          2.25522         1.08391
  H         2.13647          1.17360        -0.20036
  H         2.15112         -1.15660        -0.19770
  H         0.37842         -2.19970         1.09599
  H        -1.97195         -2.07658         0.29288
  H        -1.49458         -0.92988        -1.04777
  H        -1.97226          2.07638         0.29564
  H        -1.42646          0.91789        -1.03714
14
 step=          91     theta[rad]=           0.9529
  C        -1.17389          1.51243        -0.15726
  C         0.06274          1.51234         0.27610
  C         1.17890          0.66736        -0.09303
  C         1.18542         -0.67561        -0.08787
  C         0.05201         -1.53792         0.30358
  C        -1.19578         -1.48935        -0.19073
  H         0.06462          2.28948         1.07634
  H         2.12756          1.18396        -0.20166
  H         2.15949         -1.14691        -0.19586
  H         0.48817         -2.16852         1.10265
  H        -1.97187         -2.07669         0.29111
  H        -1.53287         -0.93671        -1.05380
  H        -1.97255          2.07627         0.29712
  H        -1.38443          0.91059        -1.03063
14
 step=          92     theta[rad]=           0.9634
  C        -1.17743          1.50872        -0.16266
  C         0.06100          1.51643         0.28053
  C         1.17998          0.66857        -0.09218
  C         1.18449         -0.67428        -0.08862
  C         0.05357         -1.53414         0.29954
  C        -1.19258         -1.49275        -0.18582
  H         0.13261          2.26997         1.08065
  H         2.13263          1.17806        -0.20092
  H         2.15473         -1.15242        -0.19691
  H         0.42569         -2.18627         1.09886
  H        -1.97192         -2.07663         0.29212
  H        -1.51107         -0.93282        -1.05037
  H        -1.97239          2.07634         0.29627
  H        -1.40836          0.91475        -1.03434
14
 step=          93     theta[rad]=           0.9739
  C        -1.18792          1.49770        -0.17867
  C         0.05586          1.52857         0.29366
  C         1.18320          0.67218        -0.08967
  C         1.18176         -0.67036        -0.09081
  C         0.05822         -1.52293         0.28760
  C        -1.18310         -1.50279        -0.17128
  H         0.33402          2.21219         1.09342
  H         2.14766          1.16059        -0.19873
  H         2.14062         -1.16876        -0.20001
  H         0.24063         -2.23886         1.08761
  H        -1.97205         -2.07643         0.29511
  H        -1.44651         -0.92130        -1.04020
  H        -1.97190          2.07652         0.29378
  H        -1.47923          0.92706        -1.04532
14
 step=          94     theta[rad]=           0.9844
  C        -1.19623          1.48897        -0.19135
  C         0.05178          1.53820         0.30407
  C         1.18574          0.67504        -0.08769
  C         1.17959         -0.66725        -0.09255
  C         0.06191         -1.51405         0.27813
  C        -1.17558         -1.51075        -0.15976
  H         0.49365          2.16639         1.10355
  H         2.15957          1.14675        -0.19699
  H         2.12944         -1.18171        -0.20247
  H         0.09395         -2.28054         1.07870
  H        -1.97215         -2.07627         0.29749
  H        -1.39534         -0.91217        -1.03214
  H        -1.97151          2.07667         0.29180
  H        -1.53540          0.93682        -1.05402
14
 step=          95     theta[rad]=           0.9948
  C        -1.19478          1.49049        -0.18915
  C         0.05249          1.53652         0.30225
  C         1.18530          0.67454        -0.08803
  C         1.17997         -0.66779        -0.09225
  C         0.06127         -1.51559         0.27978
  C        -1.17689         -1.50937        -0.16176
  H         0.46586          2.17436         1.10179
  H         2.15750          1.14916        -0.19730
  H         2.13139         -1.17946        -0.20204
  H         0.11949         -2.27329         1.08025
  H        -1.97213         -2.07630         0.29707
  H        -1.40424         -0.91376        -1.03355
  H        -1.97158          2.07664         0.29215
  H        -1.52562          0.93512        -1.05251
14
 step=          96     theta[rad]=           1.0053
  C        -1.18466          1.50113        -0.17369
  C         0.05746          1.52480         0.28957
  C         1.18220          0.67106        -0.09046
  C         1.18261         -0.67158        -0.09013
  C         0.05678         -1.52642         0.29132
  C        -1.18605         -1.49967        -0.17581
  H         0.27134          2.23017         1.08945
  H         2.14298          1.16603        -0.19941
  H         2.14501         -1.16368        -0.19904
  H         0.29822         -2.22250         1.09111
  H        -1.97201         -2.07649         0.29418
  H        -1.46660         -0.92488        -1.04337
  H        -1.97205          2.07646         0.29456
  H        -1.45717          0.92323        -1.04190
14
 step=          97     theta[rad]=           1.0158
  C        -1.17515          1.51112        -0.15917
  C         0.06212          1.51379         0.27767
  C         1.17928          0.66779        -0.09273
  C         1.18509         -0.67514        -0.08814
  C         0.05256         -1.53658         0.30215
  C        -1.19464         -1.49056        -0.18899
  H         0.08871          2.28257         1.07786
  H         2.12936          1.18187        -0.20140
  H         2.15780         -1.14886        -0.19623
  H         0.46603         -2.17481         1.10131
  H        -1.97189         -2.07667         0.29146
  H        -1.52514         -0.93533        -1.05258
  H        -1.97249          2.07629         0.29682
  H        -1.39291          0.91206        -1.03194
14
 step=          98     theta[rad]=           1.0263
  C        -1.17538          1.51087        -0.15954
  C         0.06201          1.51406         0.27797
  C         1.17936          0.66787        -0.09267
  C         1.18503         -0.67505        -0.08819
  C         0.05267         -1.53633         0.30188
  C        -1.19443         -1.49078        -0.18866
  H         0.09330          2.28125         1.07815
  H         2.12970          1.18147        -0.20135
  H         2.15748         -1.14924        -0.19630
  H         0.46182         -2.17601         1.10105
  H        -1.97189         -2.07667         0.29153
  H        -1.52367         -0.93507        -1.05235
  H        -1.97248          2.07630         0.29676
  H        -1.39453          0.91234        -1.03219
14
 step=          99     theta[rad]=           1.0367
  C        -1.18538          1.50036        -0.17480
  C         0.05710          1.52564         0.29049
  C         1.18242          0.67131        -0.09028
  C         1.18242         -0.67131        -0.09028
  C         0.05710         -1.52564         0.29048
  C        -1.18539         -1.50036        -0.17480
  H         0.28535          2.22615         1.09034
  H         2.14403          1.16481        -0.19926
  H         2.14403         -1.16481        -0.19926
  H         0.28535         -2.22615         1.09033
  H        -1.97202         -2.07648         0.29439
  H        -1.46211         -0.92408        -1.04266
  H        -1.97202          2.07648         0.29438
  H        -1.46210          0.92408        -1.04266
14
 step=         100     theta[rad]=           1.0472
  C        -1.19545          1.48980        -0.19016
  C         0.05216          1.53729         0.30308
  C         1.18550          0.67477        -0.08788
  C         1.17980         -0.66754        -0.09239
  C         0.06156         -1.51489         0.27902
  C        -1.17629         -1.51000        -0.16084
  H         0.47858          2.17071         1.10259
  H         2.15845          1.14805        -0.19716
  H         2.13049         -1.18049        -0.20224
  H         0.10780         -2.27661         1.07954
  H        -1.97214         -2.07629         0.29726
  H        -1.40017         -0.91303        -1.03290
  H        -1.97155          2.07665         0.29199
  H        -1.53009          0.93590        -1.05320
14
 step=         101     theta[rad]=           1.0577
  C        -1.19539          1.48986        -0.19006
  C         0.05219          1.53722         0.30301
  C         1.18548          0.67474        -0.08789
  C         1.17981         -0.66756        -0.09238
  C         0.06153         -1.51495         0.27909
  C        -1.17635         -1.50994        -0.16093
  H         0.47740          2.17105         1.10252
  H         2.15836          1.14816        -0.19717
  H         2.13058         -1.18039        -0.20222
  H         0.10888         -2.27630         1.07961
  H        -1.97214         -2.07629         0.29725
  H        -1.40055         -0.91310        -1.03296
  H        -1.97155          2.07665         0.29200
  H        -1.52968          0.93582        -1.05314
14
 step=         102     theta[rad]=           1.0681
  C        -1.18502          1.50075        -0.17424
  C         0.05728          1.52522         0.29003
  C         1.18231          0.67118        -0.09037
  C         1.18252         -0.67144        -0.09021
  C         0.05694         -1.52603         0.29090
  C        -1.18572         -1.50001        -0.17530
  H         0.27834          2.22816         1.08989
  H         2.14351          1.16542        -0.19933
  H         2.14452         -1.16425        -0.19915
  H         0.29179         -2.22432         1.09072
  H        -1.97201         -2.07648         0.29428
  H        -1.46436         -0.92448        -1.04301
  H        -1.97203          2.07647         0.29447
  H        -1.45963          0.92365        -1.04228
14
 step=         103     theta[rad]=           1.0786
  C        -1.17498          1.51129        -0.15892
  C         0.06221          1.51359         0.27746
  C         1.17923          0.66773        -0.09277
  C         1.18513         -0.67520        -0.08810
  C         0.05249         -1.53676         0.30234
  C        -1.19480         -1.49039        -0.18923
  H         0.08549          2.28349         1.07766
  H         2.12912          1.18215        -0.20143
  H         2.15803         -1.14860        -0.19618
  H         0.46898         -2.17397         1.10149
  H        -1.97189         -2.07667         0.29142
  H        -1.52617         -0.93551        -1.05275
  H        -1.97250          2.07629         0.29686
  H        -1.39178          0.91187        -1.03177
14
 step=         104     theta[rad]=           1.0891
  C        -1.17599          1.51023        -0.16045
  C         0.06171          1.51476         0.27872
  C         1.17954          0.66808        -0.09253
  C         1.18487         -0.67482        -0.08831
  C         0.05293         -1.53569         0.30119
  C        -1.19389         -1.49136        -0.18783
  H         0.10484          2.27794         1.07889
  H         2.13056          1.18047        -0.20122
  H         2.15667         -1.15017        -0.19648
  H         0.45121         -2.17902         1.10041
  H        -1.97190         -2.07666         0.29170
  H        -1.51997         -0.93441        -1.05177
  H        -1.97245          2.07631         0.29662
  H        -1.39859          0.91305        -1.03282
14
 step=         105     theta[rad]=           1.0996
  C        -1.18720          1.49846        -0.17757
  C         0.05621          1.52774         0.29276
  C         1.18298          0.67193        -0.08985
  C         1.18195         -0.67063        -0.09066
  C         0.05791         -1.52370         0.28841
  C        -1.18374         -1.50211        -0.17228
  H         0.32025          2.21614         1.09255
  H         2.14663          1.16179        -0.19888
  H         2.14158         -1.16765        -0.19980
  H         0.25328         -2.23527         1.08838
  H        -1.97204         -2.07644         0.29491
  H        -1.45092         -0.92209        -1.04090
  H        -1.97193          2.07651         0.29395
  H        -1.47438          0.92622        -1.04457
14
 step=         106     theta[rad]=           1.1100
  C        -1.19647          1.48872        -0.19172
  C         0.05166          1.53848         0.30437
  C         1.18582          0.67512        -0.08763
  C         1.17953         -0.66716        -0.09260
  C         0.06201         -1.51379         0.27786
  C        -1.17537         -1.51098        -0.15942
  H         0.49826          2.16507         1.10384
  H         2.15992          1.14635        -0.19694
  H         2.12912         -1.18209        -0.20254
  H         0.08972         -2.28175         1.07845
  H        -1.97216         -2.07627         0.29756
  H        -1.39386         -0.91190        -1.03191
  H        -1.97150          2.07667         0.29174
  H        -1.53702          0.93710        -1.05427
14
 step=         107     theta[rad]=           1.1205
  C        -1.19334          1.49201        -0.18694
  C         0.05320          1.53485         0.30044
  C         1.18486          0.67404        -0.08838
  C         1.18035         -0.66833        -0.09195
  C         0.06063         -1.51714         0.28143
  C        -1.17820         -1.50798        -0.16377
  H         0.43808          2.18233         1.10002
  H         2.15543          1.15157        -0.19760
  H         2.13333         -1.17721        -0.20162
  H         0.14501         -2.26604         1.08180
  H        -1.97212         -2.07633         0.29666
  H        -1.41315         -0.91535        -1.03495
  H        -1.97165          2.07662         0.29249
  H        -1.51584          0.93342        -1.05099
14
 step=         108     theta[rad]=           1.1310
  C        -1.18111          1.50486        -0.16827
  C         0.05920          1.52069         0.28513
  C         1.18111          0.66984        -0.09130
  C         1.18354         -0.67291        -0.08939
  C         0.05520         -1.53021         0.29536
  C        -1.18925         -1.49627        -0.18073
  H         0.20321          2.24972         1.08513
  H         2.13790          1.17194        -0.20015
  H         2.14978         -1.15815        -0.19799
  H         0.36082         -2.20471         1.09492
  H        -1.97196         -2.07656         0.29317
  H        -1.48844         -0.92878        -1.04680
  H        -1.97222          2.07640         0.29540
  H        -1.43320          0.91906        -1.03819
14
 step=         109     theta[rad]=           1.1414
  C        -1.17378          1.51255        -0.15709
  C         0.06279          1.51221         0.27596
  C         1.17887          0.66732        -0.09306
  C         1.18545         -0.67565        -0.08785
  C         0.05196         -1.53804         0.30370
  C        -1.19588         -1.48925        -0.19088
  H         0.06253          2.29008         1.07620
  H         2.12740          1.18414        -0.20168
  H         2.15964         -1.14674        -0.19583
  H         0.49008         -2.16797         1.10277
  H        -1.97187         -2.07670         0.29108
  H        -1.53353         -0.93683        -1.05391
  H        -1.97256          2.07627         0.29714
  H        -1.38370          0.91046        -1.03052
14
 step=         110     theta[rad]=           1.1519
  C        -1.18011          1.50590        -0.16675
  C         0.05969          1.51953         0.28388
  C         1.18080          0.66949        -0.09154
  C         1.18380         -0.67328        -0.08918
  C         0.05476         -1.53128         0.29649
  C        -1.19016         -1.49531        -0.18211
  H         0.18405          2.25522         1.08391
  H         2.13647          1.17360        -0.20036
  H         2.15112         -1.15660        -0.19770
  H         0.37842         -2.19970         1.09599
  H        -1.97195         -2.07658         0.29288
  H        -1.49458         -0.92988        -1.04777
  H        -1.97226          2.07638         0.29564
  H        -1.42646          0.91789        -1.03714
14
 step=         111     theta[rad]=           1.1624
  C        -1.19279          1.49259        -0.18610
  C         0.05347          1.53421         0.29976
  C         1.18469          0.67385        -0.08851
  C         1.18049         -0.66853        -0.09183
  C         0.06038         -1.51772         0.28205
  C        -1.17869         -1.50746        -0.16453
  H         0.42757          2.18535         1.09936
  H         2.15464          1.15248        -0.19771
  H         2.13407         -1.17635        -0.20145
  H         0.15467         -2.26329         1.08239
  H        -1.97211         -2.07634         0.29650
  H        -1.41652         -0.91595        -1.03548
  H        -1.97167          2.07661         0.29262
  H        -1.51214          0.93278        -1.05042
14
 step=         112     theta[rad]=           1.1729
  C        -1.19651          1.48868        -0.19178
  C         0.05164          1.53852         0.30441
  C         1.18583          0.67513        -0.08762
  C         1.17952         -0.66714        -0.09261
  C         0.06203         -1.51375         0.27782
  C        -1.17533         -1.51102        -0.15937
  H         0.49895          2.16487         1.10388
  H         2.15997          1.14629        -0.19694
  H         2.12907         -1.18214        -0.20255
  H         0.08909         -2.28193         1.07841
  H        -1.97216         -2.07627         0.29757
  H        -1.39364         -0.91186        -1.03188
  H        -1.97150          2.07667         0.29174
  H        -1.53726          0.93714        -1.05431
14
 step=         113     theta[rad]=           1.1833
  C        -1.18648          1.49922        -0.17647
  C         0.05656          1.52691         0.29185
  C         1.18276          0.67168        -0.09002
  C         1.18213         -0.67090        -0.09051
  C         0.05758         -1.52447         0.28924
  C        -1.18440         -1.50141        -0.17328
  H         0.30634          2.22013         1.09167
  H         2.14560          1.16299        -0.19903
  H         2.14256         -1.16652        -0.19958
  H         0.26606         -2.23164         1.08916
  H        -1.97203         -2.07646         0.29470
  H        -1.45538         -0.92288        -1.04160
  H        -1.97197          2.07650         0.29412
  H        -1.46949          0.92537        -1.04381
14
 step=         114     theta[rad]=           1.1938
  C        -1.17503          1.51124        -0.15900
  C         0.06218          1.51366         0.27753
  C         1.17925          0.66775        -0.09276
  C         1.18512         -0.67518        -0.08811
  C         0.05251         -1.53670         0.30228
  C        -1.19475         -1.49045        -0.18915
  H         0.08654          2.28319         1.07773
  H         2.12920          1.18206        -0.20142
  H         2.15795         -1.14869        -0.19620
  H         0.46802         -2.17424         1.10143
  H        -1.97189         -2.07667         0.29143
  H        -1.52584         -0.93545        -1.05269
  H        -1.97250          2.07629         0.29685
  H        -1.39215          0.91193        -1.03182
14
 step=         115     theta[rad]=           1.2043
  C        -1.17675          1.50943        -0.16162
  C         0.06134          1.51565         0.27968
  C         1.17978          0.66834        -0.09235
  C         1.18467         -0.67454        -0.08847
  C         0.05327         -1.53487         0.30032
  C        -1.19319         -1.49209        -0.18677
  H         0.11954          2.27373         1.07982
  H         2.13166          1.17920        -0.20106
  H         2.15564         -1.15136        -0.19670
  H         0.43771         -2.18286         1.09959
  H        -1.97191         -2.07664         0.29192
  H        -1.51526         -0.93357        -1.05103
  H        -1.97242          2.07632         0.29644
  H        -1.40376          0.91395        -1.03362
14
 step=         116     theta[rad]=           1.2147
  C        -1.18966          1.49587        -0.18133
  C         0.05500          1.53059         0.29584
  C         1.18373          0.67278        -0.08926
  C         1.18130         -0.66970        -0.09118
  C         0.05900         -1.52107         0.28561
  C        -1.18152         -1.50446        -0.16887
  H         0.36748          2.20259         1.09555
  H         2.15016          1.15769        -0.19836
  H         2.13828         -1.17148        -0.20053
  H         0.20988         -2.24760         1.08575
  H        -1.97207         -2.07640         0.29561
  H        -1.43578         -0.91938        -1.03851
  H        -1.97182          2.07655         0.29336
  H        -1.49100          0.92910        -1.04714
14
 step=         117     theta[rad]=           1.2252
  C        -1.19700          1.48817        -0.19252
  C         0.05140          1.53908         0.30502
  C         1.18598          0.67530        -0.08750
  C         1.17939         -0.66696        -0.09272
  C         0.06225         -1.51323         0.27726
  C        -1.17489         -1.51149        -0.15869
  H         0.50836          2.16217         1.10448
  H         2.16067          1.14547        -0.19683
  H         2.12841         -1.18291        -0.20270
  H         0.08044         -2.28438         1.07788
  H        -1.97216         -2.07626         0.29771
  H        -1.39062         -0.91133        -1.03140
  H        -1.97148          2.07668         0.29162
  H        -1.54057          0.93772        -1.05483
14
 step=         118     theta[rad]=           1.2357
  C        -1.18886          1.49672        -0.18010
  C         0.05540          1.52966         0.29484
  C         1.18349          0.67250        -0.08945
  C         1.18151         -0.67001        -0.09101
  C         0.05864         -1.52193         0.28653
  C        -1.18225         -1.50369        -0.16998
  H         0.35207          2.20701         1.09457
  H         2.14901          1.15903        -0.19853
  H         2.13936         -1.17023        -0.20029
  H         0.22404         -2.24358         1.08661
  H        -1.97206         -2.07641         0.29538
  H        -1.44072         -0.92027        -1.03929
  H        -1.97186          2.07654         0.29356
  H        -1.48558          0.92816        -1.04630
14
 step=         119     theta[rad]=           1.2462
  C        -1.17599          1.51023        -0.16045
  C         0.06171          1.51476         0.27872
  C         1.17954          0.66808        -0.09253
  C         1.18487         -0.67482        -0.08831
  C         0.05293         -1.53569         0.30119
  C        -1.19389         -1.49136        -0.18783
  H         0.10484          2.27794         1.07889
  H         2.13056          1.18047        -0.20122
  H         2.15667         -1.15017        -0.19648
  H         0.45121         -2.17902         1.10041
  H        -1.97190         -2.07666         0.29170
  H        -1.51997         -0.93441        -1.05177
  H        -1.97245          2.07631         0.29662
  H        -1.39859          0.91305        -1.03282
14
 step=         120     theta[rad]=           1.2566
  C        -1.17599          1.51023        -0.16045
  C         0.06171          1.51476         0.27872
  C         1.17954          0.66808        -0.09253
  C         1.18487         -0.67482        -0.08831
  C         0.05293         -1.53569         0.30119
  C        -1.19389         -1.49136        -0.18783
  H         0.10484          2.27794         1.07889
  H         2.13056          1.18047        -0.20122
  H         2.15667         -1.15017        -0.19648
  H         0.45121         -2.17902         1.10041
  H        -1.97190         -2.07666         0.29170
  H        -1.51997         -0.93441        -1.05177
  H        -1.97245          2.07631         0.29662
  H        -1.39859          0.91305        -1.03282
14
 step=         121     theta[rad]=           1.2671
  C        -1.18909          1.49647        -0.18046
  C         0.05528          1.52993         0.29513
  C         1.18356          0.67258        -0.08939
  C         1.18145         -0.66992        -0.09106
  C         0.05874         -1.52168         0.28626
  C        -1.18204         -1.50391        -0.16966
  H         0.35651          2.20573         1.09485
  H         2.14934          1.15864        -0.19848
  H         2.13904         -1.17059        -0.20036
  H         0.21996         -2.24474         1.08636
  H        -1.97206         -2.07641         0.29545
  H        -1.43930         -0.92001        -1.03907
  H        -1.97185          2.07654         0.29350
  H        -1.48714          0.92843        -1.04655
14
 step=         122     theta[rad]=           1.2776
  C        -1.19700          1.48817        -0.19252
  C         0.05140          1.53908         0.30502
  C         1.18598          0.67530        -0.08750
  C         1.17939         -0.66696        -0.09272
  C         0.06225         -1.51323         0.27726
  C        -1.17489         -1.51149        -0.15869
  H         0.50836          2.16217         1.10448
  H         2.16067          1.14547        -0.19683
  H         2.12841         -1.18291        -0.20270
  H         0.08044         -2.28438         1.07788
  H        -1.97216         -2.07626         0.29771
  H        -1.39062         -0.91133        -1.03140
  H        -1.97148          2.07668         0.29162
  H        -1.54057          0.93772        -1.05483
14
 step=         123     theta[rad]=           1.2881
  C        -1.18827          1.49733        -0.17921
  C         0.05568          1.52899         0.29410
  C         1.18331          0.67230        -0.08959
  C         1.18167         -0.67022        -0.09089
  C         0.05838         -1.52255         0.28719
  C        -1.18278         -1.50313        -0.17079
  H         0.34084          2.21023         1.09386
  H         2.14817          1.16000        -0.19865
  H         2.14014         -1.16932        -0.20012
  H         0.23436         -2.24064         1.08723
  H        -1.97205         -2.07642         0.29521
  H        -1.44432         -0.92091        -1.03986
  H        -1.97188          2.07653         0.29369
  H        -1.48163          0.92748        -1.04569
14
 step=         124     theta[rad]=           1.2985
  C        -1.17532          1.51093        -0.15944
  C         0.06204          1.51399         0.27789
  C         1.17934          0.66785        -0.09269
  C         1.18504         -0.67507        -0.08817
  C         0.05264         -1.53639         0.30195
  C        -1.19448         -1.49073        -0.18875
  H         0.09212          2.28159         1.07808
  H         2.12961          1.18158        -0.20136
  H         2.15756         -1.14914        -0.19628
  H         0.46290         -2.17570         1.10112
  H        -1.97189         -2.07667         0.29152
  H        -1.52405         -0.93513        -1.05241
  H        -1.97248          2.07630         0.29678
  H        -1.39411          0.91227        -1.03213
14
 step=         125     theta[rad]=           1.3090
  C        -1.17717          1.50899        -0.16226
  C         0.06113          1.51613         0.28020
  C         1.17990          0.66848        -0.09225
  C         1.18456         -0.67438        -0.08856
  C         0.05346         -1.53442         0.29984
  C        -1.19282         -1.49249        -0.18619
  H         0.12758          2.27142         1.08033
  H         2.13226          1.17850        -0.20097
  H         2.15508         -1.15202        -0.19683
  H         0.43032         -2.18496         1.09914
  H        -1.97191         -2.07663         0.29204
  H        -1.51268         -0.93311        -1.05062
  H        -1.97240          2.07633         0.29634
  H        -1.40659          0.91444        -1.03406
14
 step=         126     theta[rad]=           1.3195
  C        -1.19130          1.49415        -0.18383
  C         0.05420          1.53249         0.29789
  C         1.18423          0.67334        -0.08887
  C         1.18088         -0.66909        -0.09152
  C         0.05972         -1.51932         0.28375
  C        -1.18004         -1.50603        -0.16660
  H         0.39893          2.19357         1.09754
  H         2.15251          1.15496        -0.19802
  H         2.13607         -1.17403        -0.20101
  H         0.18099         -2.25581         1.08399
  H        -1.97209         -2.07637         0.29608
  H        -1.42570         -0.91759        -1.03692
  H        -1.97174          2.07658         0.29297
  H        -1.50207          0.93103        -1.04886
14
 step=         127     theta[rad]=           1.3299
  C        -1.19651          1.48868        -0.19178
  C         0.05164          1.53852         0.30441
  C         1.18583          0.67513        -0.08762
  C         1.17952         -0.66714        -0.09261
  C         0.06203         -1.51375         0.27782
  C        -1.17533         -1.51102        -0.15937
  H         0.49895          2.16487         1.10388
  H         2.15997          1.14629        -0.19694
  H         2.12907         -1.18214        -0.20255
  H         0.08909         -2.28193         1.07841
  H        -1.97216         -2.07627         0.29757
  H        -1.39364         -0.91186        -1.03188
  H        -1.97150          2.07667         0.29174
  H        -1.53726          0.93714        -1.05431
14
 step=         128     theta[rad]=           1.3404
  C        -1.18466          1.50113        -0.17369
  C         0.05746          1.52480         0.28957
  C         1.18220          0.67106        -0.09046
  C         1.18261         -0.67158        -0.09013
  C         0.05678         -1.52642         0.29132
  C        -1.18605         -1.49967        -0.17581
  H         0.27134          2.23017         1.08945
  H         2.14298          1.16603        -0.19941
  H         2.14501         -1.16368        -0.19904
  H         0.29822         -2.22250         1.09111
  H        -1.97201         -2.07649         0.29418
  H        -1.46660         -0.92488        -1.04337
  H        -1.97205          2.07646         0.29456
  H        -1.45717          0.92323        -1.04190
14
 step=         129     theta[rad]=           1.3509
  C        -1.17391          1.51241        -0.15728
  C         0.06273          1.51236         0.27612
  C         1.17891          0.66736        -0.09302
  C         1.18541         -0.67560        -0.08788
  C         0.05201         -1.53791         0.30356
  C        -1.19576         -1.48937        -0.19071
  H         0.06497          2.28938         1.07636
  H         2.12759          1.18393        -0.20165
  H         2.15947         -1.14694        -0.19586
  H         0.48784         -2.16861         1.10264
  H        -1.97187         -2.07669         0.29111
  H        -1.53275         -0.93669        -1.05378
  H        -1.97255          2.07627         0.29711
  H        -1.38456          0.91061        -1.03065
14
 step=         130     theta[rad]=           1.3614
  C        -1.18122          1.50474        -0.16844
  C         0.05914          1.52082         0.28527
  C         1.18115          0.66988        -0.09128
  C         1.18351         -0.67286        -0.08941
  C         0.05525         -1.53009         0.29523
  C        -1.18915         -1.49638        -0.18057
  H         0.20539          2.24909         1.08526
  H         2.13806          1.17175        -0.20013
  H         2.14963         -1.15833        -0.19803
  H         0.35882         -2.20528         1.09480
  H        -1.97196         -2.07656         0.29320
  H        -1.48774         -0.92866        -1.04669
  H        -1.97221          2.07640         0.29537
  H        -1.43397          0.91919        -1.03830
14
 step=         131     theta[rad]=           1.3718
  C        -1.19520          1.49006        -0.18977
  C         0.05229          1.53700         0.30277
  C         1.18543          0.67468        -0.08794
  C         1.17986         -0.66763        -0.09234
  C         0.06145         -1.51515         0.27931
  C        -1.17652         -1.50976        -0.16119
  H         0.47373          2.17210         1.10228
  H         2.15809          1.14847        -0.19721
  H         2.13083         -1.18010        -0.20217
  H         0.11225         -2.27534         1.07981
  H        -1.97214         -2.07629         0.29719
  H        -1.40172         -0.91331        -1.03315
  H        -1.97156          2.07665         0.29205
  H        -1.52839          0.93560        -1.05294
14
 step=         132     theta[rad]=           1.3823
  C        -1.19334          1.49201        -0.18694
  C         0.05320          1.53485         0.30044
  C         1.18486          0.67404        -0.08838
  C         1.18035         -0.66833        -0.09195
  C         0.06063         -1.51714         0.28143
  C        -1.17820         -1.50798        -0.16377
  H         0.43808          2.18233         1.10002
  H         2.15543          1.15157        -0.19760
  H         2.13333         -1.17721        -0.20162
  H         0.14501         -2.26604         1.08180
  H        -1.97212         -2.07633         0.29666
  H        -1.41315         -0.91535        -1.03495
  H        -1.97165          2.07662         0.29249
  H        -1.51584          0.93342        -1.05099
14
 step=         133     theta[rad]=           1.3928
  C        -1.17846          1.50764        -0.16423
  C         0.06050          1.51762         0.28181
  C         1.18030          0.66893        -0.09194
  C         1.18423         -0.67390        -0.08883
  C         0.05403         -1.53304         0.29838
  C        -1.19165         -1.49373        -0.18440
  H         0.15232          2.26432         1.08190
  H         2.13410          1.17636        -0.20070
  H         2.15335         -1.15402        -0.19721
  H         0.40759         -2.19142         1.09776
  H        -1.97193         -2.07661         0.29241
  H        -1.50475         -0.93169        -1.04937
  H        -1.97234          2.07635         0.29603
  H        -1.41529          0.91595        -1.03541
14
 step=         134     theta[rad]=           1.4032
  C        -1.17503          1.51124        -0.15900
  C         0.06218          1.51366         0.27753
  C         1.17925          0.66775        -0.09276
  C         1.18512         -0.67518        -0.08811
  C         0.05251         -1.53670         0.30228
  C        -1.19475         -1.49045        -0.18915
  H         0.08654          2.28319         1.07773
  H         2.12920          1.18206        -0.20142
  H         2.15795         -1.14869        -0.19620
  H         0.46802         -2.17424         1.10143
  H        -1.97189         -2.07667         0.29143
  H        -1.52584         -0.93545        -1.05269
  H        -1.97250          2.07629         0.29685
  H        -1.39215          0.91193        -1.03182
14
 step=         135     theta[rad]=           1.4137
  C        -1.18898          1.49659        -0.18028
  C         0.05534          1.52980         0.29498
  C         1.18352          0.67254        -0.08942
  C         1.18148         -0.66996        -0.09103
  C         0.05869         -1.52180         0.28640
  C        -1.18214         -1.50380        -0.16982
  H         0.35430          2.20637         1.09471
  H         2.14917          1.15883        -0.19851
  H         2.13920         -1.17041        -0.20032
  H         0.22200         -2.24416         1.08648
  H        -1.97206         -2.07641         0.29541
  H        -1.44001         -0.92014        -1.03918
  H        -1.97185          2.07654         0.29353
  H        -1.48636          0.92830        -1.04642
14
 step=         136     theta[rad]=           1.4242
  C        -1.19684          1.48833        -0.19228
  C         0.05148          1.53890         0.30483
  C         1.18593          0.67524        -0.08754
  C         1.17943         -0.66702        -0.09268
  C         0.06218         -1.51340         0.27744
  C        -1.17503         -1.51134        -0.15891
  H         0.50534          2.16303         1.10429
  H         2.16045          1.14573        -0.19687
  H         2.12862         -1.18266        -0.20265
  H         0.08321         -2.28360         1.07805
  H        -1.97216         -2.07626         0.29766
  H        -1.39159         -0.91150        -1.03155
  H        -1.97149          2.07668         0.29166
  H        -1.53951          0.93753        -1.05466
14
 step=         137     theta[rad]=           1.4347
  C        -1.18502          1.50075        -0.17424
  C         0.05728          1.52522         0.29003
  C         1.18231          0.67118        -0.09037
  C         1.18252         -0.67144        -0.09021
  C         0.05694         -1.52603         0.29090
  C        -1.18572         -1.50001        -0.17530
  H         0.27834          2.22816         1.08989
  H         2.14351          1.16542        -0.19933
  H         2.14452         -1.16425        -0.19915
  H         0.29179         -2.22432         1.09072
  H        -1.97201         -2.07648         0.29428
  H        -1.46436         -0.92448        -1.04301
  H        -1.97203          2.07647         0.29447
  H        -1.45963          0.92365        -1.04228
14
 step=         138     theta[rad]=           1.4451
  C        -1.17382          1.51251        -0.15714
  C         0.06278          1.51225         0.27601
  C         1.17888          0.66733        -0.09305
  C         1.18544         -0.67564        -0.08786
  C         0.05197         -1.53800         0.30366
  C        -1.19584         -1.48928        -0.19083
  H         0.06322          2.28988         1.07625
  H         2.12745          1.18408        -0.20167
  H         2.15959         -1.14680        -0.19584
  H         0.48946         -2.16815         1.10273
  H        -1.97187         -2.07670         0.29109
  H        -1.53332         -0.93679        -1.05387
  H        -1.97255          2.07627         0.29713
  H        -1.38394          0.91050        -1.03055
14
 step=         139     theta[rad]=           1.4556
  C        -1.18297          1.50290        -0.17111
  C         0.05829          1.52284         0.28746
  C         1.18168          0.67048        -0.09086
  C         1.18305         -0.67221        -0.08978
  C         0.05603         -1.52822         0.29324
  C        -1.18757         -1.49805        -0.17815
  H         0.23896          2.23946         1.08739
  H         2.14057          1.16884        -0.19976
  H         2.14728         -1.16105        -0.19855
  H         0.32798         -2.21404         1.09292
  H        -1.97199         -2.07652         0.29370
  H        -1.47698         -0.92674        -1.04500
  H        -1.97213          2.07643         0.29496
  H        -1.44578          0.92125        -1.04014
14
 step=         140     theta[rad]=           1.4661
  C        -1.19644          1.48876        -0.19166
  C         0.05168          1.53843         0.30432
  C         1.18581          0.67510        -0.08764
  C         1.17954         -0.66717        -0.09260
  C         0.06200         -1.51383         0.27790
  C        -1.17540         -1.51095        -0.15947
  H         0.49755          2.16527         1.10380
  H         2.15986          1.14641        -0.19695
  H         2.12917         -1.18203        -0.20253
  H         0.09037         -2.28156         1.07849
  H        -1.97215         -2.07627         0.29754
  H        -1.39409         -0.91194        -1.03195
  H        -1.97150          2.07667         0.29175
  H        -1.53677          0.93706        -1.05424
14
 step=         141     theta[rad]=           1.4765
  C        -1.19000          1.49552        -0.18184
  C         0.05484          1.53098         0.29626
  C         1.18383          0.67289        -0.08918
  C         1.18122         -0.66958        -0.09125
  C         0.05915         -1.52071         0.28523
  C        -1.18122         -1.50478        -0.16840
  H         0.37396          2.20073         1.09596
  H         2.15064          1.15713        -0.19829
  H         2.13782         -1.17200        -0.20063
  H         0.20393         -2.24929         1.08538
  H        -1.97207         -2.07639         0.29571
  H        -1.43370         -0.91901        -1.03819
  H        -1.97180          2.07656         0.29328
  H        -1.49328          0.92950        -1.04750
14
 step=         142     theta[rad]=           1.4870
  C        -1.17515          1.51112        -0.15917
  C         0.06212          1.51379         0.27767
  C         1.17928          0.66779        -0.09273
  C         1.18509         -0.67514        -0.08814
  C         0.05256         -1.53658         0.30215
  C        -1.19464         -1.49056        -0.18899
  H         0.08871          2.28257         1.07786
  H         2.12936          1.18187        -0.20140
  H         2.15780         -1.14886        -0.19623
  H         0.46603         -2.17481         1.10131
  H        -1.97189         -2.07667         0.29146
  H        -1.52514         -0.93533        -1.05258
  H        -1.97249          2.07629         0.29682
  H        -1.39291          0.91206        -1.03194
14
 step=         143     theta[rad]=           1.4975
  C        -1.17916          1.50690        -0.16530
  C         0.06016          1.51843         0.28269
  C         1.18051          0.66917        -0.09177
  C         1.18404         -0.67364        -0.08898
  C         0.05434         -1.53229         0.29758
  C        -1.19102         -1.49440        -0.18343
  H         0.16579          2.26045         1.08275
  H         2.13511          1.17519        -0.20056
  H         2.15240         -1.15512        -0.19742
  H         0.39520         -2.19494         1.09701
  H        -1.97194         -2.07660         0.29261
  H        -1.50043         -0.93092        -1.04869
  H        -1.97231          2.07637         0.29586
  H        -1.42003          0.91677        -1.03615
14
 step=         144     theta[rad]=           1.5080
  C        -1.19478          1.49049        -0.18915
  C         0.05249          1.53652         0.30225
  C         1.18530          0.67454        -0.08803
  C         1.17997         -0.66779        -0.09225
  C         0.06127         -1.51559         0.27978
  C        -1.17689         -1.50937        -0.16176
  H         0.46586          2.17436         1.10179
  H         2.15750          1.14916        -0.19730
  H         2.13139         -1.17946        -0.20204
  H         0.11949         -2.27329         1.08025
  H        -1.97213         -2.07630         0.29707
  H        -1.40424         -0.91376        -1.03355
  H        -1.97158          2.07664         0.29215
  H        -1.52562          0.93512        -1.05251
14
 step=         145     theta[rad]=           1.5184
  C        -1.19270          1.49269        -0.18596
  C         0.05351          1.53411         0.29964
  C         1.18466          0.67382        -0.08853
  C         1.18051         -0.66857        -0.09181
  C         0.06034         -1.51782         0.28216
  C        -1.17878         -1.50737        -0.16466
  H         0.42576          2.18587         1.09924
  H         2.15451          1.15263        -0.19773
  H         2.13419         -1.17621        -0.20143
  H         0.15633         -2.26282         1.08249
  H        -1.97211         -2.07634         0.29648
  H        -1.41710         -0.91605        -1.03557
  H        -1.97168          2.07661         0.29264
  H        -1.51151          0.93267        -1.05032
14
 step=         146     theta[rad]=           1.5289
  C        -1.17667          1.50952        -0.16150
  C         0.06138          1.51555         0.27958
  C         1.17975          0.66831        -0.09236
  C         1.18469         -0.67457        -0.08846
  C         0.05324         -1.53496         0.30041
  C        -1.19327         -1.49202        -0.18688
  H         0.11798          2.27417         1.07972
  H         2.13154          1.17933        -0.20108
  H         2.15575         -1.15124        -0.19668
  H         0.43913         -2.18245         1.09968
  H        -1.97191         -2.07664         0.29190
  H        -1.51576         -0.93366        -1.05111
  H        -1.97242          2.07632         0.29646
  H        -1.40321          0.91385        -1.03354
14
 step=         147     theta[rad]=           1.5394
  C        -1.17743          1.50872        -0.16266
  C         0.06100          1.51643         0.28053
  C         1.17998          0.66857        -0.09218
  C         1.18449         -0.67428        -0.08862
  C         0.05357         -1.53414         0.29954
  C        -1.19258         -1.49275        -0.18582
  H         0.13261          2.26997         1.08065
  H         2.13263          1.17806        -0.20092
  H         2.15473         -1.15242        -0.19691
  H         0.42569         -2.18627         1.09886
  H        -1.97192         -2.07663         0.29212
  H        -1.51107         -0.93282        -1.05037
  H        -1.97239          2.07634         0.29627
  H        -1.40836          0.91475        -1.03434
14
 step=         148     theta[rad]=           1.5499
  C        -1.19369          1.49165        -0.18747
  C         0.05303          1.53525         0.30088
  C         1.18496          0.67416        -0.08830
  C         1.18025         -0.66820        -0.09202
  C         0.06078         -1.51677         0.28103
  C        -1.17788         -1.50832        -0.16329
  H         0.44476          2.18042         1.10045
  H         2.15593          1.15099        -0.19752
  H         2.13286         -1.17775        -0.20172
  H         0.13887         -2.26778         1.08143
  H        -1.97212         -2.07632         0.29676
  H        -1.41101         -0.91496        -1.03461
  H        -1.97163          2.07662         0.29241
  H        -1.51819          0.93383        -1.05136
14
 step=         149     theta[rad]=           1.5603
  C        -1.19360          1.49174        -0.18734
  C         0.05307          1.53515         0.30077
  C         1.18494          0.67413        -0.08832
  C         1.18028         -0.66823        -0.09200
  C         0.06074         -1.51686         0.28113
  C        -1.17796         -1.50823        -0.16340
  H         0.44312          2.18089         1.10034
  H         2.15580          1.15113        -0.19754
  H         2.13298         -1.17761        -0.20169
  H         0.14038         -2.26735         1.08152
  H        -1.97212         -2.07632         0.29674
  H        -1.41153         -0.91506        -1.03469
  H        -1.97164          2.07662         0.29243
  H        -1.51762          0.93373        -1.05127
14
 step=         150     theta[rad]=           1.5708
  C        -1.17717          1.50899        -0.16226
  C         0.06113          1.51613         0.28020
  C         1.17990          0.66848        -0.09225
  C         1.18456         -0.67438        -0.08856
  C         0.05346         -1.53442         0.29984
  C        -1.19282         -1.49249        -0.18619
  H         0.12758          2.27142         1.08033
  H         2.13226          1.17850        -0.20097
  H         2.15508         -1.15202        -0.19683
  H         0.43032         -2.18496         1.09914
  H        -1.97191         -2.07663         0.29204
  H        -1.51268         -0.93311        -1.05062
  H        -1.97240          2.07633         0.29634
  H        -1.40659          0.91444        -1.03406
14
 step=         151     theta[rad]=           1.5813
  C        -1.17726          1.50890        -0.16239
  C         0.06109          1.51623         0.28031
  C         1.17993          0.66851        -0.09222
  C         1.18454         -0.67435        -0.08858
  C         0.05350         -1.53433         0.29974
  C        -1.19274         -1.49258        -0.18607
  H         0.12924          2.27094         1.08043
  H         2.13238          1.17836        -0.20096
  H         2.15496         -1.15215        -0.19685
  H         0.42879         -2.18539         1.09905
  H        -1.97191         -2.07663         0.29207
  H        -1.51215         -0.93301        -1.05054
  H        -1.97239          2.07633         0.29632
  H        -1.40717          0.91454        -1.03415
14
 step=         152     theta[rad]=           1.5917
  C        -1.19385          1.49147        -0.18773
  C         0.05294          1.53545         0.30109
  C         1.18502          0.67422        -0.08826
  C         1.18021         -0.66814        -0.09206
  C         0.06085         -1.51659         0.28084
  C        -1.17773         -1.50848        -0.16305
  H         0.44800          2.17949         1.10065
  H         2.15617          1.15071        -0.19749
  H         2.13264         -1.17801        -0.20177
  H         0.13590         -2.26862         1.08125
  H        -1.97212         -2.07632         0.29681
  H        -1.40997         -0.91478        -1.03445
  H        -1.97162          2.07663         0.29237
  H        -1.51933          0.93403        -1.05153
14
 step=         153     theta[rad]=           1.6022
  C        -1.19307          1.49230        -0.18653
  C         0.05333          1.53454         0.30011
  C         1.18478          0.67395        -0.08844
  C         1.18042         -0.66843        -0.09189
  C         0.06051         -1.51743         0.28173
  C        -1.17844         -1.50772        -0.16414
  H         0.43290          2.18382         1.09969
  H         2.15504          1.15202        -0.19765
  H         2.13369         -1.17678        -0.20154
  H         0.14977         -2.26468         1.08209
  H        -1.97211         -2.07633         0.29658
  H        -1.41481         -0.91564        -1.03521
  H        -1.97166          2.07661         0.29255
  H        -1.51402          0.93310        -1.05071
14
 step=         154     theta[rad]=           1.6127
  C        -1.17636          1.50985        -0.16102
  C         0.06153          1.51519         0.27918
  C         1.17965          0.66820        -0.09244
  C         1.18477         -0.67469        -0.08839
  C         0.05310         -1.53529         0.30077
  C        -1.19355         -1.49171        -0.18732
  H         0.11195          2.27590         1.07934
  H         2.13109          1.17986        -0.20114
  H         2.15617         -1.15075        -0.19659
  H         0.44468         -2.18088         1.10001
  H        -1.97190         -2.07665         0.29181
  H        -1.51769         -0.93400        -1.05141
  H        -1.97244          2.07632         0.29653
  H        -1.40109          0.91348        -1.03321
14
 step=         155     theta[rad]=           1.6232
  C        -1.17856          1.50754        -0.16438
  C         0.06045          1.51774         0.28194
  C         1.18033          0.66896        -0.09191
  C         1.18420         -0.67386        -0.08885
  C         0.05407         -1.53294         0.29826
  C        -1.19156         -1.49382        -0.18427
  H         0.15420          2.26378         1.08202
  H         2.13424          1.17619        -0.20068
  H         2.15322         -1.15418        -0.19724
  H         0.40585         -2.19191         1.09765
  H        -1.97193         -2.07661         0.29244
  H        -1.50415         -0.93158        -1.04928
  H        -1.97233          2.07636         0.29601
  H        -1.41595          0.91607        -1.03551
14
 step=         156     theta[rad]=           1.6336
  C        -1.19520          1.49006        -0.18977
  C         0.05229          1.53700         0.30277
  C         1.18543          0.67468        -0.08794
  C         1.17986         -0.66763        -0.09234
  C         0.06145         -1.51515         0.27931
  C        -1.17652         -1.50976        -0.16119
  H         0.47373          2.17210         1.10228
  H         2.15809          1.14847        -0.19721
  H         2.13083         -1.18010        -0.20217
  H         0.11225         -2.27534         1.07981
  H        -1.97214         -2.07629         0.29719
  H        -1.40172         -0.91331        -1.03315
  H        -1.97156          2.07665         0.29205
  H        -1.52839          0.93560        -1.05294
14
 step=         157     theta[rad]=           1.6441
  C        -1.19088          1.49460        -0.18318
  C         0.05441          1.53200         0.29736
  C         1.18410          0.67319        -0.08897
  C         1.18099         -0.66925        -0.09143
  C         0.05953         -1.51977         0.28423
  C        -1.18042         -1.50562        -0.16718
  H         0.39078          2.19590         1.09702
  H         2.15190          1.15567        -0.19811
  H         2.13664         -1.17337        -0.20089
  H         0.18847         -2.25368         1.08445
  H        -1.97208         -2.07637         0.29596
  H        -1.42831         -0.91805        -1.03734
  H        -1.97176          2.07657         0.29308
  H        -1.49920          0.93053        -1.04841
14
 step=         158     theta[rad]=           1.6546
  C        -1.17472          1.51156        -0.15852
  C         0.06233          1.51330         0.27714
  C         1.17915          0.66764        -0.09283
  C         1.18520         -0.67530        -0.08805
  C         0.05237         -1.53704         0.30263
  C        -1.19503         -1.49015        -0.18958
  H         0.08058          2.28490         1.07735
  H         2.12875          1.18258        -0.20148
  H         2.15837         -1.14820        -0.19610
  H         0.47350         -2.17269         1.10176
  H        -1.97188         -2.07668         0.29134
  H        -1.52775         -0.93579        -1.05299
  H        -1.97251          2.07629         0.29692
  H        -1.39005          0.91156        -1.03150
14
 step=         159     theta[rad]=           1.6650
  C        -1.18179          1.50413        -0.16932
  C         0.05886          1.52148         0.28599
  C         1.18132          0.67007        -0.09114
  C         1.18336         -0.67265        -0.08953
  C         0.05551         -1.52948         0.29457
  C        -1.18863         -1.49692        -0.17977
  H         0.21640          2.24593         1.08596
  H         2.13889          1.17080        -0.20001
  H         2.14886         -1.15922        -0.19820
  H         0.34870         -2.20815         1.09418
  H        -1.97197         -2.07655         0.29336
  H        -1.48421         -0.92803        -1.04614
  H        -1.97218          2.07641         0.29524
  H        -1.43784          0.91987        -1.03891
14
 step=         160     theta[rad]=           1.6755
  C        -1.19675          1.48843        -0.19214
  C         0.05152          1.53880         0.30471
  C         1.18590          0.67521        -0.08756
  C         1.17946         -0.66705        -0.09266
  C         0.06214         -1.51349         0.27754
  C        -1.17511         -1.51125        -0.15904
  H         0.50359          2.16354         1.10418
  H         2.16032          1.14588        -0.19688
  H         2.12874         -1.18252        -0.20263
  H         0.08482         -2.28314         1.07815
  H        -1.97216         -2.07626         0.29763
  H        -1.39215         -0.91160        -1.03164
  H        -1.97149          2.07668         0.29168
  H        -1.53889          0.93742        -1.05457
14
 step=         161     theta[rad]=           1.6860
  C        -1.18648          1.49922        -0.17647
  C         0.05656          1.52691         0.29185
  C         1.18276          0.67168        -0.09002
  C         1.18213         -0.67090        -0.09051
  C         0.05758         -1.52447         0.28924
  C        -1.18440         -1.50141        -0.17328
  H         0.30634          2.22013         1.09167
  H         2.14560          1.16299        -0.19903
  H         2.14256         -1.16652        -0.19958
  H         0.26606         -2.23164         1.08916
  H        -1.97203         -2.07646         0.29470
  H        -1.45538         -0.92288        -1.04160
  H        -1.97197          2.07650         0.29412
  H        -1.46949          0.92537        -1.04381
14
 step=         162     theta[rad]=           1.6965
  C        -1.17377          1.51256        -0.15707
  C         0.06280          1.51220         0.27595
  C         1.17886          0.66732        -0.09306
  C         1.18545         -0.67565        -0.08785
  C         0.05195         -1.53805         0.30371
  C        -1.19589         -1.48924        -0.19090
  H         0.06234          2.29014         1.07619
  H         2.12739          1.18416        -0.20168
  H         2.15965         -1.14672        -0.19582
  H         0.49026         -2.16792         1.10278
  H        -1.97187         -2.07670         0.29107
  H        -1.53360         -0.93684        -1.05391
  H        -1.97256          2.07627         0.29714
  H        -1.38363          0.91045        -1.03050
14
 step=         163     theta[rad]=           1.7069
  C        -1.18732          1.49833        -0.17776
  C         0.05615          1.52788         0.29291
  C         1.18301          0.67197        -0.08982
  C         1.18191         -0.67058        -0.09069
  C         0.05796         -1.52357         0.28828
  C        -1.18364         -1.50222        -0.17211
  H         0.32256          2.21548         1.09270
  H         2.14681          1.16159        -0.19885
  H         2.14142         -1.16783        -0.19983
  H         0.25116         -2.23587         1.08825
  H        -1.97204         -2.07644         0.29494
  H        -1.45018         -0.92195        -1.04078
  H        -1.97193          2.07651         0.29392
  H        -1.47519          0.92636        -1.04469
14
 step=         164     theta[rad]=           1.7174
  C        -1.19644          1.48876        -0.19166
  C         0.05168          1.53843         0.30432
  C         1.18581          0.67510        -0.08764
  C         1.17954         -0.66717        -0.09260
  C         0.06200         -1.51383         0.27790
  C        -1.17540         -1.51095        -0.15947
  H         0.49755          2.16527         1.10380
  H         2.15986          1.14641        -0.19695
  H         2.12917         -1.18203        -0.20253
  H         0.09037         -2.28156         1.07849
  H        -1.97215         -2.07627         0.29754
  H        -1.39409         -0.91194        -1.03195
  H        -1.97150          2.07667         0.29175
  H        -1.53677          0.93706        -1.05424
14
 step=         165     theta[rad]=           1.7279
  C        -1.18011          1.50590        -0.16675
  C         0.05969          1.51953         0.28388
  C         1.18080          0.66949        -0.09154
  C         1.18380         -0.67328        -0.08918
  C         0.05476         -1.53128         0.29649
  C        -1.19016         -1.49531        -0.18211
  H         0.18405          2.25522         1.08391
  H         2.13647          1.17360        -0.20036
  H         2.15112         -1.15660        -0.19770
  H         0.37842         -2.19970         1.09599
  H        -1.97195         -2.07658         0.29288
  H        -1.49458         -0.92988        -1.04777
  H        -1.97226          2.07638         0.29564
  H        -1.42646          0.91789        -1.03714
14
 step=         166     theta[rad]=           1.7383
  C        -1.17606          1.51016        -0.16056
  C         0.06168          1.51484         0.27881
  C         1.17956          0.66810        -0.09251
  C         1.18485         -0.67480        -0.08833
  C         0.05297         -1.53561         0.30111
  C        -1.19382         -1.49143        -0.18773
  H         0.10622          2.27755         1.07897
  H         2.13066          1.18035        -0.20121
  H         2.15658         -1.15028        -0.19650
  H         0.44994         -2.17938         1.10033
  H        -1.97190         -2.07665         0.29173
  H        -1.51953         -0.93433        -1.05170
  H        -1.97245          2.07631         0.29660
  H        -1.39907          0.91313        -1.03290
14
 step=         167     theta[rad]=           1.7488
  C        -1.19385          1.49147        -0.18773
  C         0.05294          1.53545         0.30109
  C         1.18502          0.67422        -0.08826
  C         1.18021         -0.66814        -0.09206
  C         0.06085         -1.51659         0.28084
  C        -1.17773         -1.50848        -0.16305
  H         0.44800          2.17949         1.10065
  H         2.15617          1.15071        -0.19749
  H         2.13264         -1.17801        -0.20177
  H         0.13590         -2.26862         1.08125
  H        -1.97212         -2.07632         0.29681
  H        -1.40997         -0.91478        -1.03445
  H        -1.97162          2.07663         0.29237
  H        -1.51933          0.93403        -1.05153
14
 step=         168     theta[rad]=           1.7593
  C        -1.19161          1.49383        -0.18430
  C         0.05404          1.53285         0.29828
  C         1.18433          0.67345        -0.08879
  C         1.18080         -0.66898        -0.09159
  C         0.05986         -1.51899         0.28339
  C        -1.17976         -1.50633        -0.16616
  H         0.40490          2.19185         1.09792
  H         2.15295          1.15444        -0.19796
  H         2.13565         -1.17451        -0.20110
  H         0.17550         -2.25737         1.08366
  H        -1.97209         -2.07636         0.29617
  H        -1.42378         -0.91724        -1.03662
  H        -1.97173          2.07659         0.29290
  H        -1.50417          0.93139        -1.04918
14
 step=         169     theta[rad]=           1.7698
  C        -1.17454          1.51175        -0.15824
  C         0.06242          1.51308         0.27691
  C         1.17910          0.66758        -0.09287
  C         1.18525         -0.67537        -0.08801
  C         0.05229         -1.53723         0.30284
  C        -1.19519         -1.48997        -0.18984
  H         0.07704          2.28592         1.07712
  H         2.12849          1.18288        -0.20152
  H         2.15862         -1.14792        -0.19605
  H         0.47675         -2.17176         1.10196
  H        -1.97188         -2.07668         0.29129
  H        -1.52888         -0.93600        -1.05317
  H        -1.97252          2.07628         0.29696
  H        -1.38881          0.91135        -1.03131
14
 step=         170     theta[rad]=           1.7802
  C        -1.18357          1.50227        -0.17202
  C         0.05799          1.52354         0.28821
  C         1.18186          0.67068        -0.09072
  C         1.18289         -0.67199        -0.08990
  C         0.05629         -1.52758         0.29256
  C        -1.18703         -1.49862        -0.17732
  H         0.25044          2.23617         1.08812
  H         2.14143          1.16784        -0.19964
  H         2.14647         -1.16198        -0.19872
  H         0.31742         -2.21704         1.09228
  H        -1.97199         -2.07651         0.29387
  H        -1.47330         -0.92608        -1.04442
  H        -1.97210          2.07644         0.29481
  H        -1.44982          0.92195        -1.04076
14
 step=         171     theta[rad]=           1.7907
  C        -1.19698          1.48819        -0.19250
  C         0.05141          1.53906         0.30500
  C         1.18597          0.67529        -0.08751
  C         1.17940         -0.66697        -0.09271
  C         0.06224         -1.51325         0.27728
  C        -1.17491         -1.51147        -0.15872
  H         0.50803          2.16226         1.10446
  H         2.16065          1.14550        -0.19684
  H         2.12843         -1.18288        -0.20269
  H         0.08074         -2.28430         1.07790
  H        -1.97216         -2.07626         0.29770
  H        -1.39073         -0.91134        -1.03142
  H        -1.97148          2.07668         0.29162
  H        -1.54045          0.93770        -1.05481
14
 step=         172     theta[rad]=           1.8012
  C        -1.18203          1.50389        -0.16967
  C         0.05875          1.52175         0.28628
  C         1.18139          0.67015        -0.09108
  C         1.18330         -0.67256        -0.08958
  C         0.05561         -1.52923         0.29431
  C        -1.18842         -1.49715        -0.17945
  H         0.22086          2.24466         1.08625
  H         2.13922          1.17041        -0.19996
  H         2.14855         -1.15958        -0.19827
  H         0.34461         -2.20932         1.09393
  H        -1.97197         -2.07654         0.29343
  H        -1.48278         -0.92777        -1.04591
  H        -1.97217          2.07642         0.29518
  H        -1.43941          0.92014        -1.03915
14
 step=         173     theta[rad]=           1.8117
  C        -1.17538          1.51087        -0.15954
  C         0.06201          1.51406         0.27797
  C         1.17936          0.66787        -0.09267
  C         1.18503         -0.67505        -0.08819
  C         0.05267         -1.53633         0.30188
  C        -1.19443         -1.49078        -0.18866
  H         0.09330          2.28125         1.07815
  H         2.12970          1.18147        -0.20135
  H         2.15748         -1.14924        -0.19630
  H         0.46182         -2.17601         1.10105
  H        -1.97189         -2.07667         0.29153
  H        -1.52367         -0.93507        -1.05235
  H        -1.97248          2.07630         0.29676
  H        -1.39453          0.91234        -1.03219
14
 step=         174     theta[rad]=           1.8221
  C        -1.19360          1.49174        -0.18734
  C         0.05307          1.53515         0.30077
  C         1.18494          0.67413        -0.08832
  C         1.18028         -0.66823        -0.09200
  C         0.06074         -1.51686         0.28113
  C        -1.17796         -1.50823        -0.16340
  H         0.44312          2.18089         1.10034
  H         2.15580          1.15113        -0.19754
  H         2.13298         -1.17761        -0.20169
  H         0.14038         -2.26735         1.08152
  H        -1.97212         -2.07632         0.29674
  H        -1.41153         -0.91506        -1.03469
  H        -1.97164          2.07662         0.29243
  H        -1.51762          0.93373        -1.05127
14
 step=         175     theta[rad]=           1.8326
  C        -1.19119          1.49426        -0.18367
  C         0.05425          1.53237         0.29776
  C         1.18420          0.67330        -0.08889
  C         1.18090         -0.66913        -0.09150
  C         0.05967         -1.51943         0.28387
  C        -1.18014         -1.50593        -0.16674
  H         0.39691          2.19415         1.09741
  H         2.15235          1.15514        -0.19804
  H         2.13621         -1.17387        -0.20098
  H         0.18284         -2.25528         1.08410
  H        -1.97209         -2.07637         0.29605
  H        -1.42635         -0.91770        -1.03703
  H        -1.97175          2.07658         0.29300
  H        -1.50136          0.93090        -1.04875
14
 step=         176     theta[rad]=           1.8431
  C        -1.17413          1.51218        -0.15762
  C         0.06262          1.51261         0.27640
  C         1.17897          0.66744        -0.09297
  C         1.18536         -0.67552        -0.08792
  C         0.05211         -1.53767         0.30330
  C        -1.19556         -1.48958        -0.19040
  H         0.06924          2.28816         1.07663
  H         2.12790          1.18356        -0.20161
  H         2.15917         -1.14728        -0.19593
  H         0.48392         -2.16972         1.10240
  H        -1.97187         -2.07669         0.29118
  H        -1.53139         -0.93644        -1.05357
  H        -1.97254          2.07628         0.29706
  H        -1.38606          0.91087        -1.03088
14
 step=         177     theta[rad]=           1.8535
  C        -1.18575          1.49998        -0.17536
  C         0.05692          1.52606         0.29094
  C         1.18253          0.67143        -0.09019
  C         1.18232         -0.67117        -0.09036
  C         0.05726         -1.52525         0.29007
  C        -1.18506         -1.50071        -0.17429
  H         0.29236          2.22414         1.09078
  H         2.14455          1.16421        -0.19918
  H         2.14354         -1.16538        -0.19937
  H         0.27891         -2.22798         1.08994
  H        -1.97202         -2.07647         0.29449
  H        -1.45986         -0.92368        -1.04230
  H        -1.97200          2.07648         0.29430
  H        -1.46457          0.92451        -1.04305
14
 step=         178     theta[rad]=           1.8640
  C        -1.19640          1.48880        -0.19161
  C         0.05170          1.53839         0.30427
  C         1.18579          0.67509        -0.08765
  C         1.17955         -0.66718        -0.09259
  C         0.06198         -1.51387         0.27794
  C        -1.17543         -1.51091        -0.15953
  H         0.49681          2.16548         1.10375
  H         2.15981          1.14647        -0.19696
  H         2.12922         -1.18197        -0.20252
  H         0.09104         -2.28137         1.07853
  H        -1.97215         -2.07627         0.29753
  H        -1.39432         -0.91199        -1.03198
  H        -1.97151          2.07667         0.29176
  H        -1.53651          0.93701        -1.05420
14
 step=         179     theta[rad]=           1.8745
  C        -1.17856          1.50754        -0.16438
  C         0.06045          1.51774         0.28194
  C         1.18033          0.66896        -0.09191
  C         1.18420         -0.67386        -0.08885
  C         0.05407         -1.53294         0.29826
  C        -1.19156         -1.49382        -0.18427
  H         0.15420          2.26378         1.08202
  H         2.13424          1.17619        -0.20068
  H         2.15322         -1.15418        -0.19724
  H         0.40585         -2.19191         1.09765
  H        -1.97193         -2.07661         0.29244
  H        -1.50415         -0.93158        -1.04928
  H        -1.97233          2.07636         0.29601
  H        -1.41595          0.91607        -1.03551
14
 step=         180     theta[rad]=           1.8850
  C        -1.17856          1.50754        -0.16438
  C         0.06045          1.51774         0.28194
  C         1.18033          0.66896        -0.09191
  C         1.18420         -0.67386        -0.08885
  C         0.05407         -1.53294         0.29826
  C        -1.19156         -1.49382        -0.18427
  H         0.15420          2.26378         1.08202
  H         2.13424          1.17619        -0.20068
  H         2.15322         -1.15418        -0.19724
  H         0.40585         -2.19191         1.09765
  H        -1.97193         -2.07661         0.29244
  H        -1.50415         -0.93158        -1.04928
  H        -1.97233          2.07636         0.29601
  H        -1.41595          0.91607        -1.03551
14
 step=         181     theta[rad]=           1.8954
  C        -1.19647          1.48872        -0.19172
  C         0.05166          1.53848         0.30437
  C         1.18582          0.67512        -0.08763
  C         1.17953         -0.66716        -0.09260
  C         0.06201         -1.51379         0.27786
  C        -1.17537         -1.51098        -0.15942
  H         0.49826          2.16507         1.10384
  H         2.15992          1.14635        -0.19694
  H         2.12912         -1.18209        -0.20254
  H         0.08972         -2.28175         1.07845
  H        -1.97216         -2.07627         0.29756
  H        -1.39386         -0.91190        -1.03191
  H        -1.97150          2.07667         0.29174
  H        -1.53702          0.93710        -1.05427
14
 step=         182     theta[rad]=           1.9059
  C        -1.18502          1.50075        -0.17424
  C         0.05728          1.52522         0.29003
  C         1.18231          0.67118        -0.09037
  C         1.18252         -0.67144        -0.09021
  C         0.05694         -1.52603         0.29090
  C        -1.18572         -1.50001        -0.17530
  H         0.27834          2.22816         1.08989
  H         2.14351          1.16542        -0.19933
  H         2.14452         -1.16425        -0.19915
  H         0.29179         -2.22432         1.09072
  H        -1.97201         -2.07648         0.29428
  H        -1.46436         -0.92448        -1.04301
  H        -1.97203          2.07647         0.29447
  H        -1.45963          0.92365        -1.04228
14
 step=         183     theta[rad]=           1.9164
  C        -1.17458          1.51171        -0.15831
  C         0.06240          1.51314         0.27696
  C         1.17911          0.66759        -0.09286
  C         1.18524         -0.67535        -0.08802
  C         0.05231         -1.53719         0.30279
  C        -1.19515         -1.49002        -0.18978
  H         0.07789          2.28567         1.07718
  H         2.12855          1.18281        -0.20151
  H         2.15856         -1.14799        -0.19606
  H         0.47597         -2.17199         1.10191
  H        -1.97188         -2.07668         0.29130
  H        -1.52861         -0.93595        -1.05313
  H        -1.97252          2.07628         0.29695
  H        -1.38911          0.91140        -1.03135
14
 step=         184     theta[rad]=           1.9268
  C        -1.19316          1.49220        -0.18666
  C         0.05328          1.53464         0.30022
  C         1.18480          0.67398        -0.08842
  C         1.18039         -0.66840        -0.09191
  C         0.06055         -1.51733         0.28163
  C        -1.17836         -1.50781        -0.16402
  H         0.43464          2.18332         1.09981
  H         2.15517          1.15186        -0.19763
  H         2.13357         -1.17693        -0.20156
  H         0.14817         -2.26514         1.08200
  H        -1.97211         -2.07633         0.29661
  H        -1.41425         -0.91554        -1.03512
  H        -1.97166          2.07661         0.29253
  H        -1.51463          0.93321        -1.05081
14
 step=         185     theta[rad]=           1.9373
  C        -1.19066          1.49482        -0.18285
  C         0.05451          1.53175         0.29709
  C         1.18404          0.67312        -0.08902
  C         1.18104         -0.66933        -0.09139
  C         0.05944         -1.52000         0.28448
  C        -1.18062         -1.50542        -0.16748
  H         0.38664          2.19709         1.09676
  H         2.15159          1.15603        -0.19816
  H         2.13693         -1.17303        -0.20082
  H         0.19228         -2.25260         1.08468
  H        -1.97208         -2.07638         0.29590
  H        -1.42964         -0.91829        -1.03754
  H        -1.97177          2.07657         0.29313
  H        -1.49774          0.93028        -1.04819
14
 step=         186     theta[rad]=           1.9478
  C        -1.17382          1.51251        -0.15714
  C         0.06278          1.51225         0.27601
  C         1.17888          0.66733        -0.09305
  C         1.18544         -0.67564        -0.08786
  C         0.05197         -1.53800         0.30366
  C        -1.19584         -1.48928        -0.19083
  H         0.06322          2.28988         1.07625
  H         2.12745          1.18408        -0.20167
  H         2.15959         -1.14680        -0.19584
  H         0.48946         -2.16815         1.10273
  H        -1.97187         -2.07670         0.29109
  H        -1.53332         -0.93679        -1.05387
  H        -1.97255          2.07627         0.29713
  H        -1.38394          0.91050        -1.03055
14
 step=         187     theta[rad]=           1.9583
  C        -1.18874          1.49684        -0.17992
  C         0.05545          1.52953         0.29469
  C         1.18345          0.67246        -0.08948
  C         1.18154         -0.67005        -0.09099
  C         0.05859         -1.52205         0.28666
  C        -1.18235         -1.50358        -0.17014
  H         0.34984          2.20765         1.09443
  H         2.14884          1.15922        -0.19856
  H         2.13951         -1.17005        -0.20026
  H         0.22609         -2.24299         1.08673
  H        -1.97206         -2.07641         0.29535
  H        -1.44144         -0.92039        -1.03940
  H        -1.97186          2.07654         0.29358
  H        -1.48479          0.92803        -1.04618
14
 step=         188     theta[rad]=           1.9687
  C        -1.19434          1.49096        -0.18846
  C         0.05271          1.53600         0.30169
  C         1.18516          0.67438        -0.08814
  C         1.18009         -0.66795        -0.09216
  C         0.06107         -1.51607         0.28029
  C        -1.17729         -1.50894        -0.16238
  H         0.45727          2.17683         1.10124
  H         2.15686          1.14990        -0.19739
  H         2.13199         -1.17876        -0.20191
  H         0.12738         -2.27104         1.08073
  H        -1.97213         -2.07631         0.29695
  H        -1.40700         -0.91425        -1.03398
  H        -1.97160          2.07663         0.29225
  H        -1.52259          0.93459        -1.05204
14
 step=         189     theta[rad]=           1.9792
  C        -1.17503          1.51124        -0.15900
  C         0.06218          1.51366         0.27753
  C         1.17925          0.66775        -0.09276
  C         1.18512         -0.67518        -0.08811
  C         0.05251         -1.53670         0.30228
  C        -1.19475         -1.49045        -0.18915
  H         0.08654          2.28319         1.07773
  H         2.12920          1.18206        -0.20142
  H         2.15795         -1.14869        -0.19620
  H         0.46802         -2.17424         1.10143
  H        -1.97189         -2.07667         0.29143
  H        -1.52584         -0.93545        -1.05269
  H        -1.97250          2.07629         0.29685
  H        -1.39215          0.91193        -1.03182
14
 step=         190     theta[rad]=           1.9897
  C        -1.18478          1.50100        -0.17387
  C         0.05740          1.52494         0.28972
  C         1.18223          0.67110        -0.09043
  C         1.18258         -0.67153        -0.09015
  C         0.05683         -1.52629         0.29118
  C        -1.18594         -1.49978        -0.17564
  H         0.27367          2.22950         1.08960
  H         2.14316          1.16583        -0.19938
  H         2.14485         -1.16387        -0.19908
  H         0.29608         -2.22310         1.09098
  H        -1.97201         -2.07649         0.29422
  H        -1.46585         -0.92475        -1.04325
  H        -1.97205          2.07647         0.29453
  H        -1.45799          0.92337        -1.04203
14
 step=         191     theta[rad]=           2.0001
  C        -1.19619          1.48902        -0.19129
  C         0.05180          1.53815         0.30401
  C         1.18573          0.67502        -0.08770
  C         1.17960         -0.66726        -0.09255
  C         0.06189         -1.51409         0.27818
  C        -1.17562         -1.51071        -0.15982
  H         0.49280          2.16663         1.10349
  H         2.15951          1.14682        -0.19700
  H         2.12950         -1.18164        -0.20246
  H         0.09473         -2.28032         1.07875
  H        -1.97215         -2.07627         0.29747
  H        -1.39561         -0.91222        -1.03219
  H        -1.97152          2.07667         0.29181
  H        -1.53510          0.93676        -1.05398
14
 step=         192     theta[rad]=           2.0106
  C        -1.17692          1.50926        -0.16187
  C         0.06126          1.51584         0.27988
  C         1.17983          0.66840        -0.09231
  C         1.18463         -0.67448        -0.08851
  C         0.05335         -1.53469         0.30013
  C        -1.19304         -1.49225        -0.18654
  H         0.12270          2.27282         1.08002
  H         2.13189          1.17892        -0.20103
  H         2.15542         -1.15162        -0.19675
  H         0.43480         -2.18368         1.09941
  H        -1.97191         -2.07664         0.29197
  H        -1.51425         -0.93339        -1.05087
  H        -1.97241          2.07633         0.29640
  H        -1.40487          0.91414        -1.03380
14
 step=         193     theta[rad]=           2.0211
  C        -1.18191          1.50401        -0.16950
  C         0.05880          1.52162         0.28614
  C         1.18136          0.67011        -0.09111
  C         1.18333         -0.67261        -0.08955
  C         0.05556         -1.52935         0.29444
  C        -1.18853         -1.49704        -0.17961
  H         0.21862          2.24530         1.08610
  H         2.13905          1.17060        -0.19998
  H         2.14870         -1.15940        -0.19823
  H         0.34666         -2.20873         1.09406
  H        -1.97197         -2.07654         0.29340
  H        -1.48350         -0.92790        -1.04603
  H        -1.97218          2.07641         0.29521
  H        -1.43862          0.92000        -1.03903
14
 step=         194     theta[rad]=           2.0316
  C        -1.19686          1.48831        -0.19231
  C         0.05147          1.53893         0.30485
  C         1.18594          0.67525        -0.08754
  C         1.17943         -0.66701        -0.09269
  C         0.06219         -1.51337         0.27741
  C        -1.17501         -1.51136        -0.15888
  H         0.50572          2.16293         1.10431
  H         2.16047          1.14570        -0.19686
  H         2.12859         -1.18269        -0.20266
  H         0.08286         -2.28370         1.07803
  H        -1.97216         -2.07626         0.29767
  H        -1.39147         -0.91148        -1.03153
  H        -1.97148          2.07668         0.29165
  H        -1.53964          0.93755        -1.05468
14
 step=         195     theta[rad]=           2.0420
  C        -1.17856          1.50754        -0.16438
  C         0.06045          1.51774         0.28194
  C         1.18033          0.66896        -0.09191
  C         1.18420         -0.67386        -0.08885
  C         0.05407         -1.53294         0.29826
  C        -1.19156         -1.49382        -0.18427
  H         0.15420          2.26378         1.08202
  H         2.13424          1.17619        -0.20068
  H         2.15322         -1.15418        -0.19724
  H         0.40585         -2.19191         1.09765
  H        -1.97193         -2.07661         0.29244
  H        -1.50415         -0.93158        -1.04928
  H        -1.97233          2.07636         0.29601
  H        -1.41595          0.91607        -1.03551
14
 step=         196     theta[rad]=           2.0525
  C        -1.18022          1.50579        -0.16691
  C         0.05964          1.51966         0.28402
  C         1.18084          0.66953        -0.09152
  C         1.18377         -0.67324        -0.08920
  C         0.05481         -1.53116         0.29637
  C        -1.19006         -1.49542        -0.18196
  H         0.18614          2.25462         1.08404
  H         2.13663          1.17342        -0.20034
  H         2.15098         -1.15677        -0.19773
  H         0.37651         -2.20025         1.09587
  H        -1.97195         -2.07658         0.29291
  H        -1.49391         -0.92976        -1.04767
  H        -1.97226          2.07638         0.29561
  H        -1.42719          0.91802        -1.03726
14
 step=         197     theta[rad]=           2.0630
  C        -1.19700          1.48817        -0.19252
  C         0.05140          1.53908         0.30502
  C         1.18598          0.67530        -0.08750
  C         1.17939         -0.66696        -0.09272
  C         0.06225         -1.51323         0.27726
  C        -1.17489         -1.51149        -0.15869
  H         0.50836          2.16217         1.10448
  H         2.16067          1.14547        -0.19683
  H         2.12841         -1.18291        -0.20270
  H         0.08044         -2.28438         1.07788
  H        -1.97216         -2.07626         0.29771
  H        -1.39062         -0.91133        -1.03140
  H        -1.97148          2.07668         0.29162
  H        -1.54057          0.93772        -1.05483
14
 step=         198     theta[rad]=           2.0735
  C        -1.17947          1.50657        -0.16577
  C         0.06000          1.51879         0.28308
  C         1.18061          0.66927        -0.09170
  C         1.18396         -0.67352        -0.08904
  C         0.05448         -1.53196         0.29722
  C        -1.19073         -1.49470        -0.18300
  H         0.17177          2.25874         1.08313
  H         2.13555          1.17467        -0.20049
  H         2.15198         -1.15560        -0.19751
  H         0.38971         -2.19650         1.09667
  H        -1.97194         -2.07659         0.29270
  H        -1.49852         -0.93058        -1.04839
  H        -1.97229          2.07637         0.29579
  H        -1.42214          0.91714        -1.03647
14
 step=         199     theta[rad]=           2.0839
  C        -1.17958          1.50646        -0.16593
  C         0.05995          1.51892         0.28321
  C         1.18064          0.66931        -0.09167
  C         1.18394         -0.67348        -0.08906
  C         0.05453         -1.53185         0.29710
  C        -1.19064         -1.49480        -0.18285
  H         0.17379          2.25816         1.08326
  H         2.13571          1.17449        -0.20047
  H         2.15184         -1.15576        -0.19754
  H         0.38786         -2.19702         1.09656
  H        -1.97194         -2.07659         0.29273
  H        -1.49787         -0.93046        -1.04829
  H        -1.97229          2.07637         0.29576
  H        -1.42285          0.91726        -1.03658
14
 step=         200     theta[rad]=           2.0944
  C        -1.19700          1.48816        -0.19253
  C         0.05140          1.53909         0.30503
  C         1.18598          0.67530        -0.08750
  C         1.17939         -0.66696        -0.09272
  C         0.06225         -1.51322         0.27725
  C        -1.17488         -1.51149        -0.15869
  H         0.50847          2.16214         1.10449
  H         2.16068          1.14546        -0.19683
  H         2.12840         -1.18292        -0.20270
  H         0.08033         -2.28441         1.07788
  H        -1.97216         -2.07626         0.29771
  H        -1.39059         -0.91132        -1.03140
  H        -1.97148          2.07668         0.29162
  H        -1.54061          0.93772        -1.05483
14
 step=         201     theta[rad]=           2.1049
  C        -1.17947          1.50657        -0.16577
  C         0.06000          1.51879         0.28308
  C         1.18061          0.66927        -0.09170
  C         1.18396         -0.67352        -0.08904
  C         0.05448         -1.53196         0.29722
  C        -1.19073         -1.49470        -0.18300
  H         0.17177          2.25874         1.08313
  H         2.13555          1.17467        -0.20049
  H         2.15198         -1.15560        -0.19751
  H         0.38971         -2.19650         1.09667
  H        -1.97194         -2.07659         0.29270
  H        -1.49852         -0.93058        -1.04839
  H        -1.97229          2.07637         0.29579
  H        -1.42214          0.91714        -1.03647
14
 step=         202     theta[rad]=           2.1153
  C        -1.17989          1.50613        -0.16642
  C         0.05979          1.51929         0.28361
  C         1.18074          0.66942        -0.09159
  C         1.18385         -0.67336        -0.08913
  C         0.05467         -1.53151         0.29674
  C        -1.19035         -1.49510        -0.18241
  H         0.17991          2.25640         1.08365
  H         2.13616          1.17396        -0.20040
  H         2.15141         -1.15626        -0.19764
  H         0.38223         -2.19862         1.09622
  H        -1.97195         -2.07658         0.29282
  H        -1.49591         -0.93011        -1.04798
  H        -1.97227          2.07638         0.29569
  H        -1.42500          0.91764        -1.03692
14
 step=         203     theta[rad]=           2.1258
  C        -1.19698          1.48819        -0.19250
  C         0.05141          1.53906         0.30500
  C         1.18597          0.67529        -0.08751
  C         1.17940         -0.66697        -0.09271
  C         0.06224         -1.51325         0.27728
  C        -1.17491         -1.51147        -0.15872
  H         0.50803          2.16226         1.10446
  H         2.16065          1.14550        -0.19684
  H         2.12843         -1.18288        -0.20269
  H         0.08074         -2.28430         1.07790
  H        -1.97216         -2.07626         0.29770
  H        -1.39073         -0.91134        -1.03142
  H        -1.97148          2.07668         0.29162
  H        -1.54045          0.93770        -1.05481
14
 step=         204     theta[rad]=           2.1363
  C        -1.17856          1.50754        -0.16438
  C         0.06045          1.51774         0.28194
  C         1.18033          0.66896        -0.09191
  C         1.18420         -0.67386        -0.08885
  C         0.05407         -1.53294         0.29826
  C        -1.19156         -1.49382        -0.18427
  H         0.15420          2.26378         1.08202
  H         2.13424          1.17619        -0.20068
  H         2.15322         -1.15418        -0.19724
  H         0.40585         -2.19191         1.09765
  H        -1.97193         -2.07661         0.29244
  H        -1.50415         -0.93158        -1.04928
  H        -1.97233          2.07636         0.29601
  H        -1.41595          0.91607        -1.03551
14
 step=         205     theta[rad]=           2.1468
  C        -1.18122          1.50474        -0.16844
  C         0.05914          1.52082         0.28527
  C         1.18115          0.66988        -0.09128
  C         1.18351         -0.67286        -0.08941
  C         0.05525         -1.53009         0.29523
  C        -1.18915         -1.49638        -0.18057
  H         0.20539          2.24909         1.08526
  H         2.13806          1.17175        -0.20013
  H         2.14963         -1.15833        -0.19803
  H         0.35882         -2.20528         1.09480
  H        -1.97196         -2.07656         0.29320
  H        -1.48774         -0.92866        -1.04669
  H        -1.97221          2.07640         0.29537
  H        -1.43397          0.91919        -1.03830
14
 step=         206     theta[rad]=           2.1572
  C        -1.19672          1.48846        -0.19210
  C         0.05154          1.53877         0.30468
  C         1.18589          0.67520        -0.08757
  C         1.17946         -0.66706        -0.09266
  C         0.06213         -1.51352         0.27757
  C        -1.17514         -1.51123        -0.15907
  H         0.50310          2.16368         1.10415
  H         2.16028          1.14593        -0.19689
  H         2.12878         -1.18248        -0.20262
  H         0.08527         -2.28301         1.07818
  H        -1.97216         -2.07626         0.29763
  H        -1.39231         -0.91163        -1.03167
  H        -1.97149          2.07668         0.29168
  H        -1.53872          0.93739        -1.05454
14
 step=         207     theta[rad]=           2.1677
  C        -1.17692          1.50926        -0.16187
  C         0.06126          1.51584         0.27988
  C         1.17983          0.66840        -0.09231
  C         1.18463         -0.67448        -0.08851
  C         0.05335         -1.53469         0.30013
  C        -1.19304         -1.49225        -0.18654
  H         0.12270          2.27282         1.08002
  H         2.13189          1.17892        -0.20103
  H         2.15542         -1.15162        -0.19675
  H         0.43480         -2.18368         1.09941
  H        -1.97191         -2.07664         0.29197
  H        -1.51425         -0.93339        -1.05087
  H        -1.97241          2.07633         0.29640
  H        -1.40487          0.91414        -1.03380
14
 step=         208     theta[rad]=           2.1782
  C        -1.18369          1.50215        -0.17221
  C         0.05793          1.52368         0.28836
  C         1.18190          0.67072        -0.09069
  C         1.18286         -0.67194        -0.08993
  C         0.05635         -1.52745         0.29242
  C        -1.18692         -1.49874        -0.17715
  H         0.25275          2.23550         1.08827
  H         2.14160          1.16764        -0.19961
  H         2.14631         -1.16217        -0.19876
  H         0.31530         -2.21764         1.09215
  H        -1.97199         -2.07651         0.29390
  H        -1.47256         -0.92595        -1.04430
  H        -1.97210          2.07645         0.29479
  H        -1.45063          0.92209        -1.04089
14
 step=         209     theta[rad]=           2.1886
  C        -1.19574          1.48949        -0.19060
  C         0.05202          1.53762         0.30345
  C         1.18559          0.67487        -0.08781
  C         1.17972         -0.66743        -0.09245
  C         0.06169         -1.51458         0.27869
  C        -1.17603         -1.51028        -0.16044
  H         0.48415          2.16912         1.10295
  H         2.15886          1.14757        -0.19710
  H         2.13010         -1.18094        -0.20233
  H         0.10268         -2.27806         1.07923
  H        -1.97215         -2.07628         0.29735
  H        -1.39838         -0.91271        -1.03262
  H        -1.97154          2.07666         0.29192
  H        -1.53205          0.93624        -1.05351
14
 step=         210     theta[rad]=           2.1991
  C        -1.17503          1.51124        -0.15900
  C         0.06218          1.51366         0.27753
  C         1.17925          0.66775        -0.09276
  C         1.18512         -0.67518        -0.08811
  C         0.05251         -1.53670         0.30228
  C        -1.19475         -1.49045        -0.18915
  H         0.08654          2.28319         1.07773
  H         2.12920          1.18206        -0.20142
  H         2.15795         -1.14869        -0.19620
  H         0.46802         -2.17424         1.10143
  H        -1.97189         -2.07667         0.29143
  H        -1.52584         -0.93545        -1.05269
  H        -1.97250          2.07629         0.29685
  H        -1.39215          0.91193        -1.03182
14
 step=         211     theta[rad]=           2.2096
  C        -1.18732          1.49833        -0.17776
  C         0.05615          1.52788         0.29291
  C         1.18301          0.67197        -0.08982
  C         1.18191         -0.67058        -0.09069
  C         0.05796         -1.52357         0.28828
  C        -1.18364         -1.50222        -0.17211
  H         0.32256          2.21548         1.09270
  H         2.14681          1.16159        -0.19885
  H         2.14142         -1.16783        -0.19983
  H         0.25116         -2.23587         1.08825
  H        -1.97204         -2.07644         0.29494
  H        -1.45018         -0.92195        -1.04078
  H        -1.97193          2.07651         0.29392
  H        -1.47519          0.92636        -1.04469
14
 step=         212     theta[rad]=           2.2201
  C        -1.19334          1.49201        -0.18694
  C         0.05320          1.53485         0.30044
  C         1.18486          0.67404        -0.08838
  C         1.18035         -0.66833        -0.09195
  C         0.06063         -1.51714         0.28143
  C        -1.17820         -1.50798        -0.16377
  H         0.43808          2.18233         1.10002
  H         2.15543          1.15157        -0.19760
  H         2.13333         -1.17721        -0.20162
  H         0.14501         -2.26604         1.08180
  H        -1.97212         -2.07633         0.29666
  H        -1.41315         -0.91535        -1.03495
  H        -1.97165          2.07662         0.29249
  H        -1.51584          0.93342        -1.05099
14
 step=         213     theta[rad]=           2.2305
  C        -1.17382          1.51251        -0.15714
  C         0.06278          1.51225         0.27601
  C         1.17888          0.66733        -0.09305
  C         1.18544         -0.67564        -0.08786
  C         0.05197         -1.53800         0.30366
  C        -1.19584         -1.48928        -0.19083
  H         0.06322          2.28988         1.07625
  H         2.12745          1.18408        -0.20167
  H         2.15959         -1.14680        -0.19584
  H         0.48946         -2.16815         1.10273
  H        -1.97187         -2.07670         0.29109
  H        -1.53332         -0.93679        -1.05387
  H        -1.97255          2.07627         0.29713
  H        -1.38394          0.91050        -1.03055
14
 step=         214     theta[rad]=           2.2410
  C        -1.19171          1.49372        -0.18446
  C         0.05399          1.53297         0.29841
  C         1.18436          0.67348        -0.08877
  C         1.18077         -0.66894        -0.09161
  C         0.05990         -1.51888         0.28328
  C        -1.17967         -1.50643        -0.16602
  H         0.40687          2.19129         1.09804
  H         2.15310          1.15427        -0.19794
  H         2.13552         -1.17467        -0.20113
  H         0.17369         -2.25788         1.08355
  H        -1.97210         -2.07636         0.29620
  H        -1.42315         -0.91713        -1.03652
  H        -1.97172          2.07659         0.29288
  H        -1.50486          0.93151        -1.04929
14
 step=         215     theta[rad]=           2.2515
  C        -1.18898          1.49659        -0.18028
  C         0.05534          1.52980         0.29498
  C         1.18352          0.67254        -0.08942
  C         1.18148         -0.66996        -0.09103
  C         0.05869         -1.52180         0.28640
  C        -1.18214         -1.50380        -0.16982
  H         0.35430          2.20637         1.09471
  H         2.14917          1.15883        -0.19851
  H         2.13920         -1.17041        -0.20032
  H         0.22200         -2.24416         1.08648
  H        -1.97206         -2.07641         0.29541
  H        -1.44001         -0.92014        -1.03918
  H        -1.97185          2.07654         0.29353
  H        -1.48636          0.92830        -1.04642
14
 step=         216     theta[rad]=           2.2619
  C        -1.17458          1.51171        -0.15831
  C         0.06240          1.51314         0.27696
  C         1.17911          0.66759        -0.09286
  C         1.18524         -0.67535        -0.08802
  C         0.05231         -1.53719         0.30279
  C        -1.19515         -1.49002        -0.18978
  H         0.07789          2.28567         1.07718
  H         2.12855          1.18281        -0.20151
  H         2.15856         -1.14799        -0.19606
  H         0.47597         -2.17199         1.10191
  H        -1.97188         -2.07668         0.29130
  H        -1.52861         -0.93595        -1.05313
  H        -1.97252          2.07628         0.29695
  H        -1.38911          0.91140        -1.03135
14
 step=         217     theta[rad]=           2.2724
  C        -1.19562          1.48961        -0.19043
  C         0.05208          1.53749         0.30330
  C         1.18556          0.67483        -0.08783
  C         1.17975         -0.66747        -0.09243
  C         0.06164         -1.51470         0.27882
  C        -1.17613         -1.51017        -0.16060
  H         0.48198          2.16974         1.10281
  H         2.15870          1.14776        -0.19712
  H         2.13026         -1.18077        -0.20229
  H         0.10467         -2.27750         1.07935
  H        -1.97214         -2.07629         0.29731
  H        -1.39907         -0.91283        -1.03273
  H        -1.97154          2.07666         0.29195
  H        -1.53129          0.93610        -1.05339
14
 step=         218     theta[rad]=           2.2829
  C        -1.18285          1.50303        -0.17093
  C         0.05834          1.52271         0.28731
  C         1.18164          0.67044        -0.09089
  C         1.18308         -0.67225        -0.08975
  C         0.05598         -1.52835         0.29337
  C        -1.18768         -1.49794        -0.17831
  H         0.23667          2.24012         1.08725
  H         2.14040          1.16904        -0.19979
  H         2.14744         -1.16087        -0.19851
  H         0.33007         -2.21345         1.09305
  H        -1.97198         -2.07653         0.29367
  H        -1.47771         -0.92687        -1.04511
  H        -1.97213          2.07643         0.29499
  H        -1.44497          0.92111        -1.04001
14
 step=         219     theta[rad]=           2.2934
  C        -1.17856          1.50754        -0.16438
  C         0.06045          1.51774         0.28194
  C         1.18033          0.66896        -0.09191
  C         1.18420         -0.67386        -0.08885
  C         0.05407         -1.53294         0.29826
  C        -1.19156         -1.49382        -0.18427
  H         0.15420          2.26378         1.08202
  H         2.13424          1.17619        -0.20068
  H         2.15322         -1.15418        -0.19724
  H         0.40585         -2.19191         1.09765
  H        -1.97193         -2.07661         0.29244
  H        -1.50415         -0.93158        -1.04928
  H        -1.97233          2.07636         0.29601
  H        -1.41595          0.91607        -1.03551
14
 step=         220     theta[rad]=           2.3038
  C        -1.19694          1.48823        -0.19243
  C         0.05143          1.53902         0.30495
  C         1.18596          0.67528        -0.08752
  C         1.17941         -0.66698        -0.09270
  C         0.06222         -1.51329         0.27732
  C        -1.17494         -1.51143        -0.15877
  H         0.50725          2.16249         1.10441
  H         2.16059          1.14557        -0.19685
  H         2.12849         -1.18282        -0.20268
  H         0.08146         -2.28409         1.07794
  H        -1.97216         -2.07626         0.29769
  H        -1.39098         -0.91139        -1.03146
  H        -1.97148          2.07668         0.29163
  H        -1.54018          0.93765        -1.05476
14
 step=         221     theta[rad]=           2.3143
  C        -1.17667          1.50952        -0.16150
  C         0.06138          1.51555         0.27958
  C         1.17975          0.66831        -0.09236
  C         1.18469         -0.67457        -0.08846
  C         0.05324         -1.53496         0.30041
  C        -1.19327         -1.49202        -0.18688
  H         0.11798          2.27417         1.07972
  H         2.13154          1.17933        -0.20108
  H         2.15575         -1.15124        -0.19668
  H         0.43913         -2.18245         1.09968
  H        -1.97191         -2.07664         0.29190
  H        -1.51576         -0.93366        -1.05111
  H        -1.97242          2.07632         0.29646
  H        -1.40321          0.91385        -1.03354
14
 step=         222     theta[rad]=           2.3248
  C        -1.18575          1.49998        -0.17536
  C         0.05692          1.52606         0.29094
  C         1.18253          0.67143        -0.09019
  C         1.18232         -0.67117        -0.09036
  C         0.05726         -1.52525         0.29007
  C        -1.18506         -1.50071        -0.17429
  H         0.29236          2.22414         1.09078
  H         2.14455          1.16421        -0.19918
  H         2.14354         -1.16538        -0.19937
  H         0.27891         -2.22798         1.08994
  H        -1.97202         -2.07647         0.29449
  H        -1.45986         -0.92368        -1.04230
  H        -1.97200          2.07648         0.29430
  H        -1.46457          0.92451        -1.04305
14
 step=         223     theta[rad]=           2.3353
  C        -1.19351          1.49183        -0.18721
  C         0.05311          1.53505         0.30066
  C         1.18491          0.67410        -0.08834
  C         1.18030         -0.66826        -0.09199
  C         0.06070         -1.51695         0.28123
  C        -1.17804         -1.50815        -0.16352
  H         0.44146          2.18136         1.10024
  H         2.15568          1.15127        -0.19756
  H         2.13309         -1.17748        -0.20167
  H         0.14191         -2.26692         1.08162
  H        -1.97212         -2.07632         0.29671
  H        -1.41207         -0.91515        -1.03478
  H        -1.97164          2.07662         0.29245
  H        -1.51703          0.93363        -1.05118
14
 step=         224     theta[rad]=           2.3457
  C        -1.17377          1.51257        -0.15707
  C         0.06280          1.51219         0.27594
  C         1.17886          0.66731        -0.09306
  C         1.18545         -0.67566        -0.08785
  C         0.05195         -1.53806         0.30372
  C        -1.19589         -1.48923        -0.19091
  H         0.06223          2.29017         1.07618
  H         2.12738          1.18417        -0.20168
  H         2.15966         -1.14671        -0.19582
  H         0.49037         -2.16789         1.10279
  H        -1.97187         -2.07670         0.29107
  H        -1.53363         -0.93684        -1.05392
  H        -1.97256          2.07627         0.29715
  H        -1.38359          0.91044        -1.03050
14
 step=         225     theta[rad]=           2.3562
  C        -1.19360          1.49174        -0.18734
  C         0.05307          1.53515         0.30077
  C         1.18494          0.67413        -0.08832
  C         1.18028         -0.66823        -0.09200
  C         0.06074         -1.51686         0.28113
  C        -1.17796         -1.50823        -0.16340
  H         0.44312          2.18089         1.10034
  H         2.15580          1.15113        -0.19754
  H         2.13298         -1.17761        -0.20169
  H         0.14038         -2.26735         1.08152
  H        -1.97212         -2.07632         0.29674
  H        -1.41153         -0.91506        -1.03469
  H        -1.97164          2.07662         0.29243
  H        -1.51762          0.93373        -1.05127
14
 step=         226     theta[rad]=           2.3667
  C        -1.18526          1.50049        -0.17461
  C         0.05716          1.52550         0.29033
  C         1.18238          0.67127        -0.09031
  C         1.18245         -0.67135        -0.09026
  C         0.05705         -1.52577         0.29062
  C        -1.18550         -1.50025        -0.17496
  H         0.28301          2.22682         1.09019
  H         2.14386          1.16502        -0.19928
  H         2.14419         -1.16463        -0.19922
  H         0.28750         -2.22554         1.09046
  H        -1.97201         -2.07648         0.29435
  H        -1.46286         -0.92422        -1.04278
  H        -1.97202          2.07647         0.29441
  H        -1.46128          0.92394        -1.04254
14
 step=         227     theta[rad]=           2.3771
  C        -1.17743          1.50872        -0.16266
  C         0.06100          1.51643         0.28053
  C         1.17998          0.66857        -0.09218
  C         1.18449         -0.67428        -0.08862
  C         0.05357         -1.53414         0.29954
  C        -1.19258         -1.49275        -0.18582
  H         0.13261          2.26997         1.08065
  H         2.13263          1.17806        -0.20092
  H         2.15473         -1.15242        -0.19691
  H         0.42569         -2.18627         1.09886
  H        -1.97192         -2.07663         0.29212
  H        -1.51107         -0.93282        -1.05037
  H        -1.97239          2.07634         0.29627
  H        -1.40836          0.91475        -1.03434
14
 step=         228     theta[rad]=           2.3876
  C        -1.19698          1.48819        -0.19250
  C         0.05141          1.53906         0.30500
  C         1.18597          0.67529        -0.08751
  C         1.17940         -0.66697        -0.09271
  C         0.06224         -1.51325         0.27728
  C        -1.17491         -1.51147        -0.15872
  H         0.50803          2.16226         1.10446
  H         2.16065          1.14550        -0.19684
  H         2.12843         -1.18288        -0.20269
  H         0.08074         -2.28430         1.07790
  H        -1.97216         -2.07626         0.29770
  H        -1.39073         -0.91134        -1.03142
  H        -1.97148          2.07668         0.29162
  H        -1.54045          0.93770        -1.05481
14
 step=         229     theta[rad]=           2.3981
  C        -1.17636          1.50985        -0.16102
  C         0.06153          1.51519         0.27918
  C         1.17965          0.66820        -0.09244
  C         1.18477         -0.67469        -0.08839
  C         0.05310         -1.53529         0.30077
  C        -1.19355         -1.49171        -0.18732
  H         0.11195          2.27590         1.07934
  H         2.13109          1.17986        -0.20114
  H         2.15617         -1.15075        -0.19659
  H         0.44468         -2.18088         1.10001
  H        -1.97190         -2.07665         0.29181
  H        -1.51769         -0.93400        -1.05141
  H        -1.97244          2.07632         0.29653
  H        -1.40109          0.91348        -1.03321
14
 step=         230     theta[rad]=           2.4086
  C        -1.18720          1.49846        -0.17757
  C         0.05621          1.52774         0.29276
  C         1.18298          0.67193        -0.08985
  C         1.18195         -0.67063        -0.09066
  C         0.05791         -1.52370         0.28841
  C        -1.18374         -1.50211        -0.17228
  H         0.32025          2.21614         1.09255
  H         2.14663          1.16179        -0.19888
  H         2.14158         -1.16765        -0.19980
  H         0.25328         -2.23527         1.08838
  H        -1.97204         -2.07644         0.29491
  H        -1.45092         -0.92209        -1.04090
  H        -1.97193          2.07651         0.29395
  H        -1.47438          0.92622        -1.04457
14
 step=         231     theta[rad]=           2.4190
  C        -1.19161          1.49383        -0.18430
  C         0.05404          1.53285         0.29828
  C         1.18433          0.67345        -0.08879
  C         1.18080         -0.66898        -0.09159
  C         0.05986         -1.51899         0.28339
  C        -1.17976         -1.50633        -0.16616
  H         0.40490          2.19185         1.09792
  H         2.15295          1.15444        -0.19796
  H         2.13565         -1.17451        -0.20110
  H         0.17550         -2.25737         1.08366
  H        -1.97209         -2.07636         0.29617
  H        -1.42378         -0.91724        -1.03662
  H        -1.97173          2.07659         0.29290
  H        -1.50417          0.93139        -1.04918
14
 step=         232     theta[rad]=           2.4295
  C        -1.17426          1.51204        -0.15782
  C         0.06256          1.51277         0.27656
  C         1.17901          0.66748        -0.09294
  C         1.18532         -0.67547        -0.08795
  C         0.05217         -1.53753         0.30315
  C        -1.19544         -1.48971        -0.19022
  H         0.07175          2.28744         1.07679
  H         2.12809          1.18334        -0.20158
  H         2.15899         -1.14749        -0.19597
  H         0.48161         -2.17038         1.10226
  H        -1.97188         -2.07669         0.29121
  H        -1.53058         -0.93630        -1.05344
  H        -1.97253          2.07628         0.29703
  H        -1.38694          0.91103        -1.03102
14
 step=         233     theta[rad]=           2.4400
  C        -1.19605          1.48917        -0.19107
  C         0.05187          1.53798         0.30384
  C         1.18569          0.67497        -0.08773
  C         1.17964         -0.66731        -0.09252
  C         0.06183         -1.51424         0.27834
  C        -1.17575         -1.51058        -0.16001
  H         0.49012          2.16740         1.10332
  H         2.15931          1.14705        -0.19703
  H         2.12969         -1.18143        -0.20242
  H         0.09720         -2.27962         1.07890
  H        -1.97215         -2.07628         0.29743
  H        -1.39647         -0.91237        -1.03232
  H        -1.97152          2.07666         0.29185
  H        -1.53415          0.93660        -1.05383
14
 step=         234     theta[rad]=           2.4504
  C        -1.18011          1.50590        -0.16675
  C         0.05969          1.51953         0.28388
  C         1.18080          0.66949        -0.09154
  C         1.18380         -0.67328        -0.08918
  C         0.05476         -1.53128         0.29649
  C        -1.19016         -1.49531        -0.18211
  H         0.18405          2.25522         1.08391
  H         2.13647          1.17360        -0.20036
  H         2.15112         -1.15660        -0.19770
  H         0.37842         -2.19970         1.09599
  H        -1.97195         -2.07658         0.29288
  H        -1.49458         -0.92988        -1.04777
  H        -1.97226          2.07638         0.29564
  H        -1.42646          0.91789        -1.03714
14
 step=         235     theta[rad]=           2.4609
  C        -1.18297          1.50290        -0.17111
  C         0.05829          1.52284         0.28746
  C         1.18168          0.67048        -0.09086
  C         1.18305         -0.67221        -0.08978
  C         0.05603         -1.52822         0.29324
  C        -1.18757         -1.49805        -0.17815
  H         0.23896          2.23946         1.08739
  H         2.14057          1.16884        -0.19976
  H         2.14728         -1.16105        -0.19855
  H         0.32798         -2.21404         1.09292
  H        -1.97199         -2.07652         0.29370
  H        -1.47698         -0.92674        -1.04500
  H        -1.97213          2.07643         0.29496
  H        -1.44578          0.92125        -1.04014
14
 step=         236     theta[rad]=           2.4714
  C        -1.19434          1.49096        -0.18846
  C         0.05271          1.53600         0.30169
  C         1.18516          0.67438        -0.08814
  C         1.18009         -0.66795        -0.09216
  C         0.06107         -1.51607         0.28029
  C        -1.17729         -1.50894        -0.16238
  H         0.45727          2.17683         1.10124
  H         2.15686          1.14990        -0.19739
  H         2.13199         -1.17876        -0.20191
  H         0.12738         -2.27104         1.08073
  H        -1.97213         -2.07631         0.29695
  H        -1.40700         -0.91425        -1.03398
  H        -1.97160          2.07663         0.29225
  H        -1.52259          0.93459        -1.05204
14
 step=         237     theta[rad]=           2.4819
  C        -1.17377          1.51256        -0.15707
  C         0.06280          1.51220         0.27595
  C         1.17886          0.66732        -0.09306
  C         1.18545         -0.67565        -0.08785
  C         0.05195         -1.53805         0.30371
  C        -1.19589         -1.48924        -0.19090
  H         0.06234          2.29014         1.07619
  H         2.12739          1.18416        -0.20168
  H         2.15965         -1.14672        -0.19582
  H         0.49026         -2.16792         1.10278
  H        -1.97187         -2.07670         0.29107
  H        -1.53360         -0.93684        -1.05391
  H        -1.97256          2.07627         0.29714
  H        -1.38363          0.91045        -1.03050
14
 step=         238     theta[rad]=           2.4923
  C        -1.19486          1.49042        -0.18925
  C         0.05245          1.53660         0.30234
  C         1.18532          0.67456        -0.08802
  C         1.17995         -0.66776        -0.09227
  C         0.06130         -1.51552         0.27970
  C        -1.17683         -1.50944        -0.16166
  H         0.46722          2.17397         1.10187
  H         2.15760          1.14904        -0.19728
  H         2.13129         -1.17957        -0.20207
  H         0.11824         -2.27364         1.08018
  H        -1.97213         -2.07630         0.29709
  H        -1.40381         -0.91368        -1.03348
  H        -1.97158          2.07664         0.29213
  H        -1.52610          0.93520        -1.05258
14
 step=         239     theta[rad]=           2.5028
  C        -1.18179          1.50413        -0.16932
  C         0.05886          1.52148         0.28599
  C         1.18132          0.67007        -0.09114
  C         1.18336         -0.67265        -0.08953
  C         0.05551         -1.52948         0.29457
  C        -1.18863         -1.49692        -0.17977
  H         0.21640          2.24593         1.08596
  H         2.13889          1.17080        -0.20001
  H         2.14886         -1.15922        -0.19820
  H         0.34870         -2.20815         1.09418
  H        -1.97197         -2.07655         0.29336
  H        -1.48421         -0.92803        -1.04614
  H        -1.97218          2.07641         0.29524
  H        -1.43784          0.91987        -1.03891
14
 step=         240     theta[rad]=           2.5133
  C        -1.18179          1.50413        -0.16932
  C         0.05886          1.52148         0.28599
  C         1.18132          0.67007        -0.09114
  C         1.18336         -0.67265        -0.08953
  C         0.05551         -1.52948         0.29457
  C        -1.18863         -1.49692        -0.17977
  H         0.21640          2.24593         1.08596
  H         2.13889          1.17080        -0.20001
  H         2.14886         -1.15922        -0.19820
  H         0.34870         -2.20815         1.09418
  H        -1.97197         -2.07655         0.29336
  H        -1.48421         -0.92803        -1.04614
  H        -1.97218          2.07641         0.29524
  H        -1.43784          0.91987        -1.03891
14
 step=         241     theta[rad]=           2.5237
  C        -1.19471          1.49057        -0.18904
  C         0.05252          1.53644         0.30216
  C         1.18528          0.67451        -0.08805
  C         1.17999         -0.66781        -0.09224
  C         0.06123         -1.51567         0.27986
  C        -1.17696         -1.50930        -0.16186
  H         0.46447          2.17476         1.10170
  H         2.15740          1.14928        -0.19731
  H         2.13148         -1.17935        -0.20202
  H         0.12076         -2.27293         1.08033
  H        -1.97213         -2.07630         0.29705
  H        -1.40469         -0.91384        -1.03362
  H        -1.97158          2.07664         0.29216
  H        -1.52513          0.93503        -1.05243
14
 step=         242     theta[rad]=           2.5342
  C        -1.17377          1.51256        -0.15707
  C         0.06280          1.51220         0.27595
  C         1.17886          0.66732        -0.09306
  C         1.18545         -0.67565        -0.08785
  C         0.05195         -1.53805         0.30371
  C        -1.19589         -1.48924        -0.19090
  H         0.06234          2.29014         1.07619
  H         2.12739          1.18416        -0.20168
  H         2.15965         -1.14672        -0.19582
  H         0.49026         -2.16792         1.10278
  H        -1.97187         -2.07670         0.29107
  H        -1.53360         -0.93684        -1.05391
  H        -1.97256          2.07627         0.29714
  H        -1.38363          0.91045        -1.03050
14
 step=         243     theta[rad]=           2.5447
  C        -1.19520          1.49006        -0.18977
  C         0.05229          1.53700         0.30277
  C         1.18543          0.67468        -0.08794
  C         1.17986         -0.66763        -0.09234
  C         0.06145         -1.51515         0.27931
  C        -1.17652         -1.50976        -0.16119
  H         0.47373          2.17210         1.10228
  H         2.15809          1.14847        -0.19721
  H         2.13083         -1.18010        -0.20217
  H         0.11225         -2.27534         1.07981
  H        -1.97214         -2.07629         0.29719
  H        -1.40172         -0.91331        -1.03315
  H        -1.97156          2.07665         0.29205
  H        -1.52839          0.93560        -1.05294
14
 step=         244     theta[rad]=           2.5552
  C        -1.18066          1.50533        -0.16759
  C         0.05942          1.52017         0.28457
  C         1.18097          0.66968        -0.09141
  C         1.18365         -0.67308        -0.08929
  C         0.05501         -1.53069         0.29587
  C        -1.18966         -1.49584        -0.18135
  H         0.19460          2.25219         1.08458
  H         2.13726          1.17269        -0.20024
  H         2.15039         -1.15745        -0.19786
  H         0.36874         -2.20246         1.09540
  H        -1.97196         -2.07657         0.29304
  H        -1.49120         -0.92927        -1.04724
  H        -1.97224          2.07639         0.29551
  H        -1.43017          0.91854        -1.03772
14
 step=         245     theta[rad]=           2.5656
  C        -1.18357          1.50227        -0.17202
  C         0.05799          1.52354         0.28821
  C         1.18186          0.67068        -0.09072
  C         1.18289         -0.67199        -0.08990
  C         0.05629         -1.52758         0.29256
  C        -1.18703         -1.49862        -0.17732
  H         0.25044          2.23617         1.08812
  H         2.14143          1.16784        -0.19964
  H         2.14647         -1.16198        -0.19872
  H         0.31742         -2.21704         1.09228
  H        -1.97199         -2.07651         0.29387
  H        -1.47330         -0.92608        -1.04442
  H        -1.97210          2.07644         0.29481
  H        -1.44982          0.92195        -1.04076
14
 step=         246     theta[rad]=           2.5761
  C        -1.19307          1.49230        -0.18653
  C         0.05333          1.53454         0.30011
  C         1.18478          0.67395        -0.08844
  C         1.18042         -0.66843        -0.09189
  C         0.06051         -1.51743         0.28173
  C        -1.17844         -1.50772        -0.16414
  H         0.43290          2.18382         1.09969
  H         2.15504          1.15202        -0.19765
  H         2.13369         -1.17678        -0.20154
  H         0.14977         -2.26468         1.08209
  H        -1.97211         -2.07633         0.29658
  H        -1.41481         -0.91564        -1.03521
  H        -1.97166          2.07661         0.29255
  H        -1.51402          0.93310        -1.05071
14
 step=         247     theta[rad]=           2.5866
  C        -1.17426          1.51204        -0.15782
  C         0.06256          1.51277         0.27656
  C         1.17901          0.66748        -0.09294
  C         1.18532         -0.67547        -0.08795
  C         0.05217         -1.53753         0.30315
  C        -1.19544         -1.48971        -0.19022
  H         0.07175          2.28744         1.07679
  H         2.12809          1.18334        -0.20158
  H         2.15899         -1.14749        -0.19597
  H         0.48161         -2.17038         1.10226
  H        -1.97188         -2.07669         0.29121
  H        -1.53058         -0.93630        -1.05344
  H        -1.97253          2.07628         0.29703
  H        -1.38694          0.91103        -1.03102
14
 step=         248     theta[rad]=           2.5970
  C        -1.19664          1.48855        -0.19197
  C         0.05158          1.53867         0.30457
  C         1.18587          0.67517        -0.08759
  C         1.17948         -0.66709        -0.09264
  C         0.06209         -1.51361         0.27767
  C        -1.17521         -1.51114        -0.15919
  H         0.50146          2.16415         1.10404
  H         2.16016          1.14607        -0.19691
  H         2.12889         -1.18235        -0.20259
  H         0.08678         -2.28258         1.07827
  H        -1.97216         -2.07627         0.29760
  H        -1.39283         -0.91172        -1.03175
  H        -1.97149          2.07668         0.29170
  H        -1.53814          0.93729        -1.05445
14
 step=         249     theta[rad]=           2.6075
  C        -1.17717          1.50899        -0.16226
  C         0.06113          1.51613         0.28020
  C         1.17990          0.66848        -0.09225
  C         1.18456         -0.67438        -0.08856
  C         0.05346         -1.53442         0.29984
  C        -1.19282         -1.49249        -0.18619
  H         0.12758          2.27142         1.08033
  H         2.13226          1.17850        -0.20097
  H         2.15508         -1.15202        -0.19683
  H         0.43032         -2.18496         1.09914
  H        -1.97191         -2.07663         0.29204
  H        -1.51268         -0.93311        -1.05062
  H        -1.97240          2.07633         0.29634
  H        -1.40659          0.91444        -1.03406
14
 step=         250     theta[rad]=           2.6180
  C        -1.18839          1.49721        -0.17939
  C         0.05562          1.52912         0.29425
  C         1.18334          0.67234        -0.08956
  C         1.18164         -0.67018        -0.09091
  C         0.05843         -1.52243         0.28706
  C        -1.18267         -1.50324        -0.17063
  H         0.34310          2.20958         1.09400
  H         2.14834          1.15981        -0.19863
  H         2.13998         -1.16950        -0.20015
  H         0.23229         -2.24123         1.08711
  H        -1.97205         -2.07642         0.29525
  H        -1.44360         -0.92078        -1.03974
  H        -1.97188          2.07653         0.29367
  H        -1.48242          0.92761        -1.04581
14
 step=         251     theta[rad]=           2.6285
  C        -1.18827          1.49733        -0.17921
  C         0.05568          1.52899         0.29410
  C         1.18331          0.67230        -0.08959
  C         1.18167         -0.67022        -0.09089
  C         0.05838         -1.52255         0.28719
  C        -1.18278         -1.50313        -0.17079
  H         0.34084          2.21023         1.09386
  H         2.14817          1.16000        -0.19865
  H         2.14014         -1.16932        -0.20012
  H         0.23436         -2.24064         1.08723
  H        -1.97205         -2.07642         0.29521
  H        -1.44432         -0.92091        -1.03986
  H        -1.97188          2.07653         0.29369
  H        -1.48163          0.92748        -1.04569
14
 step=         252     theta[rad]=           2.6389
  C        -1.17743          1.50872        -0.16266
  C         0.06100          1.51643         0.28053
  C         1.17998          0.66857        -0.09218
  C         1.18449         -0.67428        -0.08862
  C         0.05357         -1.53414         0.29954
  C        -1.19258         -1.49275        -0.18582
  H         0.13261          2.26997         1.08065
  H         2.13263          1.17806        -0.20092
  H         2.15473         -1.15242        -0.19691
  H         0.42569         -2.18627         1.09886
  H        -1.97192         -2.07663         0.29212
  H        -1.51107         -0.93282        -1.05037
  H        -1.97239          2.07634         0.29627
  H        -1.40836          0.91475        -1.03434
14
 step=         253     theta[rad]=           2.6494
  C        -1.19640          1.48880        -0.19161
  C         0.05170          1.53839         0.30427
  C         1.18579          0.67509        -0.08765
  C         1.17955         -0.66718        -0.09259
  C         0.06198         -1.51387         0.27794
  C        -1.17543         -1.51091        -0.15953
  H         0.49681          2.16548         1.10375
  H         2.15981          1.14647        -0.19696
  H         2.12922         -1.18197        -0.20252
  H         0.09104         -2.28137         1.07853
  H        -1.97215         -2.07627         0.29753
  H        -1.39432         -0.91199        -1.03198
  H        -1.97151          2.07667         0.29176
  H        -1.53651          0.93701        -1.05420
14
 step=         254     theta[rad]=           2.6599
  C        -1.17391          1.51241        -0.15728
  C         0.06273          1.51236         0.27612
  C         1.17891          0.66736        -0.09302
  C         1.18541         -0.67560        -0.08788
  C         0.05201         -1.53791         0.30356
  C        -1.19576         -1.48937        -0.19071
  H         0.06497          2.28938         1.07636
  H         2.12759          1.18393        -0.20165
  H         2.15947         -1.14694        -0.19586
  H         0.48784         -2.16861         1.10264
  H        -1.97187         -2.07669         0.29111
  H        -1.53275         -0.93669        -1.05378
  H        -1.97255          2.07627         0.29711
  H        -1.38456          0.91061        -1.03065
14
 step=         255     theta[rad]=           2.6704
  C        -1.19478          1.49049        -0.18915
  C         0.05249          1.53652         0.30225
  C         1.18530          0.67454        -0.08803
  C         1.17997         -0.66779        -0.09225
  C         0.06127         -1.51559         0.27978
  C        -1.17689         -1.50937        -0.16176
  H         0.46586          2.17436         1.10179
  H         2.15750          1.14916        -0.19730
  H         2.13139         -1.17946        -0.20204
  H         0.11949         -2.27329         1.08025
  H        -1.97213         -2.07630         0.29707
  H        -1.40424         -0.91376        -1.03355
  H        -1.97158          2.07664         0.29215
  H        -1.52562          0.93512        -1.05251
14
 step=         256     theta[rad]=           2.6808
  C        -1.18000          1.50602        -0.16658
  C         0.05974          1.51941         0.28375
  C         1.18077          0.66946        -0.09157
  C         1.18382         -0.67332        -0.08915
  C         0.05471         -1.53139         0.29662
  C        -1.19025         -1.49521        -0.18226
  H         0.18198          2.25581         1.08378
  H         2.13632          1.17378        -0.20038
  H         2.15127         -1.15643        -0.19767
  H         0.38033         -2.19916         1.09610
  H        -1.97195         -2.07658         0.29285
  H        -1.49525         -0.92999        -1.04788
  H        -1.97227          2.07638         0.29566
  H        -1.42573          0.91776        -1.03703
14
 step=         257     theta[rad]=           2.6913
  C        -1.18575          1.49998        -0.17536
  C         0.05692          1.52606         0.29094
  C         1.18253          0.67143        -0.09019
  C         1.18232         -0.67117        -0.09036
  C         0.05726         -1.52525         0.29007
  C        -1.18506         -1.50071        -0.17429
  H         0.29236          2.22414         1.09078
  H         2.14455          1.16421        -0.19918
  H         2.14354         -1.16538        -0.19937
  H         0.27891         -2.22798         1.08994
  H        -1.97202         -2.07647         0.29449
  H        -1.45986         -0.92368        -1.04230
  H        -1.97200          2.07648         0.29430
  H        -1.46457          0.92451        -1.04305
14
 step=         258     theta[rad]=           2.7018
  C        -1.19000          1.49552        -0.18184
  C         0.05484          1.53098         0.29626
  C         1.18383          0.67289        -0.08918
  C         1.18122         -0.66958        -0.09125
  C         0.05915         -1.52071         0.28523
  C        -1.18122         -1.50478        -0.16840
  H         0.37396          2.20073         1.09596
  H         2.15064          1.15713        -0.19829
  H         2.13782         -1.17200        -0.20063
  H         0.20393         -2.24929         1.08538
  H        -1.97207         -2.07639         0.29571
  H        -1.43370         -0.91901        -1.03819
  H        -1.97180          2.07656         0.29328
  H        -1.49328          0.92950        -1.04750
14
 step=         259     theta[rad]=           2.7122
  C        -1.17675          1.50943        -0.16162
  C         0.06134          1.51565         0.27968
  C         1.17978          0.66834        -0.09235
  C         1.18467         -0.67454        -0.08847
  C         0.05327         -1.53487         0.30032
  C        -1.19319         -1.49209        -0.18677
  H         0.11954          2.27373         1.07982
  H         2.13166          1.17920        -0.20106
  H         2.15564         -1.15136        -0.19670
  H         0.43771         -2.18286         1.09959
  H        -1.97191         -2.07664         0.29192
  H        -1.51526         -0.93357        -1.05103
  H        -1.97242          2.07632         0.29644
  H        -1.40376          0.91395        -1.03362
14
 step=         260     theta[rad]=           2.7227
  C        -1.19644          1.48876        -0.19166
  C         0.05168          1.53843         0.30432
  C         1.18581          0.67510        -0.08764
  C         1.17954         -0.66717        -0.09260
  C         0.06200         -1.51383         0.27790
  C        -1.17540         -1.51095        -0.15947
  H         0.49755          2.16527         1.10380
  H         2.15986          1.14641        -0.19695
  H         2.12917         -1.18203        -0.20253
  H         0.09037         -2.28156         1.07849
  H        -1.97215         -2.07627         0.29754
  H        -1.39409         -0.91194        -1.03195
  H        -1.97150          2.07667         0.29175
  H        -1.53677          0.93706        -1.05424
14
 step=         261     theta[rad]=           2.7332
  C        -1.17382          1.51251        -0.15714
  C         0.06278          1.51225         0.27601
  C         1.17888          0.66733        -0.09305
  C         1.18544         -0.67564        -0.08786
  C         0.05197         -1.53800         0.30366
  C        -1.19584         -1.48928        -0.19083
  H         0.06322          2.28988         1.07625
  H         2.12745          1.18408        -0.20167
  H         2.15959         -1.14680        -0.19584
  H         0.48946         -2.16815         1.10273
  H        -1.97187         -2.07670         0.29109
  H        -1.53332         -0.93679        -1.05387
  H        -1.97255          2.07627         0.29713
  H        -1.38394          0.91050        -1.03055
14
 step=         262     theta[rad]=           2.7437
  C        -1.19562          1.48961        -0.19043
  C         0.05208          1.53749         0.30330
  C         1.18556          0.67483        -0.08783
  C         1.17975         -0.66747        -0.09243
  C         0.06164         -1.51470         0.27882
  C        -1.17613         -1.51017        -0.16060
  H         0.48198          2.16974         1.10281
  H         2.15870          1.14776        -0.19712
  H         2.13026         -1.18077        -0.20229
  H         0.10467         -2.27750         1.07935
  H        -1.97214         -2.07629         0.29731
  H        -1.39907         -0.91283        -1.03273
  H        -1.97154          2.07666         0.29195
  H        -1.53129          0.93610        -1.05339
14
 step=         263     theta[rad]=           2.7541
  C        -1.17798          1.50814        -0.16350
  C         0.06073          1.51707         0.28121
  C         1.18015          0.66876        -0.09205
  C         1.18435         -0.67408        -0.08873
  C         0.05382         -1.53356         0.29892
  C        -1.19208         -1.49327        -0.18507
  H         0.14312          2.26696         1.08132
  H         2.13342          1.17715        -0.20080
  H         2.15399         -1.15328        -0.19707
  H         0.41603         -2.18902         1.09827
  H        -1.97192         -2.07662         0.29227
  H        -1.50770         -0.93222        -1.04984
  H        -1.97236          2.07634         0.29614
  H        -1.41206          0.91539        -1.03491
14
 step=         264     theta[rad]=           2.7646
  C        -1.18898          1.49659        -0.18028
  C         0.05534          1.52980         0.29498
  C         1.18352          0.67254        -0.08942
  C         1.18148         -0.66996        -0.09103
  C         0.05869         -1.52180         0.28640
  C        -1.18214         -1.50380        -0.16982
  H         0.35430          2.20637         1.09471
  H         2.14917          1.15883        -0.19851
  H         2.13920         -1.17041        -0.20032
  H         0.22200         -2.24416         1.08648
  H        -1.97206         -2.07641         0.29541
  H        -1.44001         -0.92014        -1.03918
  H        -1.97185          2.07654         0.29353
  H        -1.48636          0.92830        -1.04642
14
 step=         265     theta[rad]=           2.7751
  C        -1.18599          1.49973        -0.17573
  C         0.05680          1.52634         0.29125
  C         1.18261          0.67152        -0.09014
  C         1.18226         -0.67108        -0.09041
  C         0.05737         -1.52499         0.28979
  C        -1.18484         -1.50095        -0.17395
  H         0.29702          2.22280         1.09108
  H         2.14490          1.16380        -0.19913
  H         2.14321         -1.16576        -0.19944
  H         0.27462         -2.22920         1.08968
  H        -1.97202         -2.07647         0.29456
  H        -1.45837         -0.92341        -1.04207
  H        -1.97199          2.07649         0.29424
  H        -1.46621          0.92480        -1.04330
14
 step=         266     theta[rad]=           2.7855
  C        -1.18077          1.50521        -0.16776
  C         0.05936          1.52030         0.28471
  C         1.18101          0.66972        -0.09138
  C         1.18362         -0.67303        -0.08932
  C         0.05505         -1.53057         0.29574
  C        -1.18956         -1.49594        -0.18119
  H         0.19673          2.25158         1.08472
  H         2.13742          1.17250        -0.20022
  H         2.15024         -1.15763        -0.19789
  H         0.36677         -2.20302         1.09528
  H        -1.97196         -2.07656         0.29307
  H        -1.49051         -0.92915        -1.04713
  H        -1.97223          2.07639         0.29548
  H        -1.43092          0.91867        -1.03783
14
 step=         267     theta[rad]=           2.7960
  C        -1.19334          1.49201        -0.18694
  C         0.05320          1.53485         0.30044
  C         1.18486          0.67404        -0.08838
  C         1.18035         -0.66833        -0.09195
  C         0.06063         -1.51714         0.28143
  C        -1.17820         -1.50798        -0.16377
  H         0.43808          2.18233         1.10002
  H         2.15543          1.15157        -0.19760
  H         2.13333         -1.17721        -0.20162
  H         0.14501         -2.26604         1.08180
  H        -1.97212         -2.07633         0.29666
  H        -1.41315         -0.91535        -1.03495
  H        -1.97165          2.07662         0.29249
  H        -1.51584          0.93342        -1.05099
14
 step=         268     theta[rad]=           2.8065
  C        -1.17509          1.51118        -0.15908
  C         0.06215          1.51372         0.27760
  C         1.17927          0.66777        -0.09274
  C         1.18511         -0.67516        -0.08812
  C         0.05254         -1.53665         0.30221
  C        -1.19470         -1.49050        -0.18907
  H         0.08762          2.28288         1.07779
  H         2.12928          1.18197        -0.20141
  H         2.15788         -1.14877        -0.19621
  H         0.46704         -2.17452         1.10137
  H        -1.97189         -2.07667         0.29145
  H        -1.52549         -0.93539        -1.05264
  H        -1.97249          2.07629         0.29683
  H        -1.39253          0.91200        -1.03188
14
 step=         269     theta[rad]=           2.8170
  C        -1.19686          1.48831        -0.19231
  C         0.05147          1.53893         0.30485
  C         1.18594          0.67525        -0.08754
  C         1.17943         -0.66701        -0.09269
  C         0.06219         -1.51337         0.27741
  C        -1.17501         -1.51136        -0.15888
  H         0.50572          2.16293         1.10431
  H         2.16047          1.14570        -0.19686
  H         2.12859         -1.18269        -0.20266
  H         0.08286         -2.28370         1.07803
  H        -1.97216         -2.07626         0.29767
  H        -1.39147         -0.91148        -1.03153
  H        -1.97148          2.07668         0.29165
  H        -1.53964          0.93755        -1.05468
14
 step=         270     theta[rad]=           2.8274
  C        -1.17391          1.51241        -0.15728
  C         0.06273          1.51236         0.27612
  C         1.17891          0.66736        -0.09302
  C         1.18541         -0.67560        -0.08788
  C         0.05201         -1.53791         0.30356
  C        -1.19576         -1.48937        -0.19071
  H         0.06497          2.28938         1.07636
  H         2.12759          1.18393        -0.20165
  H         2.15947         -1.14694        -0.19586
  H         0.48784         -2.16861         1.10264
  H        -1.97187         -2.07669         0.29111
  H        -1.53275         -0.93669        -1.05378
  H        -1.97255          2.07627         0.29711
  H        -1.38456          0.91061        -1.03065
14
 step=         271     theta[rad]=           2.8379
  C        -1.19579          1.48944        -0.19068
  C         0.05199          1.53769         0.30351
  C         1.18561          0.67488        -0.08779
  C         1.17971         -0.66741        -0.09246
  C         0.06171         -1.51452         0.27863
  C        -1.17598         -1.51033        -0.16037
  H         0.48520          2.16881         1.10301
  H         2.15894          1.14748        -0.19708
  H         2.13003         -1.18103        -0.20234
  H         0.10172         -2.27834         1.07917
  H        -1.97215         -2.07628         0.29736
  H        -1.39804         -0.91265        -1.03257
  H        -1.97153          2.07666         0.29191
  H        -1.53242          0.93630        -1.05356
14
 step=         272     theta[rad]=           2.8484
  C        -1.17692          1.50926        -0.16187
  C         0.06126          1.51584         0.27988
  C         1.17983          0.66840        -0.09231
  C         1.18463         -0.67448        -0.08851
  C         0.05335         -1.53469         0.30013
  C        -1.19304         -1.49225        -0.18654
  H         0.12270          2.27282         1.08002
  H         2.13189          1.17892        -0.20103
  H         2.15542         -1.15162        -0.19675
  H         0.43480         -2.18368         1.09941
  H        -1.97191         -2.07664         0.29197
  H        -1.51425         -0.93339        -1.05087
  H        -1.97241          2.07633         0.29640
  H        -1.40487          0.91414        -1.03380
14
 step=         273     theta[rad]=           2.8588
  C        -1.19130          1.49415        -0.18383
  C         0.05420          1.53249         0.29789
  C         1.18423          0.67334        -0.08887
  C         1.18088         -0.66909        -0.09152
  C         0.05972         -1.51932         0.28375
  C        -1.18004         -1.50603        -0.16660
  H         0.39893          2.19357         1.09754
  H         2.15251          1.15496        -0.19802
  H         2.13607         -1.17403        -0.20101
  H         0.18099         -2.25581         1.08399
  H        -1.97209         -2.07637         0.29608
  H        -1.42570         -0.91759        -1.03692
  H        -1.97174          2.07658         0.29297
  H        -1.50207          0.93103        -1.04886
14
 step=         274     theta[rad]=           2.8693
  C        -1.18238          1.50352        -0.17021
  C         0.05858          1.52216         0.28672
  C         1.18150          0.67027        -0.09100
  C         1.18320         -0.67243        -0.08965
  C         0.05577         -1.52885         0.29391
  C        -1.18811         -1.49748        -0.17897
  H         0.22760          2.24272         1.08667
  H         2.13972          1.16982        -0.19989
  H         2.14807         -1.16013        -0.19837
  H         0.33841         -2.21108         1.09356
  H        -1.97198         -2.07653         0.29353
  H        -1.48062         -0.92739        -1.04557
  H        -1.97216          2.07642         0.29510
  H        -1.44178          0.92055        -1.03952
14
 step=         275     theta[rad]=           2.8798
  C        -1.18538          1.50036        -0.17480
  C         0.05710          1.52564         0.29049
  C         1.18242          0.67131        -0.09028
  C         1.18242         -0.67131        -0.09028
  C         0.05710         -1.52564         0.29048
  C        -1.18539         -1.50036        -0.17480
  H         0.28535          2.22615         1.09034
  H         2.14403          1.16481        -0.19926
  H         2.14403         -1.16481        -0.19926
  H         0.28535         -2.22615         1.09033
  H        -1.97202         -2.07648         0.29439
  H        -1.46211         -0.92408        -1.04266
  H        -1.97202          2.07648         0.29438
  H        -1.46210          0.92408        -1.04266
14
 step=         276     theta[rad]=           2.8903
  C        -1.18827          1.49733        -0.17921
  C         0.05568          1.52899         0.29410
  C         1.18331          0.67230        -0.08959
  C         1.18167         -0.67022        -0.09089
  C         0.05838         -1.52255         0.28719
  C        -1.18278         -1.50313        -0.17079
  H         0.34084          2.21023         1.09386
  H         2.14817          1.16000        -0.19865
  H         2.14014         -1.16932        -0.20012
  H         0.23436         -2.24064         1.08723
  H        -1.97205         -2.07642         0.29521
  H        -1.44432         -0.92091        -1.03986
  H        -1.97188          2.07653         0.29369
  H        -1.48163          0.92748        -1.04569
14
 step=         277     theta[rad]=           2.9007
  C        -1.17989          1.50613        -0.16642
  C         0.05979          1.51929         0.28361
  C         1.18074          0.66942        -0.09159
  C         1.18385         -0.67336        -0.08913
  C         0.05467         -1.53151         0.29674
  C        -1.19035         -1.49510        -0.18241
  H         0.17991          2.25640         1.08365
  H         2.13616          1.17396        -0.20040
  H         2.15141         -1.15626        -0.19764
  H         0.38223         -2.19862         1.09622
  H        -1.97195         -2.07658         0.29282
  H        -1.49591         -0.93011        -1.04798
  H        -1.97227          2.07638         0.29569
  H        -1.42500          0.91764        -1.03692
14
 step=         278     theta[rad]=           2.9112
  C        -1.19307          1.49230        -0.18653
  C         0.05333          1.53454         0.30011
  C         1.18478          0.67395        -0.08844
  C         1.18042         -0.66843        -0.09189
  C         0.06051         -1.51743         0.28173
  C        -1.17844         -1.50772        -0.16414
  H         0.43290          2.18382         1.09969
  H         2.15504          1.15202        -0.19765
  H         2.13369         -1.17678        -0.20154
  H         0.14977         -2.26468         1.08209
  H        -1.97211         -2.07633         0.29658
  H        -1.41481         -0.91564        -1.03521
  H        -1.97166          2.07661         0.29255
  H        -1.51402          0.93310        -1.05071
14
 step=         279     theta[rad]=           2.9217
  C        -1.17599          1.51023        -0.16045
  C         0.06171          1.51476         0.27872
  C         1.17954          0.66808        -0.09253
  C         1.18487         -0.67482        -0.08831
  C         0.05293         -1.53569         0.30119
  C        -1.19389         -1.49136        -0.18783
  H         0.10484          2.27794         1.07889
  H         2.13056          1.18047        -0.20122
  H         2.15667         -1.15017        -0.19648
  H         0.45121         -2.17902         1.10041
  H        -1.97190         -2.07666         0.29170
  H        -1.51997         -0.93441        -1.05177
  H        -1.97245          2.07631         0.29662
  H        -1.39859          0.91305        -1.03282
14
 step=         280     theta[rad]=           2.9322
  C        -1.19600          1.48922        -0.19100
  C         0.05189          1.53793         0.30377
  C         1.18567          0.67496        -0.08774
  C         1.17965         -0.66733        -0.09251
  C         0.06180         -1.51430         0.27840
  C        -1.17579         -1.51053        -0.16008
  H         0.48918          2.16767         1.10326
  H         2.15924          1.14713        -0.19704
  H         2.12975         -1.18135        -0.20240
  H         0.09806         -2.27938         1.07895
  H        -1.97215         -2.07628         0.29742
  H        -1.39677         -0.91242        -1.03237
  H        -1.97152          2.07666         0.29186
  H        -1.53382          0.93654        -1.05378
14
 step=         281     theta[rad]=           2.9426
  C        -1.17405          1.51227        -0.15749
  C         0.06266          1.51252         0.27629
  C         1.17895          0.66741        -0.09299
  C         1.18538         -0.67555        -0.08791
  C         0.05207         -1.53776         0.30340
  C        -1.19564         -1.48950        -0.19052
  H         0.06760          2.28863         1.07652
  H         2.12778          1.18370        -0.20163
  H         2.15928         -1.14715        -0.19590
  H         0.48543         -2.16930         1.10249
  H        -1.97187         -2.07669         0.29115
  H        -1.53191         -0.93654        -1.05365
  H        -1.97254          2.07628         0.29708
  H        -1.38548          0.91077        -1.03079
14
 step=         282     theta[rad]=           2.9531
  C        -1.19700          1.48817        -0.19252
  C         0.05140          1.53908         0.30502
  C         1.18598          0.67530        -0.08750
  C         1.17939         -0.66696        -0.09272
  C         0.06225         -1.51323         0.27726
  C        -1.17489         -1.51149        -0.15869
  H         0.50836          2.16217         1.10448
  H         2.16067          1.14547        -0.19683
  H         2.12841         -1.18291        -0.20270
  H         0.08044         -2.28438         1.07788
  H        -1.97216         -2.07626         0.29771
  H        -1.39062         -0.91133        -1.03140
  H        -1.97148          2.07668         0.29162
  H        -1.54057          0.93772        -1.05483
14
 step=         283     theta[rad]=           2.9636
  C        -1.17389          1.51243        -0.15726
  C         0.06274          1.51234         0.27610
  C         1.17890          0.66736        -0.09303
  C         1.18542         -0.67561        -0.08787
  C         0.05201         -1.53792         0.30358
  C        -1.19578         -1.48935        -0.19073
  H         0.06462          2.28948         1.07634
  H         2.12756          1.18396        -0.20166
  H         2.15949         -1.14691        -0.19586
  H         0.48817         -2.16852         1.10265
  H        -1.97187         -2.07669         0.29111
  H        -1.53287         -0.93671        -1.05380
  H        -1.97255          2.07627         0.29712
  H        -1.38443          0.91059        -1.03063
14
 step=         284     theta[rad]=           2.9740
  C        -1.19644          1.48876        -0.19166
  C         0.05168          1.53843         0.30432
  C         1.18581          0.67510        -0.08764
  C         1.17954         -0.66717        -0.09260
  C         0.06200         -1.51383         0.27790
  C        -1.17540         -1.51095        -0.15947
  H         0.49755          2.16527         1.10380
  H         2.15986          1.14641        -0.19695
  H         2.12917         -1.18203        -0.20253
  H         0.09037         -2.28156         1.07849
  H        -1.97215         -2.07627         0.29754
  H        -1.39409         -0.91194        -1.03195
  H        -1.97150          2.07667         0.29175
  H        -1.53677          0.93706        -1.05424
14
 step=         285     theta[rad]=           2.9845
  C        -1.17503          1.51124        -0.15900
  C         0.06218          1.51366         0.27753
  C         1.17925          0.66775        -0.09276
  C         1.18512         -0.67518        -0.08811
  C         0.05251         -1.53670         0.30228
  C        -1.19475         -1.49045        -0.18915
  H         0.08654          2.28319         1.07773
  H         2.12920          1.18206        -0.20142
  H         2.15795         -1.14869        -0.19620
  H         0.46802         -2.17424         1.10143
  H        -1.97189         -2.07667         0.29143
  H        -1.52584         -0.93545        -1.05269
  H        -1.97250          2.07629         0.29685
  H        -1.39215          0.91193        -1.03182
14
 step=         286     theta[rad]=           2.9950
  C        -1.19486          1.49042        -0.18925
  C         0.05245          1.53660         0.30234
  C         1.18532          0.67456        -0.08802
  C         1.17995         -0.66776        -0.09227
  C         0.06130         -1.51552         0.27970
  C        -1.17683         -1.50944        -0.16166
  H         0.46722          2.17397         1.10187
  H         2.15760          1.14904        -0.19728
  H         2.13129         -1.17957        -0.20207
  H         0.11824         -2.27364         1.08018
  H        -1.97213         -2.07630         0.29709
  H        -1.40381         -0.91368        -1.03348
  H        -1.97158          2.07664         0.29213
  H        -1.52610          0.93520        -1.05258
14
 step=         287     theta[rad]=           3.0055
  C        -1.17692          1.50926        -0.16187
  C         0.06126          1.51584         0.27988
  C         1.17983          0.66840        -0.09231
  C         1.18463         -0.67448        -0.08851
  C         0.05335         -1.53469         0.30013
  C        -1.19304         -1.49225        -0.18654
  H         0.12270          2.27282         1.08002
  H         2.13189          1.17892        -0.20103
  H         2.15542         -1.15162        -0.19675
  H         0.43480         -2.18368         1.09941
  H        -1.97191         -2.07664         0.29197
  H        -1.51425         -0.93339        -1.05087
  H        -1.97241          2.07633         0.29640
  H        -1.40487          0.91414        -1.03380
14
 step=         288     theta[rad]=           3.0159
  C        -1.19279          1.49259        -0.18610
  C         0.05347          1.53421         0.29976
  C         1.18469          0.67385        -0.08851
  C         1.18049         -0.66853        -0.09183
  C         0.06038         -1.51772         0.28205
  C        -1.17869         -1.50746        -0.16453
  H         0.42757          2.18535         1.09936
  H         2.15464          1.15248        -0.19771
  H         2.13407         -1.17635        -0.20145
  H         0.15467         -2.26329         1.08239
  H        -1.97211         -2.07634         0.29650
  H        -1.41652         -0.91595        -1.03548
  H        -1.97167          2.07661         0.29262
  H        -1.51214          0.93278        -1.05042
14
 step=         289     theta[rad]=           3.0264
  C        -1.17906          1.50701        -0.16514
  C         0.06021          1.51832         0.28256
  C         1.18048          0.66913        -0.09179
  C         1.18407         -0.67367        -0.08896
  C         0.05430         -1.53240         0.29769
  C        -1.19111         -1.49430        -0.18357
  H         0.16383          2.26102         1.08263
  H         2.13496          1.17536        -0.20058
  H         2.15254         -1.15496        -0.19739
  H         0.39701         -2.19442         1.09712
  H        -1.97194         -2.07660         0.29258
  H        -1.50106         -0.93103        -1.04879
  H        -1.97231          2.07636         0.29589
  H        -1.41934          0.91665        -1.03604
14
 step=         290     theta[rad]=           3.0369
  C        -1.19066          1.49482        -0.18285
  C         0.05451          1.53175         0.29709
  C         1.18404          0.67312        -0.08902
  C         1.18104         -0.66933        -0.09139
  C         0.05944         -1.52000         0.28448
  C        -1.18062         -1.50542        -0.16748
  H         0.38664          2.19709         1.09676
  H         2.15159          1.15603        -0.19816
  H         2.13693         -1.17303        -0.20082
  H         0.19228         -2.25260         1.08468
  H        -1.97208         -2.07638         0.29590
  H        -1.42964         -0.91829        -1.03754
  H        -1.97177          2.07657         0.29313
  H        -1.49774          0.93028        -1.04819
14
 step=         291     theta[rad]=           3.0473
  C        -1.18111          1.50486        -0.16827
  C         0.05920          1.52069         0.28513
  C         1.18111          0.66984        -0.09130
  C         1.18354         -0.67291        -0.08939
  C         0.05520         -1.53021         0.29536
  C        -1.18925         -1.49627        -0.18073
  H         0.20321          2.24972         1.08513
  H         2.13790          1.17194        -0.20015
  H         2.14978         -1.15815        -0.19799
  H         0.36082         -2.20471         1.09492
  H        -1.97196         -2.07656         0.29317
  H        -1.48844         -0.92878        -1.04680
  H        -1.97222          2.07640         0.29540
  H        -1.43320          0.91906        -1.03819
14
 step=         292     theta[rad]=           3.0578
  C        -1.18874          1.49684        -0.17992
  C         0.05545          1.52953         0.29469
  C         1.18345          0.67246        -0.08948
  C         1.18154         -0.67005        -0.09099
  C         0.05859         -1.52205         0.28666
  C        -1.18235         -1.50358        -0.17014
  H         0.34984          2.20765         1.09443
  H         2.14884          1.15922        -0.19856
  H         2.13951         -1.17005        -0.20026
  H         0.22609         -2.24299         1.08673
  H        -1.97206         -2.07641         0.29535
  H        -1.44144         -0.92039        -1.03940
  H        -1.97186          2.07654         0.29358
  H        -1.48479          0.92803        -1.04618
14
 step=         293     theta[rad]=           3.0683
  C        -1.18285          1.50303        -0.17093
  C         0.05834          1.52271         0.28731
  C         1.18164          0.67044        -0.09089
  C         1.18308         -0.67225        -0.08975
  C         0.05598         -1.52835         0.29337
  C        -1.18768         -1.49794        -0.17831
  H         0.23667          2.24012         1.08725
  H         2.14040          1.16904        -0.19979
  H         2.14744         -1.16087        -0.19851
  H         0.33007         -2.21345         1.09305
  H        -1.97198         -2.07653         0.29367
  H        -1.47771         -0.92687        -1.04511
  H        -1.97213          2.07643         0.29499
  H        -1.44497          0.92111        -1.04001
14
 step=         294     theta[rad]=           3.0788
  C        -1.18720          1.49846        -0.17757
  C         0.05621          1.52774         0.29276
  C         1.18298          0.67193        -0.08985
  C         1.18195         -0.67063        -0.09066
  C         0.05791         -1.52370         0.28841
  C        -1.18374         -1.50211        -0.17228
  H         0.32025          2.21614         1.09255
  H         2.14663          1.16179        -0.19888
  H         2.14158         -1.16765        -0.19980
  H         0.25328         -2.23527         1.08838
  H        -1.97204         -2.07644         0.29491
  H        -1.45092         -0.92209        -1.04090
  H        -1.97193          2.07651         0.29395
  H        -1.47438          0.92622        -1.04457
14
 step=         295     theta[rad]=           3.0892
  C        -1.18417          1.50164        -0.17295
  C         0.05770          1.52424         0.28897
  C         1.18205          0.67089        -0.09057
  C         1.18274         -0.67176        -0.09003
  C         0.05656         -1.52694         0.29187
  C        -1.18649         -1.49920        -0.17648
  H         0.26202          2.23284         1.08886
  H         2.14229          1.16684        -0.19951
  H         2.14566         -1.16292        -0.19890
  H         0.30678         -2.22006         1.09163
  H        -1.97200         -2.07650         0.29404
  H        -1.46959         -0.92542        -1.04384
  H        -1.97207          2.07645         0.29467
  H        -1.45389          0.92266        -1.04139
14
 step=         296     theta[rad]=           3.0997
  C        -1.18611          1.49960        -0.17591
  C         0.05674          1.52649         0.29140
  C         1.18264          0.67156        -0.09011
  C         1.18223         -0.67103        -0.09043
  C         0.05742         -1.52486         0.28965
  C        -1.18473         -1.50106        -0.17378
  H         0.29936          2.22213         1.09122
  H         2.14508          1.16360        -0.19911
  H         2.14305         -1.16595        -0.19948
  H         0.27248         -2.22981         1.08955
  H        -1.97203         -2.07646         0.29460
  H        -1.45762         -0.92328        -1.04195
  H        -1.97198          2.07649         0.29421
  H        -1.46703          0.92494        -1.04343
14
 step=         297     theta[rad]=           3.1102
  C        -1.18502          1.50075        -0.17424
  C         0.05728          1.52522         0.29003
  C         1.18231          0.67118        -0.09037
  C         1.18252         -0.67144        -0.09021
  C         0.05694         -1.52603         0.29090
  C        -1.18572         -1.50001        -0.17530
  H         0.27834          2.22816         1.08989
  H         2.14351          1.16542        -0.19933
  H         2.14452         -1.16425        -0.19915
  H         0.29179         -2.22432         1.09072
  H        -1.97201         -2.07648         0.29428
  H        -1.46436         -0.92448        -1.04301
  H        -1.97203          2.07647         0.29447
  H        -1.45963          0.92365        -1.04228
14
 step=         298     theta[rad]=           3.1206
  C        -1.18551          1.50024        -0.17498
  C         0.05704          1.52578         0.29064
  C         1.18246          0.67135        -0.09025
  C         1.18239         -0.67126        -0.09031
  C         0.05715         -1.52551         0.29035
  C        -1.18528         -1.50048        -0.17463
  H         0.28768          2.22548         1.09048
  H         2.14420          1.16461        -0.19923
  H         2.14387         -1.16500        -0.19930
  H         0.28320         -2.22676         1.09020
  H        -1.97202         -2.07648         0.29442
  H        -1.46136         -0.92395        -1.04254
  H        -1.97201          2.07648         0.29435
  H        -1.46292          0.92423        -1.04279
14
 step=         299     theta[rad]=           3.1311
  C        -1.18538          1.50036        -0.17480
  C         0.05710          1.52564         0.29049
  C         1.18242          0.67131        -0.09028
  C         1.18242         -0.67131        -0.09028
  C         0.05710         -1.52564         0.29049
  C        -1.18539         -1.50036        -0.17480
  H         0.28535          2.22615         1.09034
  H         2.14403          1.16482        -0.19926
  H         2.14403         -1.16481        -0.19926
  H         0.28535         -2.22615         1.09033
  H        -1.97202         -2.07648         0.29439
  H        -1.46211         -0.92408        -1.04266
  H        -1.97202          2.07648         0.29438
  H        -1.46210          0.92408        -1.04266
14
 step=         300     theta[rad]=           3.1416
  C        -1.18539          1.50036        -0.17480
  C         0.05710          1.52564         0.29049
  C         1.18242          0.67131        -0.09028
  C         1.18242         -0.67131        -0.09028
  C         0.05710         -1.52564         0.29048
  C        -1.18539         -1.50036        -0.17480
  H         0.28535          2.22615         1.09034
  H         2.14403          1.16481        -0.19926
  H         2.14403         -1.16482        -0.19926
  H         0.28535         -2.22615         1.09033
  H        -1.97202         -2.07648         0.29439
  H        -1.46211         -0.92408        -1.04266
  H        -1.97202          2.07648         0.29438
  H        -1.46210          0.92408        -1.04267
14
 step=         301     theta[rad]=           3.1521
  C        -1.18526          1.50049        -0.17461
  C         0.05716          1.52550         0.29033
  C         1.18238          0.67127        -0.09031
  C         1.18245         -0.67135        -0.09026
  C         0.05705         -1.52577         0.29062
  C        -1.18550         -1.50025        -0.17496
  H         0.28301          2.22682         1.09019
  H         2.14386          1.16502        -0.19928
  H         2.14419         -1.16463        -0.19922
  H         0.28750         -2.22554         1.09046
  H        -1.97201         -2.07648         0.29435
  H        -1.46286         -0.92422        -1.04278
  H        -1.97202          2.07647         0.29441
  H        -1.46128          0.92394        -1.04254
14
 step=         302     theta[rad]=           3.1625
  C        -1.18575          1.49998        -0.17536
  C         0.05692          1.52606         0.29094
  C         1.18253          0.67143        -0.09019
  C         1.18232         -0.67117        -0.09036
  C         0.05726         -1.52525         0.29007
  C        -1.18506         -1.50071        -0.17429
  H         0.29236          2.22414         1.09078
  H         2.14455          1.16421        -0.19918
  H         2.14354         -1.16538        -0.19937
  H         0.27891         -2.22798         1.08994
  H        -1.97202         -2.07647         0.29449
  H        -1.45986         -0.92368        -1.04230
  H        -1.97200          2.07648         0.29430
  H        -1.46457          0.92451        -1.04305
14
 step=         303     theta[rad]=           3.1730
  C        -1.18466          1.50113        -0.17369
  C         0.05746          1.52480         0.28957
  C         1.18220          0.67106        -0.09046
  C         1.18261         -0.67158        -0.09013
  C         0.05678         -1.52642         0.29132
  C        -1.18605         -1.49967        -0.17581
  H         0.27134          2.23017         1.08945
  H         2.14298          1.16603        -0.19941
  H         2.14501         -1.16368        -0.19904
  H         0.29822         -2.22250         1.09111
  H        -1.97201         -2.07649         0.29418
  H        -1.46660         -0.92488        -1.04337
  H        -1.97205          2.07646         0.29456
  H        -1.45717          0.92323        -1.04190
14
 step=         304     theta[rad]=           3.1835
  C        -1.18660          1.49909        -0.17665
  C         0.05650          1.52705         0.29201
  C         1.18279          0.67172        -0.08999
  C         1.18210         -0.67085        -0.09054
  C         0.05764         -1.52434         0.28910
  C        -1.18429         -1.50153        -0.17311
  H         0.30867          2.21946         1.09182
  H         2.14577          1.16279        -0.19900
  H         2.14240         -1.16671        -0.19962
  H         0.26392         -2.23224         1.08903
  H        -1.97203         -2.07646         0.29474
  H        -1.45463         -0.92275        -1.04148
  H        -1.97196          2.07650         0.29409
  H        -1.47031          0.92551        -1.04394
14
 step=         305     theta[rad]=           3.1940
  C        -1.18357          1.50227        -0.17202
  C         0.05799          1.52354         0.28821
  C         1.18186          0.67068        -0.09072
  C         1.18289         -0.67199        -0.08990
  C         0.05629         -1.52758         0.29256
  C        -1.18703         -1.49862        -0.17732
  H         0.25044          2.23617         1.08812
  H         2.14143          1.16784        -0.19964
  H         2.14647         -1.16198        -0.19872
  H         0.31742         -2.21704         1.09228
  H        -1.97199         -2.07651         0.29387
  H        -1.47330         -0.92608        -1.04442
  H        -1.97210          2.07644         0.29481
  H        -1.44982          0.92195        -1.04076
14
 step=         306     theta[rad]=           3.2044
  C        -1.18792          1.49770        -0.17867
  C         0.05586          1.52857         0.29366
  C         1.18320          0.67218        -0.08967
  C         1.18176         -0.67036        -0.09081
  C         0.05822         -1.52293         0.28760
  C        -1.18310         -1.50279        -0.17128
  H         0.33402          2.21219         1.09342
  H         2.14766          1.16059        -0.19873
  H         2.14062         -1.16876        -0.20001
  H         0.24063         -2.23886         1.08761
  H        -1.97205         -2.07643         0.29511
  H        -1.44651         -0.92130        -1.04020
  H        -1.97190          2.07652         0.29378
  H        -1.47923          0.92706        -1.04532
14
 step=         307     theta[rad]=           3.2149
  C        -1.18203          1.50389        -0.16967
  C         0.05875          1.52175         0.28628
  C         1.18139          0.67015        -0.09108
  C         1.18330         -0.67256        -0.08958
  C         0.05561         -1.52923         0.29431
  C        -1.18842         -1.49715        -0.17945
  H         0.22086          2.24466         1.08625
  H         2.13922          1.17041        -0.19996
  H         2.14855         -1.15958        -0.19827
  H         0.34461         -2.20932         1.09393
  H        -1.97197         -2.07654         0.29343
  H        -1.48278         -0.92777        -1.04591
  H        -1.97217          2.07642         0.29518
  H        -1.43941          0.92014        -1.03915
14
 step=         308     theta[rad]=           3.2254
  C        -1.18966          1.49587        -0.18133
  C         0.05500          1.53059         0.29584
  C         1.18373          0.67278        -0.08926
  C         1.18130         -0.66970        -0.09118
  C         0.05900         -1.52107         0.28561
  C        -1.18152         -1.50446        -0.16887
  H         0.36748          2.20259         1.09555
  H         2.15016          1.15769        -0.19836
  H         2.13828         -1.17148        -0.20053
  H         0.20988         -2.24760         1.08575
  H        -1.97207         -2.07640         0.29561
  H        -1.43578         -0.91938        -1.03851
  H        -1.97182          2.07655         0.29336
  H        -1.49100          0.92910        -1.04714
14
 step=         309     theta[rad]=           3.2358
  C        -1.18011          1.50590        -0.16675
  C         0.05969          1.51953         0.28388
  C         1.18080          0.66949        -0.09154
  C         1.18380         -0.67328        -0.08918
  C         0.05476         -1.53128         0.29649
  C        -1.19016         -1.49531        -0.18211
  H         0.18405          2.25522         1.08391
  H         2.13647          1.17360        -0.20036
  H         2.15112         -1.15660        -0.19770
  H         0.37842         -2.19970         1.09599
  H        -1.97195         -2.07658         0.29288
  H        -1.49458         -0.92988        -1.04777
  H        -1.97226          2.07638         0.29564
  H        -1.42646          0.91789        -1.03714
14
 step=         310     theta[rad]=           3.2463
  C        -1.19171          1.49372        -0.18446
  C         0.05399          1.53297         0.29841
  C         1.18436          0.67348        -0.08877
  C         1.18077         -0.66894        -0.09161
  C         0.05990         -1.51888         0.28328
  C        -1.17967         -1.50643        -0.16602
  H         0.40687          2.19129         1.09804
  H         2.15310          1.15427        -0.19794
  H         2.13552         -1.17467        -0.20113
  H         0.17369         -2.25788         1.08355
  H        -1.97210         -2.07636         0.29620
  H        -1.42315         -0.91713        -1.03652
  H        -1.97172          2.07659         0.29288
  H        -1.50486          0.93151        -1.04929
14
 step=         311     theta[rad]=           3.2568
  C        -1.17798          1.50814        -0.16350
  C         0.06073          1.51707         0.28121
  C         1.18015          0.66876        -0.09205
  C         1.18435         -0.67408        -0.08873
  C         0.05382         -1.53356         0.29892
  C        -1.19208         -1.49327        -0.18507
  H         0.14312          2.26696         1.08132
  H         2.13342          1.17715        -0.20080
  H         2.15399         -1.15328        -0.19707
  H         0.41603         -2.18902         1.09827
  H        -1.97192         -2.07662         0.29227
  H        -1.50770         -0.93222        -1.04984
  H        -1.97236          2.07634         0.29614
  H        -1.41206          0.91539        -1.03491
14
 step=         312     theta[rad]=           3.2673
  C        -1.19385          1.49147        -0.18773
  C         0.05294          1.53545         0.30109
  C         1.18502          0.67422        -0.08826
  C         1.18021         -0.66814        -0.09206
  C         0.06085         -1.51659         0.28084
  C        -1.17773         -1.50848        -0.16305
  H         0.44800          2.17949         1.10065
  H         2.15617          1.15071        -0.19749
  H         2.13264         -1.17801        -0.20177
  H         0.13590         -2.26862         1.08125
  H        -1.97212         -2.07632         0.29681
  H        -1.40997         -0.91478        -1.03445
  H        -1.97162          2.07663         0.29237
  H        -1.51933          0.93403        -1.05153
14
 step=         313     theta[rad]=           3.2777
  C        -1.17591          1.51031        -0.16034
  C         0.06175          1.51468         0.27863
  C         1.17952          0.66805        -0.09255
  C         1.18489         -0.67485        -0.08830
  C         0.05290         -1.53576         0.30127
  C        -1.19395         -1.49129        -0.18793
  H         0.10347          2.27833         1.07880
  H         2.13046          1.18059        -0.20124
  H         2.15677         -1.15006        -0.19646
  H         0.45246         -2.17867         1.10049
  H        -1.97190         -2.07666         0.29168
  H        -1.52041         -0.93448        -1.05184
  H        -1.97246          2.07631         0.29664
  H        -1.39811          0.91296        -1.03275
14
 step=         314     theta[rad]=           3.2882
  C        -1.19574          1.48949        -0.19060
  C         0.05202          1.53762         0.30345
  C         1.18559          0.67487        -0.08781
  C         1.17972         -0.66743        -0.09245
  C         0.06169         -1.51458         0.27869
  C        -1.17603         -1.51028        -0.16044
  H         0.48415          2.16912         1.10295
  H         2.15886          1.14757        -0.19710
  H         2.13010         -1.18094        -0.20233
  H         0.10268         -2.27806         1.07923
  H        -1.97215         -2.07628         0.29735
  H        -1.39838         -0.91271        -1.03262
  H        -1.97154          2.07666         0.29192
  H        -1.53205          0.93624        -1.05351
14
 step=         315     theta[rad]=           3.2987
  C        -1.17433          1.51197        -0.15793
  C         0.06252          1.51285         0.27665
  C         1.17904          0.66751        -0.09292
  C         1.18530         -0.67544        -0.08797
  C         0.05220         -1.53745         0.30307
  C        -1.19538         -1.48978        -0.19012
  H         0.07315          2.28704         1.07688
  H         2.12820          1.18322        -0.20157
  H         2.15889         -1.14760        -0.19599
  H         0.48033         -2.17075         1.10218
  H        -1.97188         -2.07669         0.29123
  H        -1.53013         -0.93622        -1.05337
  H        -1.97253          2.07628         0.29701
  H        -1.38743          0.91111        -1.03109
14
 step=         316     theta[rad]=           3.3091
  C        -1.19688          1.48829        -0.19234
  C         0.05146          1.53895         0.30488
  C         1.18594          0.67526        -0.08753
  C         1.17942         -0.66700        -0.09269
  C         0.06219         -1.51336         0.27739
  C        -1.17500         -1.51137        -0.15886
  H         0.50608          2.16282         1.10434
  H         2.16050          1.14567        -0.19686
  H         2.12857         -1.18272        -0.20266
  H         0.08253         -2.28379         1.07801
  H        -1.97216         -2.07626         0.29767
  H        -1.39135         -0.91146        -1.03152
  H        -1.97148          2.07668         0.29165
  H        -1.53977          0.93758        -1.05470
14
 step=         317     theta[rad]=           3.3196
  C        -1.17377          1.51256        -0.15707
  C         0.06280          1.51220         0.27595
  C         1.17886          0.66732        -0.09306
  C         1.18545         -0.67565        -0.08785
  C         0.05195         -1.53805         0.30371
  C        -1.19589         -1.48924        -0.19090
  H         0.06234          2.29014         1.07619
  H         2.12739          1.18416        -0.20168
  H         2.15965         -1.14672        -0.19582
  H         0.49026         -2.16792         1.10278
  H        -1.97187         -2.07670         0.29107
  H        -1.53360         -0.93684        -1.05391
  H        -1.97256          2.07627         0.29714
  H        -1.38363          0.91045        -1.03050
14
 step=         318     theta[rad]=           3.3301
  C        -1.19672          1.48846        -0.19210
  C         0.05154          1.53877         0.30468
  C         1.18589          0.67520        -0.08757
  C         1.17946         -0.66706        -0.09266
  C         0.06213         -1.51352         0.27757
  C        -1.17514         -1.51123        -0.15907
  H         0.50310          2.16368         1.10415
  H         2.16028          1.14593        -0.19689
  H         2.12878         -1.18248        -0.20262
  H         0.08527         -2.28301         1.07818
  H        -1.97216         -2.07626         0.29763
  H        -1.39231         -0.91163        -1.03167
  H        -1.97149          2.07668         0.29168
  H        -1.53872          0.93739        -1.05454
14
 step=         319     theta[rad]=           3.3406
  C        -1.17477          1.51151        -0.15860
  C         0.06231          1.51335         0.27720
  C         1.17917          0.66766        -0.09282
  C         1.18519         -0.67528        -0.08806
  C         0.05240         -1.53698         0.30257
  C        -1.19498         -1.49020        -0.18951
  H         0.08152          2.28463         1.07741
  H         2.12882          1.18250        -0.20147
  H         2.15831         -1.14828        -0.19612
  H         0.47264         -2.17293         1.10171
  H        -1.97188         -2.07668         0.29136
  H        -1.52745         -0.93574        -1.05295
  H        -1.97251          2.07629         0.29691
  H        -1.39038          0.91162        -1.03155
14
 step=         320     theta[rad]=           3.3510
  C        -1.19478          1.49049        -0.18915
  C         0.05249          1.53652         0.30225
  C         1.18530          0.67454        -0.08803
  C         1.17997         -0.66779        -0.09225
  C         0.06127         -1.51559         0.27978
  C        -1.17689         -1.50937        -0.16176
  H         0.46586          2.17436         1.10179
  H         2.15750          1.14916        -0.19730
  H         2.13139         -1.17946        -0.20204
  H         0.11949         -2.27329         1.08025
  H        -1.97213         -2.07630         0.29707
  H        -1.40424         -0.91376        -1.03355
  H        -1.97158          2.07664         0.29215
  H        -1.52562          0.93512        -1.05251
14
 step=         321     theta[rad]=           3.3615
  C        -1.17770          1.50843        -0.16307
  C         0.06087          1.51675         0.28087
  C         1.18007          0.66867        -0.09212
  C         1.18442         -0.67418        -0.08867
  C         0.05369         -1.53385         0.29924
  C        -1.19233         -1.49300        -0.18545
  H         0.13779          2.26849         1.08098
  H         2.13302          1.17761        -0.20086
  H         2.15436         -1.15285        -0.19699
  H         0.42093         -2.18763         1.09857
  H        -1.97192         -2.07662         0.29219
  H        -1.50941         -0.93252        -1.05011
  H        -1.97237          2.07634         0.29621
  H        -1.41018          0.91506        -1.03462
14
 step=         322     theta[rad]=           3.3720
  C        -1.19088          1.49460        -0.18318
  C         0.05441          1.53200         0.29736
  C         1.18410          0.67319        -0.08897
  C         1.18099         -0.66925        -0.09143
  C         0.05953         -1.51977         0.28423
  C        -1.18042         -1.50562        -0.16718
  H         0.39078          2.19590         1.09702
  H         2.15190          1.15567        -0.19811
  H         2.13664         -1.17337        -0.20089
  H         0.18847         -2.25368         1.08445
  H        -1.97208         -2.07637         0.29596
  H        -1.42831         -0.91805        -1.03734
  H        -1.97176          2.07657         0.29308
  H        -1.49920          0.93053        -1.04841
14
 step=         323     theta[rad]=           3.3824
  C        -1.18250          1.50340        -0.17039
  C         0.05852          1.52230         0.28687
  C         1.18154          0.67031        -0.09097
  C         1.18317         -0.67239        -0.08968
  C         0.05582         -1.52873         0.29378
  C        -1.18800         -1.49760        -0.17880
  H         0.22986          2.24207         1.08682
  H         2.13989          1.16963        -0.19986
  H         2.14792         -1.16031        -0.19841
  H         0.33634         -2.21167         1.09343
  H        -1.97198         -2.07653         0.29356
  H        -1.47990         -0.92726        -1.04546
  H        -1.97215          2.07642         0.29507
  H        -1.44258          0.92069        -1.03964
14
 step=         324     theta[rad]=           3.3929
  C        -1.18539          1.50036        -0.17480
  C         0.05710          1.52564         0.29049
  C         1.18242          0.67131        -0.09028
  C         1.18242         -0.67131        -0.09028
  C         0.05710         -1.52564         0.29048
  C        -1.18539         -1.50036        -0.17480
  H         0.28535          2.22615         1.09034
  H         2.14403          1.16481        -0.19926
  H         2.14403         -1.16482        -0.19926
  H         0.28535         -2.22615         1.09033
  H        -1.97202         -2.07648         0.29439
  H        -1.46211         -0.92408        -1.04266
  H        -1.97202          2.07648         0.29438
  H        -1.46210          0.92408        -1.04267
14
 step=         325     theta[rad]=           3.4034
  C        -1.18839          1.49721        -0.17939
  C         0.05562          1.52912         0.29425
  C         1.18334          0.67234        -0.08956
  C         1.18164         -0.67018        -0.09091
  C         0.05843         -1.52243         0.28706
  C        -1.18267         -1.50324        -0.17063
  H         0.34310          2.20958         1.09400
  H         2.14834          1.15981        -0.19863
  H         2.13998         -1.16950        -0.20015
  H         0.23229         -2.24123         1.08711
  H        -1.97205         -2.07642         0.29525
  H        -1.44360         -0.92078        -1.03974
  H        -1.97188          2.07653         0.29367
  H        -1.48242          0.92761        -1.04581
14
 step=         326     theta[rad]=           3.4139
  C        -1.17947          1.50657        -0.16577
  C         0.06000          1.51879         0.28308
  C         1.18061          0.66927        -0.09170
  C         1.18396         -0.67352        -0.08904
  C         0.05448         -1.53196         0.29722
  C        -1.19073         -1.49470        -0.18300
  H         0.17177          2.25874         1.08313
  H         2.13555          1.17467        -0.20049
  H         2.15198         -1.15560        -0.19751
  H         0.38971         -2.19650         1.09667
  H        -1.97194         -2.07659         0.29270
  H        -1.49852         -0.93058        -1.04839
  H        -1.97229          2.07637         0.29579
  H        -1.42214          0.91714        -1.03647
14
 step=         327     theta[rad]=           3.4243
  C        -1.19385          1.49147        -0.18773
  C         0.05294          1.53545         0.30109
  C         1.18502          0.67422        -0.08826
  C         1.18021         -0.66814        -0.09206
  C         0.06085         -1.51659         0.28084
  C        -1.17773         -1.50848        -0.16305
  H         0.44800          2.17949         1.10065
  H         2.15617          1.15071        -0.19749
  H         2.13264         -1.17801        -0.20177
  H         0.13590         -2.26862         1.08125
  H        -1.97212         -2.07632         0.29681
  H        -1.40997         -0.91478        -1.03445
  H        -1.97162          2.07663         0.29237
  H        -1.51933          0.93403        -1.05153
14
 step=         328     theta[rad]=           3.4348
  C        -1.17498          1.51129        -0.15892
  C         0.06221          1.51359         0.27746
  C         1.17923          0.66773        -0.09277
  C         1.18513         -0.67520        -0.08810
  C         0.05249         -1.53676         0.30234
  C        -1.19480         -1.49039        -0.18923
  H         0.08549          2.28349         1.07766
  H         2.12912          1.18215        -0.20143
  H         2.15803         -1.14860        -0.19618
  H         0.46898         -2.17397         1.10149
  H        -1.97189         -2.07667         0.29142
  H        -1.52617         -0.93551        -1.05275
  H        -1.97250          2.07629         0.29686
  H        -1.39178          0.91187        -1.03177
14
 step=         329     theta[rad]=           3.4453
  C        -1.19686          1.48831        -0.19231
  C         0.05147          1.53893         0.30485
  C         1.18594          0.67525        -0.08754
  C         1.17943         -0.66701        -0.09269
  C         0.06219         -1.51337         0.27741
  C        -1.17501         -1.51136        -0.15888
  H         0.50572          2.16293         1.10431
  H         2.16047          1.14570        -0.19686
  H         2.12859         -1.18269        -0.20266
  H         0.08286         -2.28370         1.07803
  H        -1.97216         -2.07626         0.29767
  H        -1.39147         -0.91148        -1.03153
  H        -1.97148          2.07668         0.29165
  H        -1.53964          0.93755        -1.05468
14
 step=         330     theta[rad]=           3.4558
  C        -1.17391          1.51241        -0.15728
  C         0.06273          1.51236         0.27612
  C         1.17891          0.66736        -0.09302
  C         1.18541         -0.67560        -0.08788
  C         0.05201         -1.53791         0.30356
  C        -1.19576         -1.48937        -0.19071
  H         0.06497          2.28938         1.07636
  H         2.12759          1.18393        -0.20165
  H         2.15947         -1.14694        -0.19586
  H         0.48784         -2.16861         1.10264
  H        -1.97187         -2.07669         0.29111
  H        -1.53275         -0.93669        -1.05378
  H        -1.97255          2.07627         0.29711
  H        -1.38456          0.91061        -1.03065
14
 step=         331     theta[rad]=           3.4662
  C        -1.19568          1.48955        -0.19051
  C         0.05205          1.53756         0.30338
  C         1.18558          0.67485        -0.08782
  C         1.17973         -0.66745        -0.09244
  C         0.06166         -1.51463         0.27876
  C        -1.17608         -1.51023        -0.16052
  H         0.48308          2.16942         1.10288
  H         2.15878          1.14766        -0.19711
  H         2.13018         -1.18086        -0.20231
  H         0.10366         -2.27778         1.07929
  H        -1.97215         -2.07628         0.29733
  H        -1.39872         -0.91277        -1.03268
  H        -1.97154          2.07666         0.29193
  H        -1.53168          0.93617        -1.05345
14
 step=         332     theta[rad]=           3.4767
  C        -1.17743          1.50872        -0.16266
  C         0.06100          1.51643         0.28053
  C         1.17998          0.66857        -0.09218
  C         1.18449         -0.67428        -0.08862
  C         0.05357         -1.53414         0.29954
  C        -1.19258         -1.49275        -0.18582
  H         0.13261          2.26997         1.08065
  H         2.13263          1.17806        -0.20092
  H         2.15473         -1.15242        -0.19691
  H         0.42569         -2.18627         1.09886
  H        -1.97192         -2.07663         0.29212
  H        -1.51107         -0.93282        -1.05037
  H        -1.97239          2.07634         0.29627
  H        -1.40836          0.91475        -1.03434
14
 step=         333     theta[rad]=           3.4872
  C        -1.19000          1.49552        -0.18184
  C         0.05484          1.53098         0.29626
  C         1.18383          0.67289        -0.08918
  C         1.18122         -0.66958        -0.09125
  C         0.05915         -1.52071         0.28523
  C        -1.18122         -1.50478        -0.16840
  H         0.37396          2.20073         1.09596
  H         2.15064          1.15713        -0.19829
  H         2.13782         -1.17200        -0.20063
  H         0.20393         -2.24929         1.08538
  H        -1.97207         -2.07639         0.29571
  H        -1.43370         -0.91901        -1.03819
  H        -1.97180          2.07656         0.29328
  H        -1.49328          0.92950        -1.04750
14
 step=         334     theta[rad]=           3.4976
  C        -1.18478          1.50100        -0.17387
  C         0.05740          1.52494         0.28972
  C         1.18223          0.67110        -0.09043
  C         1.18258         -0.67153        -0.09015
  C         0.05683         -1.52629         0.29118
  C        -1.18594         -1.49978        -0.17564
  H         0.27367          2.22950         1.08960
  H         2.14316          1.16583        -0.19938
  H         2.14485         -1.16387        -0.19908
  H         0.29608         -2.22310         1.09098
  H        -1.97201         -2.07649         0.29422
  H        -1.46585         -0.92475        -1.04325
  H        -1.97205          2.07647         0.29453
  H        -1.45799          0.92337        -1.04203
14
 step=         335     theta[rad]=           3.5081
  C        -1.18179          1.50413        -0.16932
  C         0.05886          1.52148         0.28599
  C         1.18132          0.67007        -0.09114
  C         1.18336         -0.67265        -0.08953
  C         0.05551         -1.52948         0.29457
  C        -1.18863         -1.49692        -0.17977
  H         0.21640          2.24593         1.08596
  H         2.13889          1.17080        -0.20001
  H         2.14886         -1.15922        -0.19820
  H         0.34870         -2.20815         1.09418
  H        -1.97197         -2.07655         0.29336
  H        -1.48421         -0.92803        -1.04614
  H        -1.97218          2.07641         0.29524
  H        -1.43784          0.91987        -1.03891
14
 step=         336     theta[rad]=           3.5186
  C        -1.19279          1.49259        -0.18610
  C         0.05347          1.53421         0.29976
  C         1.18469          0.67385        -0.08851
  C         1.18049         -0.66853        -0.09183
  C         0.06038         -1.51772         0.28205
  C        -1.17869         -1.50746        -0.16453
  H         0.42757          2.18535         1.09936
  H         2.15464          1.15248        -0.19771
  H         2.13407         -1.17635        -0.20145
  H         0.15467         -2.26329         1.08239
  H        -1.97211         -2.07634         0.29650
  H        -1.41652         -0.91595        -1.03548
  H        -1.97167          2.07661         0.29262
  H        -1.51214          0.93278        -1.05042
14
 step=         337     theta[rad]=           3.5291
  C        -1.17515          1.51112        -0.15917
  C         0.06212          1.51379         0.27767
  C         1.17928          0.66779        -0.09273
  C         1.18509         -0.67514        -0.08814
  C         0.05256         -1.53658         0.30215
  C        -1.19464         -1.49056        -0.18899
  H         0.08871          2.28257         1.07786
  H         2.12936          1.18187        -0.20140
  H         2.15780         -1.14886        -0.19623
  H         0.46603         -2.17481         1.10131
  H        -1.97189         -2.07667         0.29146
  H        -1.52514         -0.93533        -1.05258
  H        -1.97249          2.07629         0.29682
  H        -1.39291          0.91206        -1.03194
14
 step=         338     theta[rad]=           3.5395
  C        -1.19695          1.48822        -0.19245
  C         0.05142          1.53903         0.30497
  C         1.18596          0.67528        -0.08752
  C         1.17940         -0.66698        -0.09271
  C         0.06223         -1.51328         0.27731
  C        -1.17493         -1.51144        -0.15876
  H         0.50748          2.16242         1.10443
  H         2.16061          1.14555        -0.19684
  H         2.12847         -1.18283        -0.20269
  H         0.08124         -2.28415         1.07793
  H        -1.97216         -2.07626         0.29769
  H        -1.39090         -0.91138        -1.03145
  H        -1.97148          2.07668         0.29163
  H        -1.54026          0.93766        -1.05478
14
 step=         339     theta[rad]=           3.5500
  C        -1.17433          1.51197        -0.15793
  C         0.06252          1.51285         0.27665
  C         1.17904          0.66751        -0.09292
  C         1.18530         -0.67544        -0.08797
  C         0.05220         -1.53745         0.30307
  C        -1.19538         -1.48978        -0.19012
  H         0.07315          2.28704         1.07688
  H         2.12820          1.18322        -0.20157
  H         2.15889         -1.14760        -0.19599
  H         0.48033         -2.17075         1.10218
  H        -1.97188         -2.07669         0.29123
  H        -1.53013         -0.93622        -1.05337
  H        -1.97253          2.07628         0.29701
  H        -1.38743          0.91111        -1.03109
14
 step=         340     theta[rad]=           3.5605
  C        -1.19402          1.49130        -0.18798
  C         0.05286          1.53564         0.30130
  C         1.18507          0.67427        -0.08822
  C         1.18017         -0.66807        -0.09209
  C         0.06093         -1.51641         0.28065
  C        -1.17758         -1.50863        -0.16282
  H         0.45116          2.17858         1.10085
  H         2.15640          1.15043        -0.19746
  H         2.13241         -1.17827        -0.20182
  H         0.13299         -2.26945         1.08107
  H        -1.97212         -2.07632         0.29685
  H        -1.40896         -0.91460        -1.03429
  H        -1.97162          2.07663         0.29233
  H        -1.52044          0.93422        -1.05171
14
 step=         341     theta[rad]=           3.5709
  C        -1.18077          1.50521        -0.16776
  C         0.05936          1.52030         0.28471
  C         1.18101          0.66972        -0.09138
  C         1.18362         -0.67303        -0.08932
  C         0.05505         -1.53057         0.29574
  C        -1.18956         -1.49594        -0.18119
  H         0.19673          2.25158         1.08472
  H         2.13742          1.17250        -0.20022
  H         2.15024         -1.15763        -0.19789
  H         0.36677         -2.20302         1.09528
  H        -1.97196         -2.07656         0.29307
  H        -1.49051         -0.92915        -1.04713
  H        -1.97223          2.07639         0.29548
  H        -1.43092          0.91867        -1.03783
14
 step=         342     theta[rad]=           3.5814
  C        -1.18502          1.50075        -0.17424
  C         0.05728          1.52522         0.29003
  C         1.18231          0.67118        -0.09037
  C         1.18252         -0.67144        -0.09021
  C         0.05694         -1.52603         0.29090
  C        -1.18572         -1.50001        -0.17530
  H         0.27834          2.22816         1.08989
  H         2.14351          1.16542        -0.19933
  H         2.14452         -1.16425        -0.19915
  H         0.29179         -2.22432         1.09072
  H        -1.97201         -2.07648         0.29428
  H        -1.46436         -0.92448        -1.04301
  H        -1.97203          2.07647         0.29447
  H        -1.45963          0.92365        -1.04228
14
 step=         343     theta[rad]=           3.5919
  C        -1.19077          1.49471        -0.18301
  C         0.05446          1.53187         0.29722
  C         1.18407          0.67316        -0.08899
  C         1.18102         -0.66929        -0.09141
  C         0.05949         -1.51989         0.28435
  C        -1.18052         -1.50552        -0.16733
  H         0.38872          2.19650         1.09689
  H         2.15174          1.15585        -0.19813
  H         2.13679         -1.17320        -0.20085
  H         0.19037         -2.25315         1.08456
  H        -1.97208         -2.07638         0.29593
  H        -1.42897         -0.91817        -1.03744
  H        -1.97177          2.07657         0.29310
  H        -1.49847          0.93040        -1.04830
14
 step=         344     theta[rad]=           3.6024
  C        -1.17599          1.51023        -0.16045
  C         0.06171          1.51476         0.27872
  C         1.17954          0.66808        -0.09253
  C         1.18487         -0.67482        -0.08831
  C         0.05293         -1.53569         0.30119
  C        -1.19389         -1.49136        -0.18783
  H         0.10484          2.27794         1.07889
  H         2.13056          1.18047        -0.20122
  H         2.15667         -1.15017        -0.19648
  H         0.45121         -2.17902         1.10041
  H        -1.97190         -2.07666         0.29170
  H        -1.51997         -0.93441        -1.05177
  H        -1.97245          2.07631         0.29662
  H        -1.39859          0.91305        -1.03282
14
 step=         345     theta[rad]=           3.6128
  C        -1.19686          1.48831        -0.19231
  C         0.05147          1.53893         0.30485
  C         1.18594          0.67525        -0.08754
  C         1.17943         -0.66701        -0.09269
  C         0.06219         -1.51337         0.27741
  C        -1.17501         -1.51136        -0.15888
  H         0.50572          2.16293         1.10431
  H         2.16047          1.14570        -0.19686
  H         2.12859         -1.18269        -0.20266
  H         0.08286         -2.28370         1.07803
  H        -1.97216         -2.07626         0.29767
  H        -1.39147         -0.91148        -1.03153
  H        -1.97148          2.07668         0.29165
  H        -1.53964          0.93755        -1.05468
14
 step=         346     theta[rad]=           3.6233
  C        -1.17437          1.51193        -0.15799
  C         0.06250          1.51289         0.27670
  C         1.17905          0.66752        -0.09291
  C         1.18529         -0.67543        -0.08797
  C         0.05222         -1.53741         0.30303
  C        -1.19534         -1.48982        -0.19006
  H         0.07388          2.28682         1.07692
  H         2.12825          1.18316        -0.20156
  H         2.15884         -1.14766        -0.19600
  H         0.47966         -2.17094         1.10214
  H        -1.97188         -2.07669         0.29124
  H        -1.52990         -0.93618        -1.05333
  H        -1.97253          2.07628         0.29700
  H        -1.38769          0.91116        -1.03113
14
 step=         347     theta[rad]=           3.6338
  C        -1.19334          1.49201        -0.18694
  C         0.05320          1.53485         0.30044
  C         1.18486          0.67404        -0.08838
  C         1.18035         -0.66833        -0.09195
  C         0.06063         -1.51714         0.28143
  C        -1.17820         -1.50798        -0.16377
  H         0.43808          2.18233         1.10002
  H         2.15543          1.15157        -0.19760
  H         2.13333         -1.17721        -0.20162
  H         0.14501         -2.26604         1.08180
  H        -1.97212         -2.07633         0.29666
  H        -1.41315         -0.91535        -1.03495
  H        -1.97165          2.07662         0.29249
  H        -1.51584          0.93342        -1.05099
14
 step=         348     theta[rad]=           3.6442
  C        -1.18250          1.50340        -0.17039
  C         0.05852          1.52230         0.28687
  C         1.18154          0.67031        -0.09097
  C         1.18317         -0.67239        -0.08968
  C         0.05582         -1.52873         0.29378
  C        -1.18800         -1.49760        -0.17880
  H         0.22986          2.24207         1.08682
  H         2.13989          1.16963        -0.19986
  H         2.14792         -1.16031        -0.19841
  H         0.33634         -2.21167         1.09343
  H        -1.97198         -2.07653         0.29356
  H        -1.47990         -0.92726        -1.04546
  H        -1.97215          2.07642         0.29507
  H        -1.44258          0.92069        -1.03964
14
 step=         349     theta[rad]=           3.6547
  C        -1.18238          1.50352        -0.17021
  C         0.05858          1.52216         0.28672
  C         1.18150          0.67027        -0.09100
  C         1.18320         -0.67243        -0.08965
  C         0.05577         -1.52885         0.29391
  C        -1.18811         -1.49748        -0.17897
  H         0.22760          2.24272         1.08667
  H         2.13972          1.16982        -0.19989
  H         2.14807         -1.16013        -0.19837
  H         0.33841         -2.21108         1.09356
  H        -1.97198         -2.07653         0.29353
  H        -1.48062         -0.92739        -1.04557
  H        -1.97216          2.07642         0.29510
  H        -1.44178          0.92055        -1.03952
14
 step=         350     theta[rad]=           3.6652
  C        -1.19360          1.49174        -0.18734
  C         0.05307          1.53515         0.30077
  C         1.18494          0.67413        -0.08832
  C         1.18028         -0.66823        -0.09200
  C         0.06074         -1.51686         0.28113
  C        -1.17796         -1.50823        -0.16340
  H         0.44312          2.18089         1.10034
  H         2.15580          1.15113        -0.19754
  H         2.13298         -1.17761        -0.20169
  H         0.14038         -2.26735         1.08152
  H        -1.97212         -2.07632         0.29674
  H        -1.41153         -0.91506        -1.03469
  H        -1.97164          2.07662         0.29243
  H        -1.51762          0.93373        -1.05127
14
 step=         351     theta[rad]=           3.6757
  C        -1.17413          1.51218        -0.15762
  C         0.06262          1.51261         0.27640
  C         1.17897          0.66744        -0.09297
  C         1.18536         -0.67552        -0.08792
  C         0.05211         -1.53767         0.30330
  C        -1.19556         -1.48958        -0.19040
  H         0.06924          2.28816         1.07663
  H         2.12790          1.18356        -0.20161
  H         2.15917         -1.14728        -0.19593
  H         0.48392         -2.16972         1.10240
  H        -1.97187         -2.07669         0.29118
  H        -1.53139         -0.93644        -1.05357
  H        -1.97254          2.07628         0.29706
  H        -1.38606          0.91087        -1.03088
14
 step=         352     theta[rad]=           3.6861
  C        -1.19651          1.48868        -0.19178
  C         0.05164          1.53852         0.30441
  C         1.18583          0.67513        -0.08762
  C         1.17952         -0.66714        -0.09261
  C         0.06203         -1.51375         0.27782
  C        -1.17533         -1.51102        -0.15937
  H         0.49895          2.16487         1.10388
  H         2.15997          1.14629        -0.19694
  H         2.12907         -1.18214        -0.20255
  H         0.08909         -2.28193         1.07841
  H        -1.97216         -2.07627         0.29757
  H        -1.39364         -0.91186        -1.03188
  H        -1.97150          2.07667         0.29174
  H        -1.53726          0.93714        -1.05431
14
 step=         353     theta[rad]=           3.6966
  C        -1.17770          1.50843        -0.16307
  C         0.06087          1.51675         0.28087
  C         1.18007          0.66867        -0.09212
  C         1.18442         -0.67418        -0.08867
  C         0.05369         -1.53385         0.29924
  C        -1.19233         -1.49300        -0.18545
  H         0.13779          2.26849         1.08098
  H         2.13302          1.17761        -0.20086
  H         2.15436         -1.15285        -0.19699
  H         0.42093         -2.18763         1.09857
  H        -1.97192         -2.07662         0.29219
  H        -1.50941         -0.93252        -1.05011
  H        -1.97237          2.07634         0.29621
  H        -1.41018          0.91506        -1.03462
14
 step=         354     theta[rad]=           3.7071
  C        -1.18720          1.49846        -0.17757
  C         0.05621          1.52774         0.29276
  C         1.18298          0.67193        -0.08985
  C         1.18195         -0.67063        -0.09066
  C         0.05791         -1.52370         0.28841
  C        -1.18374         -1.50211        -0.17228
  H         0.32025          2.21614         1.09255
  H         2.14663          1.16179        -0.19888
  H         2.14158         -1.16765        -0.19980
  H         0.25328         -2.23527         1.08838
  H        -1.97204         -2.07644         0.29491
  H        -1.45092         -0.92209        -1.04090
  H        -1.97193          2.07651         0.29395
  H        -1.47438          0.92622        -1.04457
14
 step=         355     theta[rad]=           3.7176
  C        -1.19011          1.49540        -0.18201
  C         0.05478          1.53111         0.29640
  C         1.18387          0.67293        -0.08915
  C         1.18119         -0.66954        -0.09127
  C         0.05919         -1.52059         0.28510
  C        -1.18112         -1.50489        -0.16824
  H         0.37610          2.20012         1.09609
  H         2.15080          1.15694        -0.19827
  H         2.13767         -1.17218        -0.20066
  H         0.20196         -2.24985         1.08527
  H        -1.97208         -2.07639         0.29574
  H        -1.43302         -0.91889        -1.03808
  H        -1.97180          2.07656         0.29326
  H        -1.49403          0.92963        -1.04761
14
 step=         356     theta[rad]=           3.7280
  C        -1.17557          1.51067        -0.15983
  C         0.06191          1.51429         0.27820
  C         1.17942          0.66794        -0.09263
  C         1.18498         -0.67498        -0.08823
  C         0.05275         -1.53613         0.30166
  C        -1.19426         -1.49097        -0.18840
  H         0.09696          2.28020         1.07839
  H         2.12997          1.18116        -0.20131
  H         2.15722         -1.14953        -0.19636
  H         0.45845         -2.17696         1.10085
  H        -1.97189         -2.07666         0.29159
  H        -1.52250         -0.93486        -1.05217
  H        -1.97247          2.07630         0.29672
  H        -1.39581          0.91257        -1.03239
14
 step=         357     theta[rad]=           3.7385
  C        -1.19700          1.48817        -0.19252
  C         0.05140          1.53908         0.30502
  C         1.18598          0.67530        -0.08750
  C         1.17939         -0.66696        -0.09272
  C         0.06225         -1.51323         0.27726
  C        -1.17489         -1.51149        -0.15869
  H         0.50836          2.16217         1.10448
  H         2.16067          1.14547        -0.19683
  H         2.12841         -1.18291        -0.20270
  H         0.08044         -2.28438         1.07788
  H        -1.97216         -2.07626         0.29771
  H        -1.39062         -0.91133        -1.03140
  H        -1.97148          2.07668         0.29162
  H        -1.54057          0.93772        -1.05483
14
 step=         358     theta[rad]=           3.7490
  C        -1.17606          1.51016        -0.16056
  C         0.06168          1.51484         0.27881
  C         1.17956          0.66810        -0.09251
  C         1.18485         -0.67480        -0.08833
  C         0.05297         -1.53561         0.30111
  C        -1.19382         -1.49143        -0.18773
  H         0.10622          2.27755         1.07897
  H         2.13066          1.18035        -0.20121
  H         2.15658         -1.15028        -0.19650
  H         0.44994         -2.17938         1.10033
  H        -1.97190         -2.07665         0.29173
  H        -1.51953         -0.93433        -1.05170
  H        -1.97245          2.07631         0.29660
  H        -1.39907          0.91313        -1.03290
14
 step=         359     theta[rad]=           3.7594
  C        -1.18898          1.49659        -0.18028
  C         0.05534          1.52980         0.29498
  C         1.18352          0.67254        -0.08942
  C         1.18148         -0.66996        -0.09103
  C         0.05869         -1.52180         0.28640
  C        -1.18214         -1.50380        -0.16982
  H         0.35430          2.20637         1.09471
  H         2.14917          1.15883        -0.19851
  H         2.13920         -1.17041        -0.20032
  H         0.22200         -2.24416         1.08648
  H        -1.97206         -2.07641         0.29541
  H        -1.44001         -0.92014        -1.03918
  H        -1.97185          2.07654         0.29353
  H        -1.48636          0.92830        -1.04642
14
 step=         360     theta[rad]=           3.7699
  C        -1.18898          1.49659        -0.18028
  C         0.05534          1.52980         0.29498
  C         1.18352          0.67254        -0.08942
  C         1.18148         -0.66996        -0.09103
  C         0.05869         -1.52180         0.28640
  C        -1.18214         -1.50380        -0.16982
  H         0.35430          2.20637         1.09471
  H         2.14917          1.15883        -0.19851
  H         2.13920         -1.17041        -0.20032
  H         0.22200         -2.24416         1.08648
  H        -1.97206         -2.07641         0.29541
  H        -1.44001         -0.92014        -1.03918
  H        -1.97185          2.07654         0.29353
  H        -1.48636          0.92830        -1.04642
14
 step=         361     theta[rad]=           3.7804
  C        -1.17591          1.51031        -0.16034
  C         0.06175          1.51468         0.27863
  C         1.17952          0.66805        -0.09255
  C         1.18489         -0.67485        -0.08830
  C         0.05290         -1.53576         0.30127
  C        -1.19395         -1.49129        -0.18793
  H         0.10347          2.27833         1.07880
  H         2.13046          1.18059        -0.20124
  H         2.15677         -1.15006        -0.19646
  H         0.45246         -2.17867         1.10049
  H        -1.97190         -2.07666         0.29168
  H        -1.52041         -0.93448        -1.05184
  H        -1.97246          2.07631         0.29664
  H        -1.39811          0.91296        -1.03275
14
 step=         362     theta[rad]=           3.7909
  C        -1.19700          1.48817        -0.19252
  C         0.05140          1.53908         0.30502
  C         1.18598          0.67530        -0.08750
  C         1.17939         -0.66696        -0.09272
  C         0.06225         -1.51323         0.27726
  C        -1.17489         -1.51149        -0.15869
  H         0.50836          2.16217         1.10448
  H         2.16067          1.14547        -0.19683
  H         2.12841         -1.18291        -0.20270
  H         0.08044         -2.28438         1.07788
  H        -1.97216         -2.07626         0.29771
  H        -1.39062         -0.91133        -1.03140
  H        -1.97148          2.07668         0.29162
  H        -1.54057          0.93772        -1.05483
14
 step=         363     theta[rad]=           3.8013
  C        -1.17643          1.50977        -0.16114
  C         0.06149          1.51528         0.27928
  C         1.17968          0.66823        -0.09242
  C         1.18475         -0.67466        -0.08841
  C         0.05313         -1.53521         0.30068
  C        -1.19348         -1.49179        -0.18721
  H         0.11343          2.27548         1.07943
  H         2.13120          1.17973        -0.20113
  H         2.15607         -1.15087        -0.19661
  H         0.44332         -2.18126         1.09993
  H        -1.97190         -2.07665         0.29183
  H        -1.51722         -0.93392        -1.05134
  H        -1.97243          2.07632         0.29651
  H        -1.40161          0.91357        -1.03329
14
 step=         364     theta[rad]=           3.8118
  C        -1.18780          1.49783        -0.17849
  C         0.05591          1.52844         0.29351
  C         1.18316          0.67214        -0.08970
  C         1.18179         -0.67040        -0.09079
  C         0.05817         -1.52306         0.28773
  C        -1.18320         -1.50268        -0.17145
  H         0.33174          2.21284         1.09328
  H         2.14749          1.16079        -0.19875
  H         2.14078         -1.16858        -0.19998
  H         0.24272         -2.23827         1.08774
  H        -1.97205         -2.07643         0.29508
  H        -1.44724         -0.92143        -1.04032
  H        -1.97190          2.07652         0.29381
  H        -1.47842          0.92692        -1.04519
14
 step=         365     theta[rad]=           3.8223
  C        -1.19066          1.49482        -0.18285
  C         0.05451          1.53175         0.29709
  C         1.18404          0.67312        -0.08902
  C         1.18104         -0.66933        -0.09139
  C         0.05944         -1.52000         0.28448
  C        -1.18062         -1.50542        -0.16748
  H         0.38664          2.19709         1.09676
  H         2.15159          1.15603        -0.19816
  H         2.13693         -1.17303        -0.20082
  H         0.19228         -2.25260         1.08468
  H        -1.97208         -2.07638         0.29590
  H        -1.42964         -0.91829        -1.03754
  H        -1.97177          2.07657         0.29313
  H        -1.49774          0.93028        -1.04819
14
 step=         366     theta[rad]=           3.8327
  C        -1.17472          1.51156        -0.15852
  C         0.06233          1.51330         0.27714
  C         1.17915          0.66764        -0.09283
  C         1.18520         -0.67530        -0.08805
  C         0.05237         -1.53704         0.30263
  C        -1.19503         -1.49015        -0.18958
  H         0.08058          2.28490         1.07735
  H         2.12875          1.18258        -0.20148
  H         2.15837         -1.14820        -0.19610
  H         0.47350         -2.17269         1.10176
  H        -1.97188         -2.07668         0.29134
  H        -1.52775         -0.93579        -1.05299
  H        -1.97251          2.07629         0.29692
  H        -1.39005          0.91156        -1.03150
14
 step=         367     theta[rad]=           3.8432
  C        -1.19651          1.48868        -0.19178
  C         0.05164          1.53852         0.30441
  C         1.18583          0.67513        -0.08762
  C         1.17952         -0.66714        -0.09261
  C         0.06203         -1.51375         0.27782
  C        -1.17533         -1.51102        -0.15937
  H         0.49895          2.16487         1.10388
  H         2.15997          1.14629        -0.19694
  H         2.12907         -1.18214        -0.20255
  H         0.08909         -2.28193         1.07841
  H        -1.97216         -2.07627         0.29757
  H        -1.39364         -0.91186        -1.03188
  H        -1.97150          2.07667         0.29174
  H        -1.53726          0.93714        -1.05431
14
 step=         368     theta[rad]=           3.8537
  C        -1.17916          1.50690        -0.16530
  C         0.06016          1.51843         0.28269
  C         1.18051          0.66917        -0.09177
  C         1.18404         -0.67364        -0.08898
  C         0.05434         -1.53229         0.29758
  C        -1.19102         -1.49440        -0.18343
  H         0.16579          2.26045         1.08275
  H         2.13511          1.17519        -0.20056
  H         2.15240         -1.15512        -0.19742
  H         0.39520         -2.19494         1.09701
  H        -1.97194         -2.07660         0.29261
  H        -1.50043         -0.93092        -1.04869
  H        -1.97231          2.07637         0.29586
  H        -1.42003          0.91677        -1.03615
14
 step=         369     theta[rad]=           3.8642
  C        -1.18357          1.50227        -0.17202
  C         0.05799          1.52354         0.28821
  C         1.18186          0.67068        -0.09072
  C         1.18289         -0.67199        -0.08990
  C         0.05629         -1.52758         0.29256
  C        -1.18703         -1.49862        -0.17732
  H         0.25044          2.23617         1.08812
  H         2.14143          1.16784        -0.19964
  H         2.14647         -1.16198        -0.19872
  H         0.31742         -2.21704         1.09228
  H        -1.97199         -2.07651         0.29387
  H        -1.47330         -0.92608        -1.04442
  H        -1.97210          2.07644         0.29481
  H        -1.44982          0.92195        -1.04076
14
 step=         370     theta[rad]=           3.8746
  C        -1.19441          1.49088        -0.18858
  C         0.05267          1.53609         0.30179
  C         1.18519          0.67441        -0.08812
  C         1.18007         -0.66793        -0.09217
  C         0.06110         -1.51599         0.28020
  C        -1.17723         -1.50901        -0.16228
  H         0.45875          2.17640         1.10133
  H         2.15697          1.14977        -0.19737
  H         2.13188         -1.17888        -0.20193
  H         0.12602         -2.27143         1.08065
  H        -1.97213         -2.07631         0.29697
  H        -1.40652         -0.91416        -1.03391
  H        -1.97160          2.07664         0.29223
  H        -1.52311          0.93468        -1.05212
14
 step=         371     theta[rad]=           3.8851
  C        -1.17379          1.51254        -0.15710
  C         0.06279          1.51222         0.27597
  C         1.17887          0.66732        -0.09305
  C         1.18544         -0.67565        -0.08785
  C         0.05196         -1.53803         0.30369
  C        -1.19587         -1.48926        -0.19087
  H         0.06267          2.29004         1.07621
  H         2.12741          1.18413        -0.20168
  H         2.15963         -1.14675        -0.19583
  H         0.48996         -2.16801         1.10276
  H        -1.97187         -2.07670         0.29108
  H        -1.53349         -0.93682        -1.05390
  H        -1.97256          2.07627         0.29714
  H        -1.38375          0.91047        -1.03052
14
 step=         372     theta[rad]=           3.8956
  C        -1.19334          1.49201        -0.18694
  C         0.05320          1.53485         0.30044
  C         1.18486          0.67404        -0.08838
  C         1.18035         -0.66833        -0.09195
  C         0.06063         -1.51714         0.28143
  C        -1.17820         -1.50798        -0.16377
  H         0.43808          2.18233         1.10002
  H         2.15543          1.15157        -0.19760
  H         2.13333         -1.17721        -0.20162
  H         0.14501         -2.26604         1.08180
  H        -1.97212         -2.07633         0.29666
  H        -1.41315         -0.91535        -1.03495
  H        -1.97165          2.07662         0.29249
  H        -1.51584          0.93342        -1.05099
14
 step=         373     theta[rad]=           3.9060
  C        -1.18551          1.50024        -0.17498
  C         0.05704          1.52578         0.29064
  C         1.18246          0.67135        -0.09025
  C         1.18239         -0.67126        -0.09031
  C         0.05715         -1.52551         0.29035
  C        -1.18528         -1.50048        -0.17463
  H         0.28768          2.22548         1.09048
  H         2.14420          1.16461        -0.19923
  H         2.14387         -1.16500        -0.19930
  H         0.28320         -2.22676         1.09020
  H        -1.97202         -2.07648         0.29442
  H        -1.46136         -0.92395        -1.04254
  H        -1.97201          2.07648         0.29435
  H        -1.46292          0.92423        -1.04279
14
 step=         374     theta[rad]=           3.9165
  C        -1.17717          1.50899        -0.16226
  C         0.06113          1.51613         0.28020
  C         1.17990          0.66848        -0.09225
  C         1.18456         -0.67438        -0.08856
  C         0.05346         -1.53442         0.29984
  C        -1.19282         -1.49249        -0.18619
  H         0.12758          2.27142         1.08033
  H         2.13226          1.17850        -0.20097
  H         2.15508         -1.15202        -0.19683
  H         0.43032         -2.18496         1.09914
  H        -1.97191         -2.07663         0.29204
  H        -1.51268         -0.93311        -1.05062
  H        -1.97240          2.07633         0.29634
  H        -1.40659          0.91444        -1.03406
14
 step=         375     theta[rad]=           3.9270
  C        -1.19700          1.48816        -0.19253
  C         0.05140          1.53909         0.30503
  C         1.18598          0.67530        -0.08750
  C         1.17939         -0.66696        -0.09272
  C         0.06225         -1.51322         0.27725
  C        -1.17488         -1.51149        -0.15869
  H         0.50847          2.16214         1.10449
  H         2.16068          1.14546        -0.19683
  H         2.12840         -1.18292        -0.20270
  H         0.08033         -2.28441         1.07788
  H        -1.97216         -2.07626         0.29771
  H        -1.39059         -0.91132        -1.03140
  H        -1.97148          2.07668         0.29162
  H        -1.54061          0.93772        -1.05483
14
 step=         376     theta[rad]=           3.9375
  C        -1.17726          1.50890        -0.16239
  C         0.06109          1.51623         0.28031
  C         1.17993          0.66851        -0.09222
  C         1.18454         -0.67435        -0.08858
  C         0.05350         -1.53433         0.29974
  C        -1.19274         -1.49258        -0.18607
  H         0.12924          2.27094         1.08043
  H         2.13238          1.17836        -0.20096
  H         2.15496         -1.15215        -0.19685
  H         0.42879         -2.18539         1.09905
  H        -1.97191         -2.07663         0.29207
  H        -1.51215         -0.93301        -1.05054
  H        -1.97239          2.07633         0.29632
  H        -1.40717          0.91454        -1.03415
14
 step=         377     theta[rad]=           3.9479
  C        -1.18502          1.50075        -0.17424
  C         0.05728          1.52522         0.29003
  C         1.18231          0.67118        -0.09037
  C         1.18252         -0.67144        -0.09021
  C         0.05694         -1.52603         0.29090
  C        -1.18572         -1.50001        -0.17530
  H         0.27834          2.22816         1.08989
  H         2.14351          1.16542        -0.19933
  H         2.14452         -1.16425        -0.19915
  H         0.29179         -2.22432         1.09072
  H        -1.97201         -2.07648         0.29428
  H        -1.46436         -0.92448        -1.04301
  H        -1.97203          2.07647         0.29447
  H        -1.45963          0.92365        -1.04228
14
 step=         378     theta[rad]=           3.9584
  C        -1.19410          1.49121        -0.18810
  C         0.05282          1.53573         0.30140
  C         1.18509          0.67430        -0.08820
  C         1.18015         -0.66804        -0.09211
  C         0.06096         -1.51632         0.28056
  C        -1.17751         -1.50871        -0.16271
  H         0.45271          2.17813         1.10095
  H         2.15652          1.15030        -0.19744
  H         2.13231         -1.17839        -0.20184
  H         0.13157         -2.26986         1.08099
  H        -1.97213         -2.07631         0.29688
  H        -1.40846         -0.91451        -1.03421
  H        -1.97161          2.07663         0.29231
  H        -1.52099          0.93431        -1.05179
14
 step=         379     theta[rad]=           3.9689
  C        -1.17383          1.51250        -0.15716
  C         0.06277          1.51227         0.27602
  C         1.17888          0.66734        -0.09304
  C         1.18543         -0.67563        -0.08786
  C         0.05198         -1.53799         0.30365
  C        -1.19583         -1.48930        -0.19082
  H         0.06345          2.28982         1.07626
  H         2.12747          1.18406        -0.20167
  H         2.15957         -1.14681        -0.19584
  H         0.48924         -2.16821         1.10272
  H        -1.97187         -2.07670         0.29109
  H        -1.53324         -0.93677        -1.05386
  H        -1.97255          2.07627         0.29713
  H        -1.38402          0.91052        -1.03057
14
 step=         380     theta[rad]=           3.9794
  C        -1.19221          1.49319        -0.18522
  C         0.05375          1.53355         0.29904
  C         1.18451          0.67365        -0.08865
  C         1.18064         -0.66875        -0.09171
  C         0.06013         -1.51834         0.28271
  C        -1.17921         -1.50691        -0.16533
  H         0.41649          2.18853         1.09865
  H         2.15382          1.15344        -0.19783
  H         2.13484         -1.17545        -0.20128
  H         0.16485         -2.26040         1.08301
  H        -1.97210         -2.07635         0.29634
  H        -1.42007         -0.91658        -1.03604
  H        -1.97170          2.07660         0.29276
  H        -1.50825          0.93210        -1.04982
14
 step=         381     theta[rad]=           3.9898
  C        -1.18792          1.49770        -0.17867
  C         0.05586          1.52857         0.29366
  C         1.18320          0.67218        -0.08967
  C         1.18176         -0.67036        -0.09081
  C         0.05822         -1.52293         0.28760
  C        -1.18310         -1.50279        -0.17128
  H         0.33402          2.21219         1.09342
  H         2.14766          1.16059        -0.19873
  H         2.14062         -1.16876        -0.20001
  H         0.24063         -2.23886         1.08761
  H        -1.97205         -2.07643         0.29511
  H        -1.44651         -0.92130        -1.04020
  H        -1.97190          2.07652         0.29378
  H        -1.47923          0.92706        -1.04532
14
 step=         382     theta[rad]=           4.0003
  C        -1.17515          1.51112        -0.15917
  C         0.06212          1.51379         0.27767
  C         1.17928          0.66779        -0.09273
  C         1.18509         -0.67514        -0.08814
  C         0.05256         -1.53658         0.30215
  C        -1.19464         -1.49056        -0.18899
  H         0.08871          2.28257         1.07786
  H         2.12936          1.18187        -0.20140
  H         2.15780         -1.14886        -0.19623
  H         0.46603         -2.17481         1.10131
  H        -1.97189         -2.07667         0.29146
  H        -1.52514         -0.93533        -1.05258
  H        -1.97249          2.07629         0.29682
  H        -1.39291          0.91206        -1.03194
14
 step=         383     theta[rad]=           4.0108
  C        -1.19619          1.48902        -0.19129
  C         0.05180          1.53815         0.30401
  C         1.18573          0.67502        -0.08770
  C         1.17960         -0.66726        -0.09255
  C         0.06189         -1.51409         0.27818
  C        -1.17562         -1.51071        -0.15982
  H         0.49280          2.16663         1.10349
  H         2.15951          1.14682        -0.19700
  H         2.12950         -1.18164        -0.20246
  H         0.09473         -2.28032         1.07875
  H        -1.97215         -2.07627         0.29747
  H        -1.39561         -0.91222        -1.03219
  H        -1.97152          2.07667         0.29181
  H        -1.53510          0.93676        -1.05398
14
 step=         384     theta[rad]=           4.0212
  C        -1.18179          1.50413        -0.16932
  C         0.05886          1.52148         0.28599
  C         1.18132          0.67007        -0.09114
  C         1.18336         -0.67265        -0.08953
  C         0.05551         -1.52948         0.29457
  C        -1.18863         -1.49692        -0.17977
  H         0.21640          2.24593         1.08596
  H         2.13889          1.17080        -0.20001
  H         2.14886         -1.15922        -0.19820
  H         0.34870         -2.20815         1.09418
  H        -1.97197         -2.07655         0.29336
  H        -1.48421         -0.92803        -1.04614
  H        -1.97218          2.07641         0.29524
  H        -1.43784          0.91987        -1.03891
14
 step=         385     theta[rad]=           4.0317
  C        -1.17906          1.50701        -0.16514
  C         0.06021          1.51832         0.28256
  C         1.18048          0.66913        -0.09179
  C         1.18407         -0.67367        -0.08896
  C         0.05430         -1.53240         0.29769
  C        -1.19111         -1.49430        -0.18357
  H         0.16383          2.26102         1.08263
  H         2.13496          1.17536        -0.20058
  H         2.15254         -1.15496        -0.19739
  H         0.39701         -2.19442         1.09712
  H        -1.97194         -2.07660         0.29258
  H        -1.50106         -0.93103        -1.04879
  H        -1.97231          2.07636         0.29589
  H        -1.41934          0.91665        -1.03604
14
 step=         386     theta[rad]=           4.0422
  C        -1.19695          1.48822        -0.19245
  C         0.05142          1.53903         0.30497
  C         1.18596          0.67528        -0.08752
  C         1.17940         -0.66698        -0.09271
  C         0.06223         -1.51328         0.27731
  C        -1.17493         -1.51144        -0.15876
  H         0.50748          2.16242         1.10443
  H         2.16061          1.14555        -0.19684
  H         2.12847         -1.18283        -0.20269
  H         0.08124         -2.28415         1.07793
  H        -1.97216         -2.07626         0.29769
  H        -1.39090         -0.91138        -1.03145
  H        -1.97148          2.07668         0.29163
  H        -1.54026          0.93766        -1.05478
14
 step=         387     theta[rad]=           4.0527
  C        -1.17743          1.50872        -0.16266
  C         0.06100          1.51643         0.28053
  C         1.17998          0.66857        -0.09218
  C         1.18449         -0.67428        -0.08862
  C         0.05357         -1.53414         0.29954
  C        -1.19258         -1.49275        -0.18582
  H         0.13261          2.26997         1.08065
  H         2.13263          1.17806        -0.20092
  H         2.15473         -1.15242        -0.19691
  H         0.42569         -2.18627         1.09886
  H        -1.97192         -2.07663         0.29212
  H        -1.51107         -0.93282        -1.05037
  H        -1.97239          2.07634         0.29627
  H        -1.40836          0.91475        -1.03434
14
 step=         388     theta[rad]=           4.0631
  C        -1.18345          1.50240        -0.17184
  C         0.05805          1.52340         0.28806
  C         1.18183          0.67064        -0.09074
  C         1.18293         -0.67203        -0.08988
  C         0.05624         -1.52771         0.29269
  C        -1.18714         -1.49851        -0.17748
  H         0.24814          2.23683         1.08798
  H         2.14125          1.16804        -0.19966
  H         2.14664         -1.16180        -0.19869
  H         0.31954         -2.21644         1.09241
  H        -1.97199         -2.07651         0.29384
  H        -1.47404         -0.92621        -1.04454
  H        -1.97211          2.07644         0.29484
  H        -1.44901          0.92181        -1.04064
14
 step=         389     theta[rad]=           4.0736
  C        -1.19574          1.48949        -0.19060
  C         0.05202          1.53762         0.30345
  C         1.18559          0.67487        -0.08781
  C         1.17972         -0.66743        -0.09245
  C         0.06169         -1.51458         0.27869
  C        -1.17603         -1.51028        -0.16044
  H         0.48415          2.16912         1.10295
  H         2.15886          1.14757        -0.19710
  H         2.13010         -1.18094        -0.20233
  H         0.10268         -2.27806         1.07923
  H        -1.97215         -2.07628         0.29735
  H        -1.39838         -0.91271        -1.03262
  H        -1.97154          2.07666         0.29192
  H        -1.53205          0.93624        -1.05351
14
 step=         390     theta[rad]=           4.0841
  C        -1.17503          1.51124        -0.15900
  C         0.06218          1.51366         0.27753
  C         1.17925          0.66775        -0.09276
  C         1.18512         -0.67518        -0.08811
  C         0.05251         -1.53670         0.30228
  C        -1.19475         -1.49045        -0.18915
  H         0.08654          2.28319         1.07773
  H         2.12920          1.18206        -0.20142
  H         2.15795         -1.14869        -0.19620
  H         0.46802         -2.17424         1.10143
  H        -1.97189         -2.07667         0.29143
  H        -1.52584         -0.93545        -1.05269
  H        -1.97250          2.07629         0.29685
  H        -1.39215          0.91193        -1.03182
14
 step=         391     theta[rad]=           4.0945
  C        -1.18708          1.49858        -0.17739
  C         0.05627          1.52761         0.29261
  C         1.18294          0.67189        -0.08988
  C         1.18198         -0.67067        -0.09064
  C         0.05785         -1.52383         0.28855
  C        -1.18385         -1.50199        -0.17244
  H         0.31794          2.21680         1.09240
  H         2.14646          1.16199        -0.19890
  H         2.14175         -1.16746        -0.19976
  H         0.25540         -2.23466         1.08851
  H        -1.97204         -2.07645         0.29487
  H        -1.45166         -0.92222        -1.04101
  H        -1.97194          2.07651         0.29398
  H        -1.47357          0.92608        -1.04444
14
 step=         392     theta[rad]=           4.1050
  C        -1.19385          1.49147        -0.18773
  C         0.05294          1.53545         0.30109
  C         1.18502          0.67422        -0.08826
  C         1.18021         -0.66814        -0.09206
  C         0.06085         -1.51659         0.28084
  C        -1.17773         -1.50848        -0.16305
  H         0.44800          2.17949         1.10065
  H         2.15617          1.15071        -0.19749
  H         2.13264         -1.17801        -0.20177
  H         0.13590         -2.26862         1.08125
  H        -1.97212         -2.07632         0.29681
  H        -1.40997         -0.91478        -1.03445
  H        -1.97162          2.07663         0.29237
  H        -1.51933          0.93403        -1.05153
14
 step=         393     theta[rad]=           4.1155
  C        -1.17405          1.51227        -0.15749
  C         0.06266          1.51252         0.27629
  C         1.17895          0.66741        -0.09299
  C         1.18538         -0.67555        -0.08791
  C         0.05207         -1.53776         0.30340
  C        -1.19564         -1.48950        -0.19052
  H         0.06760          2.28863         1.07652
  H         2.12778          1.18370        -0.20163
  H         2.15928         -1.14715        -0.19590
  H         0.48543         -2.16930         1.10249
  H        -1.97187         -2.07669         0.29115
  H        -1.53191         -0.93654        -1.05365
  H        -1.97254          2.07628         0.29708
  H        -1.38548          0.91077        -1.03079
14
 step=         394     theta[rad]=           4.1260
  C        -1.18955          1.49599        -0.18115
  C         0.05506          1.53046         0.29570
  C         1.18370          0.67274        -0.08929
  C         1.18133         -0.66975        -0.09115
  C         0.05895         -1.52119         0.28574
  C        -1.18162         -1.50435        -0.16902
  H         0.36531          2.20321         1.09541
  H         2.15000          1.15788        -0.19839
  H         2.13843         -1.17130        -0.20049
  H         0.21188         -2.24703         1.08587
  H        -1.97207         -2.07640         0.29558
  H        -1.43648         -0.91951        -1.03862
  H        -1.97182          2.07655         0.29339
  H        -1.49024          0.92897        -1.04703
14
 step=         395     theta[rad]=           4.1364
  C        -1.19221          1.49319        -0.18522
  C         0.05375          1.53355         0.29904
  C         1.18451          0.67365        -0.08865
  C         1.18064         -0.66875        -0.09171
  C         0.06013         -1.51834         0.28271
  C        -1.17921         -1.50691        -0.16533
  H         0.41649          2.18853         1.09865
  H         2.15382          1.15344        -0.19783
  H         2.13484         -1.17545        -0.20128
  H         0.16485         -2.26040         1.08301
  H        -1.97210         -2.07635         0.29634
  H        -1.42007         -0.91658        -1.03604
  H        -1.97170          2.07660         0.29276
  H        -1.50825          0.93210        -1.04982
14
 step=         396     theta[rad]=           4.1469
  C        -1.17379          1.51254        -0.15710
  C         0.06279          1.51222         0.27597
  C         1.17887          0.66732        -0.09305
  C         1.18544         -0.67565        -0.08785
  C         0.05196         -1.53803         0.30369
  C        -1.19587         -1.48926        -0.19087
  H         0.06267          2.29004         1.07621
  H         2.12741          1.18413        -0.20168
  H         2.15963         -1.14675        -0.19583
  H         0.48996         -2.16801         1.10276
  H        -1.97187         -2.07670         0.29108
  H        -1.53349         -0.93682        -1.05390
  H        -1.97256          2.07627         0.29714
  H        -1.38375          0.91047        -1.03052
14
 step=         397     theta[rad]=           4.1574
  C        -1.19088          1.49460        -0.18318
  C         0.05441          1.53200         0.29736
  C         1.18410          0.67319        -0.08897
  C         1.18099         -0.66925        -0.09143
  C         0.05953         -1.51977         0.28423
  C        -1.18042         -1.50562        -0.16718
  H         0.39078          2.19590         1.09702
  H         2.15190          1.15567        -0.19811
  H         2.13664         -1.17337        -0.20089
  H         0.18847         -2.25368         1.08445
  H        -1.97208         -2.07637         0.29596
  H        -1.42831         -0.91805        -1.03734
  H        -1.97176          2.07657         0.29308
  H        -1.49920          0.93053        -1.04841
14
 step=         398     theta[rad]=           4.1678
  C        -1.19130          1.49415        -0.18383
  C         0.05420          1.53249         0.29789
  C         1.18423          0.67334        -0.08887
  C         1.18088         -0.66909        -0.09152
  C         0.05972         -1.51932         0.28375
  C        -1.18004         -1.50603        -0.16660
  H         0.39893          2.19357         1.09754
  H         2.15251          1.15496        -0.19802
  H         2.13607         -1.17403        -0.20101
  H         0.18099         -2.25581         1.08399
  H        -1.97209         -2.07637         0.29608
  H        -1.42570         -0.91759        -1.03692
  H        -1.97174          2.07658         0.29297
  H        -1.50207          0.93103        -1.04886
14
 step=         399     theta[rad]=           4.1783
  C        -1.17377          1.51257        -0.15707
  C         0.06280          1.51219         0.27594
  C         1.17886          0.66731        -0.09306
  C         1.18545         -0.67566        -0.08785
  C         0.05195         -1.53806         0.30372
  C        -1.19589         -1.48923        -0.19091
  H         0.06223          2.29017         1.07618
  H         2.12738          1.18417        -0.20168
  H         2.15966         -1.14671        -0.19582
  H         0.49037         -2.16789         1.10279
  H        -1.97187         -2.07670         0.29107
  H        -1.53363         -0.93684        -1.05392
  H        -1.97256          2.07627         0.29715
  H        -1.38359          0.91044        -1.03050
14
 step=         400     theta[rad]=           4.1888
  C        -1.19119          1.49426        -0.18367
  C         0.05425          1.53237         0.29776
  C         1.18420          0.67330        -0.08889
  C         1.18090         -0.66913        -0.09150
  C         0.05967         -1.51943         0.28387
  C        -1.18014         -1.50593        -0.16674
  H         0.39691          2.19415         1.09741
  H         2.15235          1.15514        -0.19804
  H         2.13621         -1.17387        -0.20098
  H         0.18284         -2.25528         1.08410
  H        -1.97209         -2.07637         0.29605
  H        -1.42635         -0.91770        -1.03703
  H        -1.97175          2.07658         0.29300
  H        -1.50136          0.93090        -1.04875
14
 step=         401     theta[rad]=           4.1993
  C        -1.19130          1.49415        -0.18383
  C         0.05420          1.53249         0.29789
  C         1.18423          0.67334        -0.08887
  C         1.18088         -0.66909        -0.09152
  C         0.05972         -1.51932         0.28375
  C        -1.18004         -1.50603        -0.16660
  H         0.39893          2.19357         1.09754
  H         2.15251          1.15496        -0.19802
  H         2.13607         -1.17403        -0.20101
  H         0.18099         -2.25581         1.08399
  H        -1.97209         -2.07637         0.29608
  H        -1.42570         -0.91759        -1.03692
  H        -1.97174          2.07658         0.29297
  H        -1.50207          0.93103        -1.04886
14
 step=         402     theta[rad]=           4.2097
  C        -1.17377          1.51256        -0.15707
  C         0.06280          1.51220         0.27595
  C         1.17886          0.66732        -0.09306
  C         1.18545         -0.67565        -0.08785
  C         0.05195         -1.53805         0.30371
  C        -1.19589         -1.48924        -0.19090
  H         0.06234          2.29014         1.07619
  H         2.12739          1.18416        -0.20168
  H         2.15965         -1.14672        -0.19582
  H         0.49026         -2.16792         1.10278
  H        -1.97187         -2.07670         0.29107
  H        -1.53360         -0.93684        -1.05391
  H        -1.97256          2.07627         0.29714
  H        -1.38363          0.91045        -1.03050
14
 step=         403     theta[rad]=           4.2202
  C        -1.19055          1.49494        -0.18268
  C         0.05456          1.53162         0.29695
  C         1.18400          0.67308        -0.08905
  C         1.18107         -0.66937        -0.09136
  C         0.05939         -1.52012         0.28460
  C        -1.18072         -1.50531        -0.16763
  H         0.38455          2.19769         1.09663
  H         2.15143          1.15621        -0.19818
  H         2.13708         -1.17286        -0.20079
  H         0.19419         -2.25206         1.08479
  H        -1.97208         -2.07638         0.29586
  H        -1.43031         -0.91841        -1.03765
  H        -1.97178          2.07657         0.29315
  H        -1.49701          0.93015        -1.04807
14
 step=         404     theta[rad]=           4.2307
  C        -1.19221          1.49319        -0.18522
  C         0.05375          1.53355         0.29904
  C         1.18451          0.67365        -0.08865
  C         1.18064         -0.66875        -0.09171
  C         0.06013         -1.51834         0.28271
  C        -1.17921         -1.50691        -0.16533
  H         0.41649          2.18853         1.09865
  H         2.15382          1.15344        -0.19783
  H         2.13484         -1.17545        -0.20128
  H         0.16485         -2.26040         1.08301
  H        -1.97210         -2.07635         0.29634
  H        -1.42007         -0.91658        -1.03604
  H        -1.97170          2.07660         0.29276
  H        -1.50825          0.93210        -1.04982
14
 step=         405     theta[rad]=           4.2412
  C        -1.17391          1.51241        -0.15728
  C         0.06273          1.51236         0.27612
  C         1.17891          0.66736        -0.09302
  C         1.18541         -0.67560        -0.08788
  C         0.05201         -1.53791         0.30356
  C        -1.19576         -1.48937        -0.19071
  H         0.06497          2.28938         1.07636
  H         2.12759          1.18393        -0.20165
  H         2.15947         -1.14694        -0.19586
  H         0.48784         -2.16861         1.10264
  H        -1.97187         -2.07669         0.29111
  H        -1.53275         -0.93669        -1.05378
  H        -1.97255          2.07627         0.29711
  H        -1.38456          0.91061        -1.03065
14
 step=         406     theta[rad]=           4.2516
  C        -1.18886          1.49672        -0.18010
  C         0.05540          1.52966         0.29484
  C         1.18349          0.67250        -0.08945
  C         1.18151         -0.67001        -0.09101
  C         0.05864         -1.52193         0.28653
  C        -1.18225         -1.50369        -0.16998
  H         0.35207          2.20701         1.09457
  H         2.14901          1.15903        -0.19853
  H         2.13936         -1.17023        -0.20029
  H         0.22404         -2.24358         1.08661
  H        -1.97206         -2.07641         0.29538
  H        -1.44072         -0.92027        -1.03929
  H        -1.97186          2.07654         0.29356
  H        -1.48558          0.92816        -1.04630
14
 step=         407     theta[rad]=           4.2621
  C        -1.19385          1.49147        -0.18773
  C         0.05294          1.53545         0.30109
  C         1.18502          0.67422        -0.08826
  C         1.18021         -0.66814        -0.09206
  C         0.06085         -1.51659         0.28084
  C        -1.17773         -1.50848        -0.16305
  H         0.44800          2.17949         1.10065
  H         2.15617          1.15071        -0.19749
  H         2.13264         -1.17801        -0.20177
  H         0.13590         -2.26862         1.08125
  H        -1.97212         -2.07632         0.29681
  H        -1.40997         -0.91478        -1.03445
  H        -1.97162          2.07663         0.29237
  H        -1.51933          0.93403        -1.05153
14
 step=         408     theta[rad]=           4.2726
  C        -1.17458          1.51171        -0.15831
  C         0.06240          1.51314         0.27696
  C         1.17911          0.66759        -0.09286
  C         1.18524         -0.67535        -0.08802
  C         0.05231         -1.53719         0.30279
  C        -1.19515         -1.49002        -0.18978
  H         0.07789          2.28567         1.07718
  H         2.12855          1.18281        -0.20151
  H         2.15856         -1.14799        -0.19606
  H         0.47597         -2.17199         1.10191
  H        -1.97188         -2.07668         0.29130
  H        -1.52861         -0.93595        -1.05313
  H        -1.97252          2.07628         0.29695
  H        -1.38911          0.91140        -1.03135
14
 step=         409     theta[rad]=           4.2830
  C        -1.18599          1.49973        -0.17573
  C         0.05680          1.52634         0.29125
  C         1.18261          0.67152        -0.09014
  C         1.18226         -0.67108        -0.09041
  C         0.05737         -1.52499         0.28979
  C        -1.18484         -1.50095        -0.17395
  H         0.29702          2.22280         1.09108
  H         2.14490          1.16380        -0.19913
  H         2.14321         -1.16576        -0.19944
  H         0.27462         -2.22920         1.08968
  H        -1.97202         -2.07647         0.29456
  H        -1.45837         -0.92341        -1.04207
  H        -1.97199          2.07649         0.29424
  H        -1.46621          0.92480        -1.04330
14
 step=         410     theta[rad]=           4.2935
  C        -1.19574          1.48949        -0.19060
  C         0.05202          1.53762         0.30345
  C         1.18559          0.67487        -0.08781
  C         1.17972         -0.66743        -0.09245
  C         0.06169         -1.51458         0.27869
  C        -1.17603         -1.51028        -0.16044
  H         0.48415          2.16912         1.10295
  H         2.15886          1.14757        -0.19710
  H         2.13010         -1.18094        -0.20233
  H         0.10268         -2.27806         1.07923
  H        -1.97215         -2.07628         0.29735
  H        -1.39838         -0.91271        -1.03262
  H        -1.97154          2.07666         0.29192
  H        -1.53205          0.93624        -1.05351
14
 step=         411     theta[rad]=           4.3040
  C        -1.17643          1.50977        -0.16114
  C         0.06149          1.51528         0.27928
  C         1.17968          0.66823        -0.09242
  C         1.18475         -0.67466        -0.08841
  C         0.05313         -1.53521         0.30068
  C        -1.19348         -1.49179        -0.18721
  H         0.11343          2.27548         1.07943
  H         2.13120          1.17973        -0.20113
  H         2.15607         -1.15087        -0.19661
  H         0.44332         -2.18126         1.09993
  H        -1.97190         -2.07665         0.29183
  H        -1.51722         -0.93392        -1.05134
  H        -1.97243          2.07632         0.29651
  H        -1.40161          0.91357        -1.03329
14
 step=         412     theta[rad]=           4.3145
  C        -1.18203          1.50389        -0.16967
  C         0.05875          1.52175         0.28628
  C         1.18139          0.67015        -0.09108
  C         1.18330         -0.67256        -0.08958
  C         0.05561         -1.52923         0.29431
  C        -1.18842         -1.49715        -0.17945
  H         0.22086          2.24466         1.08625
  H         2.13922          1.17041        -0.19996
  H         2.14855         -1.15958        -0.19827
  H         0.34461         -2.20932         1.09393
  H        -1.97197         -2.07654         0.29343
  H        -1.48278         -0.92777        -1.04591
  H        -1.97217          2.07642         0.29518
  H        -1.43941          0.92014        -1.03915
14
 step=         413     theta[rad]=           4.3249
  C        -1.19695          1.48822        -0.19245
  C         0.05142          1.53903         0.30497
  C         1.18596          0.67528        -0.08752
  C         1.17940         -0.66698        -0.09271
  C         0.06223         -1.51328         0.27731
  C        -1.17493         -1.51144        -0.15876
  H         0.50748          2.16242         1.10443
  H         2.16061          1.14555        -0.19684
  H         2.12847         -1.18283        -0.20269
  H         0.08124         -2.28415         1.07793
  H        -1.97216         -2.07626         0.29769
  H        -1.39090         -0.91138        -1.03145
  H        -1.97148          2.07668         0.29163
  H        -1.54026          0.93766        -1.05478
14
 step=         414     theta[rad]=           4.3354
  C        -1.18011          1.50590        -0.16675
  C         0.05969          1.51953         0.28388
  C         1.18080          0.66949        -0.09154
  C         1.18380         -0.67328        -0.08918
  C         0.05476         -1.53128         0.29649
  C        -1.19016         -1.49531        -0.18211
  H         0.18405          2.25522         1.08391
  H         2.13647          1.17360        -0.20036
  H         2.15112         -1.15660        -0.19770
  H         0.37842         -2.19970         1.09599
  H        -1.97195         -2.07658         0.29288
  H        -1.49458         -0.92988        -1.04777
  H        -1.97226          2.07638         0.29564
  H        -1.42646          0.91789        -1.03714
14
 step=         415     theta[rad]=           4.3459
  C        -1.17761          1.50853        -0.16293
  C         0.06092          1.51664         0.28075
  C         1.18004          0.66864        -0.09214
  C         1.18445         -0.67422        -0.08865
  C         0.05365         -1.53395         0.29934
  C        -1.19242         -1.49292        -0.18558
  H         0.13605          2.26899         1.08087
  H         2.13289          1.17777        -0.20088
  H         2.15449         -1.15270        -0.19696
  H         0.42253         -2.18717         1.09867
  H        -1.97192         -2.07662         0.29217
  H        -1.50997         -0.93262        -1.05019
  H        -1.97238          2.07634         0.29623
  H        -1.40957          0.91496        -1.03452
14
 step=         416     theta[rad]=           4.3563
  C        -1.19619          1.48902        -0.19129
  C         0.05180          1.53815         0.30401
  C         1.18573          0.67502        -0.08770
  C         1.17960         -0.66726        -0.09255
  C         0.06189         -1.51409         0.27818
  C        -1.17562         -1.51071        -0.15982
  H         0.49280          2.16663         1.10349
  H         2.15951          1.14682        -0.19700
  H         2.12950         -1.18164        -0.20246
  H         0.09473         -2.28032         1.07875
  H        -1.97215         -2.07627         0.29747
  H        -1.39561         -0.91222        -1.03219
  H        -1.97152          2.07667         0.29181
  H        -1.53510          0.93676        -1.05398
14
 step=         417     theta[rad]=           4.3668
  C        -1.18575          1.49998        -0.17536
  C         0.05692          1.52606         0.29094
  C         1.18253          0.67143        -0.09019
  C         1.18232         -0.67117        -0.09036
  C         0.05726         -1.52525         0.29007
  C        -1.18506         -1.50071        -0.17429
  H         0.29236          2.22414         1.09078
  H         2.14455          1.16421        -0.19918
  H         2.14354         -1.16538        -0.19937
  H         0.27891         -2.22798         1.08994
  H        -1.97202         -2.07647         0.29449
  H        -1.45986         -0.92368        -1.04230
  H        -1.97200          2.07648         0.29430
  H        -1.46457          0.92451        -1.04305
14
 step=         418     theta[rad]=           4.3773
  C        -1.17430          1.51201        -0.15788
  C         0.06254          1.51281         0.27661
  C         1.17902          0.66750        -0.09293
  C         1.18531         -0.67546        -0.08796
  C         0.05219         -1.53749         0.30311
  C        -1.19541         -1.48974        -0.19017
  H         0.07244          2.28724         1.07683
  H         2.12814          1.18328        -0.20157
  H         2.15894         -1.14754        -0.19598
  H         0.48098         -2.17056         1.10222
  H        -1.97188         -2.07669         0.29122
  H        -1.53036         -0.93626        -1.05341
  H        -1.97253          2.07628         0.29702
  H        -1.38718          0.91107        -1.03106
14
 step=         419     theta[rad]=           4.3878
  C        -1.19221          1.49319        -0.18522
  C         0.05375          1.53355         0.29904
  C         1.18451          0.67365        -0.08865
  C         1.18064         -0.66875        -0.09171
  C         0.06013         -1.51834         0.28271
  C        -1.17921         -1.50691        -0.16533
  H         0.41649          2.18853         1.09865
  H         2.15382          1.15344        -0.19783
  H         2.13484         -1.17545        -0.20128
  H         0.16485         -2.26040         1.08301
  H        -1.97210         -2.07635         0.29634
  H        -1.42007         -0.91658        -1.03604
  H        -1.97170          2.07660         0.29276
  H        -1.50825          0.93210        -1.04982
14
 step=         420     theta[rad]=           4.3982
  C        -1.19221          1.49319        -0.18522
  C         0.05375          1.53355         0.29904
  C         1.18451          0.67365        -0.08865
  C         1.18064         -0.66875        -0.09171
  C         0.06013         -1.51834         0.28271
  C        -1.17921         -1.50691        -0.16533
  H         0.41649          2.18853         1.09865
  H         2.15382          1.15344        -0.19783
  H         2.13484         -1.17545        -0.20128
  H         0.16485         -2.26040         1.08301
  H        -1.97210         -2.07635         0.29634
  H        -1.42007         -0.91658        -1.03604
  H        -1.97170          2.07660         0.29276
  H        -1.50825          0.93210        -1.04982
14
 step=         421     theta[rad]=           4.4087
  C        -1.17437          1.51193        -0.15799
  C         0.06250          1.51289         0.27670
  C         1.17905          0.66752        -0.09291
  C         1.18529         -0.67543        -0.08797
  C         0.05222         -1.53741         0.30303
  C        -1.19534         -1.48982        -0.19006
  H         0.07388          2.28682         1.07692
  H         2.12825          1.18316        -0.20156
  H         2.15884         -1.14766        -0.19600
  H         0.47966         -2.17094         1.10214
  H        -1.97188         -2.07669         0.29124
  H        -1.52990         -0.93618        -1.05333
  H        -1.97253          2.07628         0.29700
  H        -1.38769          0.91116        -1.03113
14
 step=         422     theta[rad]=           4.4192
  C        -1.18502          1.50075        -0.17424
  C         0.05728          1.52522         0.29003
  C         1.18231          0.67118        -0.09037
  C         1.18252         -0.67144        -0.09021
  C         0.05694         -1.52603         0.29090
  C        -1.18572         -1.50001        -0.17530
  H         0.27834          2.22816         1.08989
  H         2.14351          1.16542        -0.19933
  H         2.14452         -1.16425        -0.19915
  H         0.29179         -2.22432         1.09072
  H        -1.97201         -2.07648         0.29428
  H        -1.46436         -0.92448        -1.04301
  H        -1.97203          2.07647         0.29447
  H        -1.45963          0.92365        -1.04228
14
 step=         423     theta[rad]=           4.4296
  C        -1.19664          1.48855        -0.19197
  C         0.05158          1.53867         0.30457
  C         1.18587          0.67517        -0.08759
  C         1.17948         -0.66709        -0.09264
  C         0.06209         -1.51361         0.27767
  C        -1.17521         -1.51114        -0.15919
  H         0.50146          2.16415         1.10404
  H         2.16016          1.14607        -0.19691
  H         2.12889         -1.18235        -0.20259
  H         0.08678         -2.28258         1.07827
  H        -1.97216         -2.07627         0.29760
  H        -1.39283         -0.91172        -1.03175
  H        -1.97149          2.07668         0.29170
  H        -1.53814          0.93729        -1.05445
14
 step=         424     theta[rad]=           4.4401
  C        -1.17958          1.50646        -0.16593
  C         0.05995          1.51892         0.28321
  C         1.18064          0.66931        -0.09167
  C         1.18394         -0.67348        -0.08906
  C         0.05453         -1.53185         0.29710
  C        -1.19064         -1.49480        -0.18285
  H         0.17379          2.25816         1.08326
  H         2.13571          1.17449        -0.20047
  H         2.15184         -1.15576        -0.19754
  H         0.38786         -2.19702         1.09656
  H        -1.97194         -2.07659         0.29273
  H        -1.49787         -0.93046        -1.04829
  H        -1.97229          2.07637         0.29576
  H        -1.42285          0.91726        -1.03658
14
 step=         425     theta[rad]=           4.4506
  C        -1.17717          1.50899        -0.16226
  C         0.06113          1.51613         0.28020
  C         1.17990          0.66848        -0.09225
  C         1.18456         -0.67438        -0.08856
  C         0.05346         -1.53442         0.29984
  C        -1.19282         -1.49249        -0.18619
  H         0.12758          2.27142         1.08033
  H         2.13226          1.17850        -0.20097
  H         2.15508         -1.15202        -0.19683
  H         0.43032         -2.18496         1.09914
  H        -1.97191         -2.07663         0.29204
  H        -1.51268         -0.93311        -1.05062
  H        -1.97240          2.07633         0.29634
  H        -1.40659          0.91444        -1.03406
14
 step=         426     theta[rad]=           4.4611
  C        -1.19539          1.48986        -0.19006
  C         0.05219          1.53722         0.30301
  C         1.18548          0.67474        -0.08789
  C         1.17981         -0.66756        -0.09238
  C         0.06153         -1.51495         0.27909
  C        -1.17635         -1.50994        -0.16093
  H         0.47740          2.17105         1.10252
  H         2.15836          1.14816        -0.19717
  H         2.13058         -1.18039        -0.20222
  H         0.10888         -2.27630         1.07961
  H        -1.97214         -2.07629         0.29725
  H        -1.40055         -0.91310        -1.03296
  H        -1.97155          2.07665         0.29200
  H        -1.52968          0.93582        -1.05314
14
 step=         427     theta[rad]=           4.4715
  C        -1.18874          1.49684        -0.17992
  C         0.05545          1.52953         0.29469
  C         1.18345          0.67246        -0.08948
  C         1.18154         -0.67005        -0.09099
  C         0.05859         -1.52205         0.28666
  C        -1.18235         -1.50358        -0.17014
  H         0.34984          2.20765         1.09443
  H         2.14884          1.15922        -0.19856
  H         2.13951         -1.17005        -0.20026
  H         0.22609         -2.24299         1.08673
  H        -1.97206         -2.07641         0.29535
  H        -1.44144         -0.92039        -1.03940
  H        -1.97186          2.07654         0.29358
  H        -1.48479          0.92803        -1.04618
14
 step=         428     theta[rad]=           4.4820
  C        -1.17379          1.51254        -0.15710
  C         0.06279          1.51222         0.27597
  C         1.17887          0.66732        -0.09305
  C         1.18544         -0.67565        -0.08785
  C         0.05196         -1.53803         0.30369
  C        -1.19587         -1.48926        -0.19087
  H         0.06267          2.29004         1.07621
  H         2.12741          1.18413        -0.20168
  H         2.15963         -1.14675        -0.19583
  H         0.48996         -2.16801         1.10276
  H        -1.97187         -2.07670         0.29108
  H        -1.53349         -0.93682        -1.05390
  H        -1.97256          2.07627         0.29714
  H        -1.38375          0.91047        -1.03052
14
 step=         429     theta[rad]=           4.4925
  C        -1.18720          1.49846        -0.17757
  C         0.05621          1.52774         0.29276
  C         1.18298          0.67193        -0.08985
  C         1.18195         -0.67063        -0.09066
  C         0.05791         -1.52370         0.28841
  C        -1.18374         -1.50211        -0.17228
  H         0.32025          2.21614         1.09255
  H         2.14663          1.16179        -0.19888
  H         2.14158         -1.16765        -0.19980
  H         0.25328         -2.23527         1.08838
  H        -1.97204         -2.07644         0.29491
  H        -1.45092         -0.92209        -1.04090
  H        -1.97193          2.07651         0.29395
  H        -1.47438          0.92622        -1.04457
14
 step=         430     theta[rad]=           4.5029
  C        -1.19623          1.48897        -0.19135
  C         0.05178          1.53820         0.30407
  C         1.18574          0.67504        -0.08769
  C         1.17959         -0.66725        -0.09255
  C         0.06191         -1.51405         0.27813
  C        -1.17558         -1.51075        -0.15976
  H         0.49365          2.16639         1.10355
  H         2.15957          1.14675        -0.19699
  H         2.12944         -1.18171        -0.20247
  H         0.09395         -2.28054         1.07870
  H        -1.97215         -2.07627         0.29749
  H        -1.39534         -0.91217        -1.03214
  H        -1.97151          2.07667         0.29180
  H        -1.53540          0.93682        -1.05402
14
 step=         431     theta[rad]=           4.5134
  C        -1.17916          1.50690        -0.16530
  C         0.06016          1.51843         0.28269
  C         1.18051          0.66917        -0.09177
  C         1.18404         -0.67364        -0.08898
  C         0.05434         -1.53229         0.29758
  C        -1.19102         -1.49440        -0.18343
  H         0.16579          2.26045         1.08275
  H         2.13511          1.17519        -0.20056
  H         2.15240         -1.15512        -0.19742
  H         0.39520         -2.19494         1.09701
  H        -1.97194         -2.07660         0.29261
  H        -1.50043         -0.93092        -1.04869
  H        -1.97231          2.07637         0.29586
  H        -1.42003          0.91677        -1.03615
14
 step=         432     theta[rad]=           4.5239
  C        -1.17692          1.50926        -0.16187
  C         0.06126          1.51584         0.27988
  C         1.17983          0.66840        -0.09231
  C         1.18463         -0.67448        -0.08851
  C         0.05335         -1.53469         0.30013
  C        -1.19304         -1.49225        -0.18654
  H         0.12270          2.27282         1.08002
  H         2.13189          1.17892        -0.20103
  H         2.15542         -1.15162        -0.19675
  H         0.43480         -2.18368         1.09941
  H        -1.97191         -2.07664         0.29197
  H        -1.51425         -0.93339        -1.05087
  H        -1.97241          2.07633         0.29640
  H        -1.40487          0.91414        -1.03380
14
 step=         433     theta[rad]=           4.5344
  C        -1.19471          1.49057        -0.18904
  C         0.05252          1.53644         0.30216
  C         1.18528          0.67451        -0.08805
  C         1.17999         -0.66781        -0.09224
  C         0.06123         -1.51567         0.27986
  C        -1.17696         -1.50930        -0.16186
  H         0.46447          2.17476         1.10170
  H         2.15740          1.14928        -0.19731
  H         2.13148         -1.17935        -0.20202
  H         0.12076         -2.27293         1.08033
  H        -1.97213         -2.07630         0.29705
  H        -1.40469         -0.91384        -1.03362
  H        -1.97158          2.07664         0.29216
  H        -1.52513          0.93503        -1.05243
14
 step=         434     theta[rad]=           4.5448
  C        -1.19066          1.49482        -0.18285
  C         0.05451          1.53175         0.29709
  C         1.18404          0.67312        -0.08902
  C         1.18104         -0.66933        -0.09139
  C         0.05944         -1.52000         0.28448
  C        -1.18062         -1.50542        -0.16748
  H         0.38664          2.19709         1.09676
  H         2.15159          1.15603        -0.19816
  H         2.13693         -1.17303        -0.20082
  H         0.19228         -2.25260         1.08468
  H        -1.97208         -2.07638         0.29590
  H        -1.42964         -0.91829        -1.03754
  H        -1.97177          2.07657         0.29313
  H        -1.49774          0.93028        -1.04819
14
 step=         435     theta[rad]=           4.5553
  C        -1.17433          1.51197        -0.15793
  C         0.06252          1.51285         0.27665
  C         1.17904          0.66751        -0.09292
  C         1.18530         -0.67544        -0.08797
  C         0.05220         -1.53745         0.30307
  C        -1.19538         -1.48978        -0.19012
  H         0.07315          2.28704         1.07688
  H         2.12820          1.18322        -0.20157
  H         2.15889         -1.14760        -0.19599
  H         0.48033         -2.17075         1.10218
  H        -1.97188         -2.07669         0.29123
  H        -1.53013         -0.93622        -1.05337
  H        -1.97253          2.07628         0.29701
  H        -1.38743          0.91111        -1.03109
14
 step=         436     theta[rad]=           4.5658
  C        -1.18345          1.50240        -0.17184
  C         0.05805          1.52340         0.28806
  C         1.18183          0.67064        -0.09074
  C         1.18293         -0.67203        -0.08988
  C         0.05624         -1.52771         0.29269
  C        -1.18714         -1.49851        -0.17748
  H         0.24814          2.23683         1.08798
  H         2.14125          1.16804        -0.19966
  H         2.14664         -1.16180        -0.19869
  H         0.31954         -2.21644         1.09241
  H        -1.97199         -2.07651         0.29384
  H        -1.47404         -0.92621        -1.04454
  H        -1.97211          2.07644         0.29484
  H        -1.44901          0.92181        -1.04064
14
 step=         437     theta[rad]=           4.5763
  C        -1.19700          1.48817        -0.19252
  C         0.05140          1.53908         0.30502
  C         1.18598          0.67530        -0.08750
  C         1.17939         -0.66696        -0.09272
  C         0.06225         -1.51323         0.27726
  C        -1.17489         -1.51149        -0.15869
  H         0.50836          2.16217         1.10448
  H         2.16067          1.14547        -0.19683
  H         2.12841         -1.18291        -0.20270
  H         0.08044         -2.28438         1.07788
  H        -1.97216         -2.07626         0.29771
  H        -1.39062         -0.91133        -1.03140
  H        -1.97148          2.07668         0.29162
  H        -1.54057          0.93772        -1.05483
14
 step=         438     theta[rad]=           4.5867
  C        -1.18429          1.50151        -0.17313
  C         0.05764          1.52438         0.28912
  C         1.18209          0.67093        -0.09054
  C         1.18271         -0.67172        -0.09005
  C         0.05662         -1.52681         0.29173
  C        -1.18638         -1.49932        -0.17631
  H         0.26435          2.23218         1.08900
  H         2.14246          1.16664        -0.19949
  H         2.14550         -1.16311        -0.19894
  H         0.30464         -2.22067         1.09150
  H        -1.97200         -2.07650         0.29408
  H        -1.46884         -0.92528        -1.04372
  H        -1.97207          2.07646         0.29464
  H        -1.45471          0.92280        -1.04152
14
 step=         439     theta[rad]=           4.5972
  C        -1.17402          1.51230        -0.15745
  C         0.06268          1.51249         0.27626
  C         1.17894          0.66740        -0.09300
  C         1.18538         -0.67556        -0.08790
  C         0.05206         -1.53779         0.30343
  C        -1.19566         -1.48948        -0.19055
  H         0.06710          2.28877         1.07649
  H         2.12774          1.18375        -0.20163
  H         2.15932         -1.14711        -0.19590
  H         0.48588         -2.16917         1.10252
  H        -1.97187         -2.07669         0.29114
  H        -1.53207         -0.93657        -1.05367
  H        -1.97254          2.07627         0.29709
  H        -1.38531          0.91074        -1.03076
14
 step=         440     theta[rad]=           4.6077
  C        -1.18898          1.49659        -0.18028
  C         0.05534          1.52980         0.29498
  C         1.18352          0.67254        -0.08942
  C         1.18148         -0.66996        -0.09103
  C         0.05869         -1.52180         0.28640
  C        -1.18214         -1.50380        -0.16982
  H         0.35430          2.20637         1.09471
  H         2.14917          1.15883        -0.19851
  H         2.13920         -1.17041        -0.20032
  H         0.22200         -2.24416         1.08648
  H        -1.97206         -2.07641         0.29541
  H        -1.44001         -0.92014        -1.03918
  H        -1.97185          2.07654         0.29353
  H        -1.48636          0.92830        -1.04642
14
 step=         441     theta[rad]=           4.6181
  C        -1.19605          1.48917        -0.19107
  C         0.05187          1.53798         0.30384
  C         1.18569          0.67497        -0.08773
  C         1.17964         -0.66731        -0.09252
  C         0.06183         -1.51424         0.27834
  C        -1.17575         -1.51058        -0.16001
  H         0.49012          2.16740         1.10332
  H         2.15931          1.14705        -0.19703
  H         2.12969         -1.18143        -0.20242
  H         0.09720         -2.27962         1.07890
  H        -1.97215         -2.07628         0.29743
  H        -1.39647         -0.91237        -1.03232
  H        -1.97152          2.07666         0.29185
  H        -1.53415          0.93660        -1.05383
14
 step=         442     theta[rad]=           4.6286
  C        -1.17989          1.50613        -0.16642
  C         0.05979          1.51929         0.28361
  C         1.18074          0.66942        -0.09159
  C         1.18385         -0.67336        -0.08913
  C         0.05467         -1.53151         0.29674
  C        -1.19035         -1.49510        -0.18241
  H         0.17991          2.25640         1.08365
  H         2.13616          1.17396        -0.20040
  H         2.15141         -1.15626        -0.19764
  H         0.38223         -2.19862         1.09622
  H        -1.97195         -2.07658         0.29282
  H        -1.49591         -0.93011        -1.04798
  H        -1.97227          2.07638         0.29569
  H        -1.42500          0.91764        -1.03692
14
 step=         443     theta[rad]=           4.6391
  C        -1.17557          1.51067        -0.15983
  C         0.06191          1.51429         0.27820
  C         1.17942          0.66794        -0.09263
  C         1.18498         -0.67498        -0.08823
  C         0.05275         -1.53613         0.30166
  C        -1.19426         -1.49097        -0.18840
  H         0.09696          2.28020         1.07839
  H         2.12997          1.18116        -0.20131
  H         2.15722         -1.14953        -0.19636
  H         0.45845         -2.17696         1.10085
  H        -1.97189         -2.07666         0.29159
  H        -1.52250         -0.93486        -1.05217
  H        -1.97247          2.07630         0.29672
  H        -1.39581          0.91257        -1.03239
14
 step=         444     theta[rad]=           4.6496
  C        -1.19221          1.49319        -0.18522
  C         0.05375          1.53355         0.29904
  C         1.18451          0.67365        -0.08865
  C         1.18064         -0.66875        -0.09171
  C         0.06013         -1.51834         0.28271
  C        -1.17921         -1.50691        -0.16533
  H         0.41649          2.18853         1.09865
  H         2.15382          1.15344        -0.19783
  H         2.13484         -1.17545        -0.20128
  H         0.16485         -2.26040         1.08301
  H        -1.97210         -2.07635         0.29634
  H        -1.42007         -0.91658        -1.03604
  H        -1.97170          2.07660         0.29276
  H        -1.50825          0.93210        -1.04982
14
 step=         445     theta[rad]=           4.6600
  C        -1.19441          1.49088        -0.18858
  C         0.05267          1.53609         0.30179
  C         1.18519          0.67441        -0.08812
  C         1.18007         -0.66793        -0.09217
  C         0.06110         -1.51599         0.28020
  C        -1.17723         -1.50901        -0.16228
  H         0.45875          2.17640         1.10133
  H         2.15697          1.14977        -0.19737
  H         2.13188         -1.17888        -0.20193
  H         0.12602         -2.27143         1.08065
  H        -1.97213         -2.07631         0.29697
  H        -1.40652         -0.91416        -1.03391
  H        -1.97160          2.07664         0.29223
  H        -1.52311          0.93468        -1.05212
14
 step=         446     theta[rad]=           4.6705
  C        -1.17770          1.50843        -0.16307
  C         0.06087          1.51675         0.28087
  C         1.18007          0.66867        -0.09212
  C         1.18442         -0.67418        -0.08867
  C         0.05369         -1.53385         0.29924
  C        -1.19233         -1.49300        -0.18545
  H         0.13779          2.26849         1.08098
  H         2.13302          1.17761        -0.20086
  H         2.15436         -1.15285        -0.19699
  H         0.42093         -2.18763         1.09857
  H        -1.97192         -2.07662         0.29219
  H        -1.50941         -0.93252        -1.05011
  H        -1.97237          2.07634         0.29621
  H        -1.41018          0.91506        -1.03462
14
 step=         447     theta[rad]=           4.6810
  C        -1.17692          1.50926        -0.16187
  C         0.06126          1.51584         0.27988
  C         1.17983          0.66840        -0.09231
  C         1.18463         -0.67448        -0.08851
  C         0.05335         -1.53469         0.30013
  C        -1.19304         -1.49225        -0.18654
  H         0.12270          2.27282         1.08002
  H         2.13189          1.17892        -0.20103
  H         2.15542         -1.15162        -0.19675
  H         0.43480         -2.18368         1.09941
  H        -1.97191         -2.07664         0.29197
  H        -1.51425         -0.93339        -1.05087
  H        -1.97241          2.07633         0.29640
  H        -1.40487          0.91414        -1.03380
14
 step=         448     theta[rad]=           4.6914
  C        -1.19351          1.49183        -0.18721
  C         0.05311          1.53505         0.30066
  C         1.18491          0.67410        -0.08834
  C         1.18030         -0.66826        -0.09199
  C         0.06070         -1.51695         0.28123
  C        -1.17804         -1.50815        -0.16352
  H         0.44146          2.18136         1.10024
  H         2.15568          1.15127        -0.19756
  H         2.13309         -1.17748        -0.20167
  H         0.14191         -2.26692         1.08162
  H        -1.97212         -2.07632         0.29671
  H        -1.41207         -0.91515        -1.03478
  H        -1.97164          2.07662         0.29245
  H        -1.51703          0.93363        -1.05118
14
 step=         449     theta[rad]=           4.7019
  C        -1.19360          1.49174        -0.18734
  C         0.05307          1.53515         0.30077
  C         1.18494          0.67413        -0.08832
  C         1.18028         -0.66823        -0.09200
  C         0.06074         -1.51686         0.28113
  C        -1.17796         -1.50823        -0.16340
  H         0.44312          2.18089         1.10034
  H         2.15580          1.15113        -0.19754
  H         2.13298         -1.17761        -0.20169
  H         0.14038         -2.26735         1.08152
  H        -1.97212         -2.07632         0.29674
  H        -1.41153         -0.91506        -1.03469
  H        -1.97164          2.07662         0.29243
  H        -1.51762          0.93373        -1.05127
14
 step=         450     theta[rad]=           4.7124
  C        -1.17717          1.50899        -0.16226
  C         0.06113          1.51613         0.28020
  C         1.17990          0.66848        -0.09225
  C         1.18456         -0.67438        -0.08856
  C         0.05346         -1.53442         0.29984
  C        -1.19282         -1.49249        -0.18619
  H         0.12758          2.27142         1.08033
  H         2.13226          1.17850        -0.20097
  H         2.15508         -1.15202        -0.19683
  H         0.43032         -2.18496         1.09914
  H        -1.97191         -2.07663         0.29204
  H        -1.51268         -0.93311        -1.05062
  H        -1.97240          2.07633         0.29634
  H        -1.40659          0.91444        -1.03406
14
 step=         451     theta[rad]=           4.7229
  C        -1.17708          1.50908        -0.16213
  C         0.06117          1.51603         0.28009
  C         1.17988          0.66845        -0.09227
  C         1.18459         -0.67441        -0.08854
  C         0.05342         -1.53451         0.29994
  C        -1.19289         -1.49241        -0.18631
  H         0.12593          2.27189         1.08022
  H         2.13213          1.17864        -0.20099
  H         2.15520         -1.15188        -0.19680
  H         0.43183         -2.18453         1.09923
  H        -1.97191         -2.07663         0.29202
  H        -1.51321         -0.93320        -1.05070
  H        -1.97240          2.07633         0.29636
  H        -1.40601          0.91434        -1.03397
14
 step=         452     theta[rad]=           4.7333
  C        -1.19334          1.49201        -0.18694
  C         0.05320          1.53485         0.30044
  C         1.18486          0.67404        -0.08838
  C         1.18035         -0.66833        -0.09195
  C         0.06063         -1.51714         0.28143
  C        -1.17820         -1.50798        -0.16377
  H         0.43808          2.18233         1.10002
  H         2.15543          1.15157        -0.19760
  H         2.13333         -1.17721        -0.20162
  H         0.14501         -2.26604         1.08180
  H        -1.97212         -2.07633         0.29666
  H        -1.41315         -0.91535        -1.03495
  H        -1.97165          2.07662         0.29249
  H        -1.51584          0.93342        -1.05099
14
 step=         453     theta[rad]=           4.7438
  C        -1.19410          1.49121        -0.18810
  C         0.05282          1.53573         0.30140
  C         1.18509          0.67430        -0.08820
  C         1.18015         -0.66804        -0.09211
  C         0.06096         -1.51632         0.28056
  C        -1.17751         -1.50871        -0.16271
  H         0.45271          2.17813         1.10095
  H         2.15652          1.15030        -0.19744
  H         2.13231         -1.17839        -0.20184
  H         0.13157         -2.26986         1.08099
  H        -1.97213         -2.07631         0.29688
  H        -1.40846         -0.91451        -1.03421
  H        -1.97161          2.07663         0.29231
  H        -1.52099          0.93431        -1.05179
14
 step=         454     theta[rad]=           4.7543
  C        -1.17807          1.50804        -0.16364
  C         0.06069          1.51718         0.28133
  C         1.18018          0.66879        -0.09203
  C         1.18433         -0.67404        -0.08875
  C         0.05386         -1.53346         0.29881
  C        -1.19200         -1.49336        -0.18493
  H         0.14493          2.26644         1.08143
  H         2.13355          1.17700        -0.20078
  H         2.15386         -1.15342        -0.19710
  H         0.41437         -2.18949         1.09817
  H        -1.97192         -2.07662         0.29230
  H        -1.50712         -0.93211        -1.04975
  H        -1.97236          2.07635         0.29612
  H        -1.41269          0.91550        -1.03501
14
 step=         455     theta[rad]=           4.7647
  C        -1.17599          1.51023        -0.16045
  C         0.06171          1.51476         0.27872
  C         1.17954          0.66808        -0.09253
  C         1.18487         -0.67482        -0.08831
  C         0.05293         -1.53569         0.30119
  C        -1.19389         -1.49136        -0.18783
  H         0.10484          2.27794         1.07889
  H         2.13056          1.18047        -0.20122
  H         2.15667         -1.15017        -0.19648
  H         0.45121         -2.17902         1.10041
  H        -1.97190         -2.07666         0.29170
  H        -1.51997         -0.93441        -1.05177
  H        -1.97245          2.07631         0.29662
  H        -1.39859          0.91305        -1.03282
14
 step=         456     theta[rad]=           4.7752
  C        -1.19161          1.49383        -0.18430
  C         0.05404          1.53285         0.29828
  C         1.18433          0.67345        -0.08879
  C         1.18080         -0.66898        -0.09159
  C         0.05986         -1.51899         0.28339
  C        -1.17976         -1.50633        -0.16616
  H         0.40490          2.19185         1.09792
  H         2.15295          1.15444        -0.19796
  H         2.13565         -1.17451        -0.20110
  H         0.17550         -2.25737         1.08366
  H        -1.97209         -2.07636         0.29617
  H        -1.42378         -0.91724        -1.03662
  H        -1.97173          2.07659         0.29290
  H        -1.50417          0.93139        -1.04918
14
 step=         457     theta[rad]=           4.7857
  C        -1.19562          1.48961        -0.19043
  C         0.05208          1.53749         0.30330
  C         1.18556          0.67483        -0.08783
  C         1.17975         -0.66747        -0.09243
  C         0.06164         -1.51470         0.27882
  C        -1.17613         -1.51017        -0.16060
  H         0.48198          2.16974         1.10281
  H         2.15870          1.14776        -0.19712
  H         2.13026         -1.18077        -0.20229
  H         0.10467         -2.27750         1.07935
  H        -1.97214         -2.07629         0.29731
  H        -1.39907         -0.91283        -1.03273
  H        -1.97154          2.07666         0.29195
  H        -1.53129          0.93610        -1.05339
14
 step=         458     theta[rad]=           4.7962
  C        -1.18077          1.50521        -0.16776
  C         0.05936          1.52030         0.28471
  C         1.18101          0.66972        -0.09138
  C         1.18362         -0.67303        -0.08932
  C         0.05505         -1.53057         0.29574
  C        -1.18956         -1.49594        -0.18119
  H         0.19673          2.25158         1.08472
  H         2.13742          1.17250        -0.20022
  H         2.15024         -1.15763        -0.19789
  H         0.36677         -2.20302         1.09528
  H        -1.97196         -2.07656         0.29307
  H        -1.49051         -0.92915        -1.04713
  H        -1.97223          2.07639         0.29548
  H        -1.43092          0.91867        -1.03783
14
 step=         459     theta[rad]=           4.8066
  C        -1.17433          1.51197        -0.15793
  C         0.06252          1.51285         0.27665
  C         1.17904          0.66751        -0.09292
  C         1.18530         -0.67544        -0.08797
  C         0.05220         -1.53745         0.30307
  C        -1.19538         -1.48978        -0.19012
  H         0.07315          2.28704         1.07688
  H         2.12820          1.18322        -0.20157
  H         2.15889         -1.14760        -0.19599
  H         0.48033         -2.17075         1.10218
  H        -1.97188         -2.07669         0.29123
  H        -1.53013         -0.93622        -1.05337
  H        -1.97253          2.07628         0.29701
  H        -1.38743          0.91111        -1.03109
14
 step=         460     theta[rad]=           4.8171
  C        -1.18780          1.49783        -0.17849
  C         0.05591          1.52844         0.29351
  C         1.18316          0.67214        -0.08970
  C         1.18179         -0.67040        -0.09079
  C         0.05817         -1.52306         0.28773
  C        -1.18320         -1.50268        -0.17145
  H         0.33174          2.21284         1.09328
  H         2.14749          1.16079        -0.19875
  H         2.14078         -1.16858        -0.19998
  H         0.24272         -2.23827         1.08774
  H        -1.97205         -2.07643         0.29508
  H        -1.44724         -0.92143        -1.04032
  H        -1.97190          2.07652         0.29381
  H        -1.47842          0.92692        -1.04519
14
 step=         461     theta[rad]=           4.8276
  C        -1.19695          1.48822        -0.19245
  C         0.05142          1.53903         0.30497
  C         1.18596          0.67528        -0.08752
  C         1.17940         -0.66698        -0.09271
  C         0.06223         -1.51328         0.27731
  C        -1.17493         -1.51144        -0.15876
  H         0.50748          2.16242         1.10443
  H         2.16061          1.14555        -0.19684
  H         2.12847         -1.18283        -0.20269
  H         0.08124         -2.28415         1.07793
  H        -1.97216         -2.07626         0.29769
  H        -1.39090         -0.91138        -1.03145
  H        -1.97148          2.07668         0.29163
  H        -1.54026          0.93766        -1.05478
14
 step=         462     theta[rad]=           4.8381
  C        -1.18575          1.49998        -0.17536
  C         0.05692          1.52606         0.29094
  C         1.18253          0.67143        -0.09019
  C         1.18232         -0.67117        -0.09036
  C         0.05726         -1.52525         0.29007
  C        -1.18506         -1.50071        -0.17429
  H         0.29236          2.22414         1.09078
  H         2.14455          1.16421        -0.19918
  H         2.14354         -1.16538        -0.19937
  H         0.27891         -2.22798         1.08994
  H        -1.97202         -2.07647         0.29449
  H        -1.45986         -0.92368        -1.04230
  H        -1.97200          2.07648         0.29430
  H        -1.46457          0.92451        -1.04305
14
 step=         463     theta[rad]=           4.8485
  C        -1.17393          1.51239        -0.15731
  C         0.06272          1.51238         0.27614
  C         1.17891          0.66737        -0.09302
  C         1.18541         -0.67559        -0.08788
  C         0.05202         -1.53788         0.30353
  C        -1.19574         -1.48939        -0.19068
  H         0.06535          2.28927         1.07638
  H         2.12761          1.18390        -0.20165
  H         2.15944         -1.14697        -0.19587
  H         0.48749         -2.16871         1.10261
  H        -1.97187         -2.07669         0.29112
  H        -1.53263         -0.93667        -1.05376
  H        -1.97255          2.07627         0.29711
  H        -1.38469          0.91063        -1.03067
14
 step=         464     theta[rad]=           4.8590
  C        -1.18179          1.50413        -0.16932
  C         0.05886          1.52148         0.28599
  C         1.18132          0.67007        -0.09114
  C         1.18336         -0.67265        -0.08953
  C         0.05551         -1.52948         0.29457
  C        -1.18863         -1.49692        -0.17977
  H         0.21640          2.24593         1.08596
  H         2.13889          1.17080        -0.20001
  H         2.14886         -1.15922        -0.19820
  H         0.34870         -2.20815         1.09418
  H        -1.97197         -2.07655         0.29336
  H        -1.48421         -0.92803        -1.04614
  H        -1.97218          2.07641         0.29524
  H        -1.43784          0.91987        -1.03891
14
 step=         465     theta[rad]=           4.8695
  C        -1.19574          1.48949        -0.19060
  C         0.05202          1.53762         0.30345
  C         1.18559          0.67487        -0.08781
  C         1.17972         -0.66743        -0.09245
  C         0.06169         -1.51458         0.27869
  C        -1.17603         -1.51028        -0.16044
  H         0.48415          2.16912         1.10295
  H         2.15886          1.14757        -0.19710
  H         2.13010         -1.18094        -0.20233
  H         0.10268         -2.27806         1.07923
  H        -1.97215         -2.07628         0.29735
  H        -1.39838         -0.91271        -1.03262
  H        -1.97154          2.07666         0.29192
  H        -1.53205          0.93624        -1.05351
14
 step=         466     theta[rad]=           4.8799
  C        -1.19231          1.49309        -0.18537
  C         0.05370          1.53366         0.29916
  C         1.18454          0.67369        -0.08862
  C         1.18061         -0.66871        -0.09173
  C         0.06017         -1.51824         0.28259
  C        -1.17913         -1.50700        -0.16519
  H         0.41838          2.18799         1.09877
  H         2.15396          1.15327        -0.19781
  H         2.13471         -1.17561        -0.20131
  H         0.16311         -2.26089         1.08291
  H        -1.97210         -2.07635         0.29637
  H        -1.41946         -0.91647        -1.03594
  H        -1.97170          2.07660         0.29273
  H        -1.50891          0.93222        -1.04992
14
 step=         467     theta[rad]=           4.8904
  C        -1.17743          1.50872        -0.16266
  C         0.06100          1.51643         0.28053
  C         1.17998          0.66857        -0.09218
  C         1.18449         -0.67428        -0.08862
  C         0.05357         -1.53414         0.29954
  C        -1.19258         -1.49275        -0.18582
  H         0.13261          2.26997         1.08065
  H         2.13263          1.17806        -0.20092
  H         2.15473         -1.15242        -0.19691
  H         0.42569         -2.18627         1.09886
  H        -1.97192         -2.07663         0.29212
  H        -1.51107         -0.93282        -1.05037
  H        -1.97239          2.07634         0.29627
  H        -1.40836          0.91475        -1.03434
14
 step=         468     theta[rad]=           4.9009
  C        -1.17557          1.51067        -0.15983
  C         0.06191          1.51429         0.27820
  C         1.17942          0.66794        -0.09263
  C         1.18498         -0.67498        -0.08823
  C         0.05275         -1.53613         0.30166
  C        -1.19426         -1.49097        -0.18840
  H         0.09696          2.28020         1.07839
  H         2.12997          1.18116        -0.20131
  H         2.15722         -1.14953        -0.19636
  H         0.45845         -2.17696         1.10085
  H        -1.97189         -2.07666         0.29159
  H        -1.52250         -0.93486        -1.05217
  H        -1.97247          2.07630         0.29672
  H        -1.39581          0.91257        -1.03239
14
 step=         469     theta[rad]=           4.9114
  C        -1.18955          1.49599        -0.18115
  C         0.05506          1.53046         0.29570
  C         1.18370          0.67274        -0.08929
  C         1.18133         -0.66975        -0.09115
  C         0.05895         -1.52119         0.28574
  C        -1.18162         -1.50435        -0.16902
  H         0.36531          2.20321         1.09541
  H         2.15000          1.15788        -0.19839
  H         2.13843         -1.17130        -0.20049
  H         0.21188         -2.24703         1.08587
  H        -1.97207         -2.07640         0.29558
  H        -1.43648         -0.91951        -1.03862
  H        -1.97182          2.07655         0.29339
  H        -1.49024          0.92897        -1.04703
14
 step=         470     theta[rad]=           4.9218
  C        -1.19686          1.48831        -0.19231
  C         0.05147          1.53893         0.30485
  C         1.18594          0.67525        -0.08754
  C         1.17943         -0.66701        -0.09269
  C         0.06219         -1.51337         0.27741
  C        -1.17501         -1.51136        -0.15888
  H         0.50572          2.16293         1.10431
  H         2.16047          1.14570        -0.19686
  H         2.12859         -1.18269        -0.20266
  H         0.08286         -2.28370         1.07803
  H        -1.97216         -2.07626         0.29767
  H        -1.39147         -0.91148        -1.03153
  H        -1.97148          2.07668         0.29165
  H        -1.53964          0.93755        -1.05468
14
 step=         471     theta[rad]=           4.9323
  C        -1.18611          1.49960        -0.17591
  C         0.05674          1.52649         0.29140
  C         1.18264          0.67156        -0.09011
  C         1.18223         -0.67103        -0.09043
  C         0.05742         -1.52486         0.28965
  C        -1.18473         -1.50106        -0.17378
  H         0.29936          2.22213         1.09122
  H         2.14508          1.16360        -0.19911
  H         2.14305         -1.16595        -0.19948
  H         0.27248         -2.22981         1.08955
  H        -1.97203         -2.07646         0.29460
  H        -1.45762         -0.92328        -1.04195
  H        -1.97198          2.07649         0.29421
  H        -1.46703          0.92494        -1.04343
14
 step=         472     theta[rad]=           4.9428
  C        -1.17426          1.51204        -0.15782
  C         0.06256          1.51277         0.27656
  C         1.17901          0.66748        -0.09294
  C         1.18532         -0.67547        -0.08795
  C         0.05217         -1.53753         0.30315
  C        -1.19544         -1.48971        -0.19022
  H         0.07175          2.28744         1.07679
  H         2.12809          1.18334        -0.20158
  H         2.15899         -1.14749        -0.19597
  H         0.48161         -2.17038         1.10226
  H        -1.97188         -2.07669         0.29121
  H        -1.53058         -0.93630        -1.05344
  H        -1.97253          2.07628         0.29703
  H        -1.38694          0.91103        -1.03102
14
 step=         473     theta[rad]=           4.9532
  C        -1.17947          1.50657        -0.16577
  C         0.06000          1.51879         0.28308
  C         1.18061          0.66927        -0.09170
  C         1.18396         -0.67352        -0.08904
  C         0.05448         -1.53196         0.29722
  C        -1.19073         -1.49470        -0.18300
  H         0.17177          2.25874         1.08313
  H         2.13555          1.17467        -0.20049
  H         2.15198         -1.15560        -0.19751
  H         0.38971         -2.19650         1.09667
  H        -1.97194         -2.07659         0.29270
  H        -1.49852         -0.93058        -1.04839
  H        -1.97229          2.07637         0.29579
  H        -1.42214          0.91714        -1.03647
14
 step=         474     theta[rad]=           4.9637
  C        -1.19360          1.49174        -0.18734
  C         0.05307          1.53515         0.30077
  C         1.18494          0.67413        -0.08832
  C         1.18028         -0.66823        -0.09200
  C         0.06074         -1.51686         0.28113
  C        -1.17796         -1.50823        -0.16340
  H         0.44312          2.18089         1.10034
  H         2.15580          1.15113        -0.19754
  H         2.13298         -1.17761        -0.20169
  H         0.14038         -2.26735         1.08152
  H        -1.97212         -2.07632         0.29674
  H        -1.41153         -0.91506        -1.03469
  H        -1.97164          2.07662         0.29243
  H        -1.51762          0.93373        -1.05127
14
 step=         475     theta[rad]=           4.9742
  C        -1.19545          1.48980        -0.19016
  C         0.05216          1.53729         0.30308
  C         1.18550          0.67477        -0.08788
  C         1.17980         -0.66754        -0.09239
  C         0.06156         -1.51489         0.27902
  C        -1.17629         -1.51000        -0.16084
  H         0.47858          2.17071         1.10259
  H         2.15845          1.14805        -0.19716
  H         2.13049         -1.18049        -0.20224
  H         0.10780         -2.27661         1.07954
  H        -1.97214         -2.07629         0.29726
  H        -1.40017         -0.91303        -1.03290
  H        -1.97155          2.07665         0.29199
  H        -1.53009          0.93590        -1.05320
14
 step=         476     theta[rad]=           4.9847
  C        -1.18250          1.50340        -0.17039
  C         0.05852          1.52230         0.28687
  C         1.18154          0.67031        -0.09097
  C         1.18317         -0.67239        -0.08968
  C         0.05582         -1.52873         0.29378
  C        -1.18800         -1.49760        -0.17880
  H         0.22986          2.24207         1.08682
  H         2.13989          1.16963        -0.19986
  H         2.14792         -1.16031        -0.19841
  H         0.33634         -2.21167         1.09343
  H        -1.97198         -2.07653         0.29356
  H        -1.47990         -0.92726        -1.04546
  H        -1.97215          2.07642         0.29507
  H        -1.44258          0.92069        -1.03964
14
 step=         477     theta[rad]=           4.9951
  C        -1.17377          1.51256        -0.15707
  C         0.06280          1.51220         0.27595
  C         1.17886          0.66732        -0.09306
  C         1.18545         -0.67565        -0.08785
  C         0.05195         -1.53805         0.30371
  C        -1.19589         -1.48924        -0.19090
  H         0.06234          2.29014         1.07619
  H         2.12739          1.18416        -0.20168
  H         2.15965         -1.14672        -0.19582
  H         0.49026         -2.16792         1.10278
  H        -1.97187         -2.07670         0.29107
  H        -1.53360         -0.93684        -1.05391
  H        -1.97256          2.07627         0.29714
  H        -1.38363          0.91045        -1.03050
14
 step=         478     theta[rad]=           5.0056
  C        -1.18168          1.50426        -0.16914
  C         0.05892          1.52135         0.28585
  C         1.18129          0.67003        -0.09117
  C         1.18339         -0.67269        -0.08951
  C         0.05546         -1.52960         0.29471
  C        -1.18874         -1.49681        -0.17993
  H         0.21418          2.24657         1.08582
  H         2.13872          1.17099        -0.20003
  H         2.14901         -1.15904        -0.19816
  H         0.35074         -2.20757         1.09431
  H        -1.97197         -2.07655         0.29333
  H        -1.48492         -0.92815        -1.04625
  H        -1.97219          2.07641         0.29526
  H        -1.43706          0.91973        -1.03878
14
 step=         479     theta[rad]=           5.0161
  C        -1.19478          1.49049        -0.18915
  C         0.05249          1.53652         0.30225
  C         1.18530          0.67454        -0.08803
  C         1.17997         -0.66779        -0.09225
  C         0.06127         -1.51559         0.27978
  C        -1.17689         -1.50937        -0.16176
  H         0.46586          2.17436         1.10179
  H         2.15750          1.14916        -0.19730
  H         2.13139         -1.17946        -0.20204
  H         0.11949         -2.27329         1.08025
  H        -1.97213         -2.07630         0.29707
  H        -1.40424         -0.91376        -1.03355
  H        -1.97158          2.07664         0.29215
  H        -1.52562          0.93512        -1.05251
14
 step=         480     theta[rad]=           5.0265
  C        -1.19478          1.49049        -0.18915
  C         0.05249          1.53652         0.30225
  C         1.18530          0.67454        -0.08803
  C         1.17997         -0.66779        -0.09225
  C         0.06127         -1.51559         0.27978
  C        -1.17689         -1.50937        -0.16176
  H         0.46586          2.17436         1.10179
  H         2.15750          1.14916        -0.19730
  H         2.13139         -1.17946        -0.20204
  H         0.11949         -2.27329         1.08025
  H        -1.97213         -2.07630         0.29707
  H        -1.40424         -0.91376        -1.03355
  H        -1.97158          2.07664         0.29215
  H        -1.52562          0.93512        -1.05251
14
 step=         481     theta[rad]=           5.0370
  C        -1.18191          1.50401        -0.16950
  C         0.05880          1.52162         0.28614
  C         1.18136          0.67011        -0.09111
  C         1.18333         -0.67261        -0.08955
  C         0.05556         -1.52935         0.29444
  C        -1.18853         -1.49704        -0.17961
  H         0.21862          2.24530         1.08610
  H         2.13905          1.17060        -0.19998
  H         2.14870         -1.15940        -0.19823
  H         0.34666         -2.20873         1.09406
  H        -1.97197         -2.07654         0.29340
  H        -1.48350         -0.92790        -1.04603
  H        -1.97218          2.07641         0.29521
  H        -1.43862          0.92000        -1.03903
14
 step=         482     theta[rad]=           5.0475
  C        -1.17377          1.51256        -0.15707
  C         0.06280          1.51220         0.27595
  C         1.17886          0.66732        -0.09306
  C         1.18545         -0.67565        -0.08785
  C         0.05195         -1.53805         0.30371
  C        -1.19589         -1.48924        -0.19090
  H         0.06234          2.29014         1.07619
  H         2.12739          1.18416        -0.20168
  H         2.15965         -1.14672        -0.19582
  H         0.49026         -2.16792         1.10278
  H        -1.97187         -2.07670         0.29107
  H        -1.53360         -0.93684        -1.05391
  H        -1.97256          2.07627         0.29714
  H        -1.38363          0.91045        -1.03050
14
 step=         483     theta[rad]=           5.0580
  C        -1.18111          1.50486        -0.16827
  C         0.05920          1.52069         0.28513
  C         1.18111          0.66984        -0.09130
  C         1.18354         -0.67291        -0.08939
  C         0.05520         -1.53021         0.29536
  C        -1.18925         -1.49627        -0.18073
  H         0.20321          2.24972         1.08513
  H         2.13790          1.17194        -0.20015
  H         2.14978         -1.15815        -0.19799
  H         0.36082         -2.20471         1.09492
  H        -1.97196         -2.07656         0.29317
  H        -1.48844         -0.92878        -1.04680
  H        -1.97222          2.07640         0.29540
  H        -1.43320          0.91906        -1.03819
14
 step=         484     theta[rad]=           5.0684
  C        -1.19402          1.49130        -0.18798
  C         0.05286          1.53564         0.30130
  C         1.18507          0.67427        -0.08822
  C         1.18017         -0.66807        -0.09209
  C         0.06093         -1.51641         0.28065
  C        -1.17758         -1.50863        -0.16282
  H         0.45116          2.17858         1.10085
  H         2.15640          1.15043        -0.19746
  H         2.13241         -1.17827        -0.20182
  H         0.13299         -2.26945         1.08107
  H        -1.97212         -2.07632         0.29685
  H        -1.40896         -0.91460        -1.03429
  H        -1.97162          2.07663         0.29233
  H        -1.52044          0.93422        -1.05171
14
 step=         485     theta[rad]=           5.0789
  C        -1.19574          1.48949        -0.19060
  C         0.05202          1.53762         0.30345
  C         1.18559          0.67487        -0.08781
  C         1.17972         -0.66743        -0.09245
  C         0.06169         -1.51458         0.27869
  C        -1.17603         -1.51028        -0.16044
  H         0.48415          2.16912         1.10295
  H         2.15886          1.14757        -0.19710
  H         2.13010         -1.18094        -0.20233
  H         0.10268         -2.27806         1.07923
  H        -1.97215         -2.07628         0.29735
  H        -1.39838         -0.91271        -1.03262
  H        -1.97154          2.07666         0.29192
  H        -1.53205          0.93624        -1.05351
14
 step=         486     theta[rad]=           5.0894
  C        -1.18429          1.50151        -0.17313
  C         0.05764          1.52438         0.28912
  C         1.18209          0.67093        -0.09054
  C         1.18271         -0.67172        -0.09005
  C         0.05662         -1.52681         0.29173
  C        -1.18638         -1.49932        -0.17631
  H         0.26435          2.23218         1.08900
  H         2.14246          1.16664        -0.19949
  H         2.14550         -1.16311        -0.19894
  H         0.30464         -2.22067         1.09150
  H        -1.97200         -2.07650         0.29408
  H        -1.46884         -0.92528        -1.04372
  H        -1.97207          2.07646         0.29464
  H        -1.45471          0.92280        -1.04152
14
 step=         487     theta[rad]=           5.0999
  C        -1.17426          1.51204        -0.15782
  C         0.06256          1.51277         0.27656
  C         1.17901          0.66748        -0.09294
  C         1.18532         -0.67547        -0.08795
  C         0.05217         -1.53753         0.30315
  C        -1.19544         -1.48971        -0.19022
  H         0.07175          2.28744         1.07679
  H         2.12809          1.18334        -0.20158
  H         2.15899         -1.14749        -0.19597
  H         0.48161         -2.17038         1.10226
  H        -1.97188         -2.07669         0.29121
  H        -1.53058         -0.93630        -1.05344
  H        -1.97253          2.07628         0.29703
  H        -1.38694          0.91103        -1.03102
14
 step=         488     theta[rad]=           5.1103
  C        -1.17798          1.50814        -0.16350
  C         0.06073          1.51707         0.28121
  C         1.18015          0.66876        -0.09205
  C         1.18435         -0.67408        -0.08873
  C         0.05382         -1.53356         0.29892
  C        -1.19208         -1.49327        -0.18507
  H         0.14312          2.26696         1.08132
  H         2.13342          1.17715        -0.20080
  H         2.15399         -1.15328        -0.19707
  H         0.41603         -2.18902         1.09827
  H        -1.97192         -2.07662         0.29227
  H        -1.50770         -0.93222        -1.04984
  H        -1.97236          2.07634         0.29614
  H        -1.41206          0.91539        -1.03491
14
 step=         489     theta[rad]=           5.1208
  C        -1.19066          1.49482        -0.18285
  C         0.05451          1.53175         0.29709
  C         1.18404          0.67312        -0.08902
  C         1.18104         -0.66933        -0.09139
  C         0.05944         -1.52000         0.28448
  C        -1.18062         -1.50542        -0.16748
  H         0.38664          2.19709         1.09676
  H         2.15159          1.15603        -0.19816
  H         2.13693         -1.17303        -0.20082
  H         0.19228         -2.25260         1.08468
  H        -1.97208         -2.07638         0.29590
  H        -1.42964         -0.91829        -1.03754
  H        -1.97177          2.07657         0.29313
  H        -1.49774          0.93028        -1.04819
14
 step=         490     theta[rad]=           5.1313
  C        -1.19699          1.48818        -0.19251
  C         0.05141          1.53907         0.30501
  C         1.18598          0.67529        -0.08751
  C         1.17939         -0.66696        -0.09271
  C         0.06224         -1.51324         0.27727
  C        -1.17490         -1.51148        -0.15871
  H         0.50816          2.16223         1.10447
  H         2.16066          1.14549        -0.19684
  H         2.12842         -1.18289        -0.20270
  H         0.08062         -2.28433         1.07789
  H        -1.97216         -2.07626         0.29770
  H        -1.39068         -0.91134        -1.03141
  H        -1.97148          2.07668         0.29162
  H        -1.54050          0.93770        -1.05481
14
 step=         491     theta[rad]=           5.1417
  C        -1.18966          1.49587        -0.18133
  C         0.05500          1.53059         0.29584
  C         1.18373          0.67278        -0.08926
  C         1.18130         -0.66970        -0.09118
  C         0.05900         -1.52107         0.28561
  C        -1.18152         -1.50446        -0.16887
  H         0.36748          2.20259         1.09555
  H         2.15016          1.15769        -0.19836
  H         2.13828         -1.17148        -0.20053
  H         0.20988         -2.24760         1.08575
  H        -1.97207         -2.07640         0.29561
  H        -1.43578         -0.91938        -1.03851
  H        -1.97182          2.07655         0.29336
  H        -1.49100          0.92910        -1.04714
14
 step=         492     theta[rad]=           5.1522
  C        -1.17743          1.50872        -0.16266
  C         0.06100          1.51643         0.28053
  C         1.17998          0.66857        -0.09218
  C         1.18449         -0.67428        -0.08862
  C         0.05357         -1.53414         0.29954
  C        -1.19258         -1.49275        -0.18582
  H         0.13261          2.26997         1.08065
  H         2.13263          1.17806        -0.20092
  H         2.15473         -1.15242        -0.19691
  H         0.42569         -2.18627         1.09886
  H        -1.97192         -2.07663         0.29212
  H        -1.51107         -0.93282        -1.05037
  H        -1.97239          2.07634         0.29627
  H        -1.40836          0.91475        -1.03434
14
 step=         493     theta[rad]=           5.1627
  C        -1.17430          1.51201        -0.15788
  C         0.06254          1.51281         0.27661
  C         1.17902          0.66750        -0.09293
  C         1.18531         -0.67546        -0.08796
  C         0.05219         -1.53749         0.30311
  C        -1.19541         -1.48974        -0.19017
  H         0.07244          2.28724         1.07683
  H         2.12814          1.18328        -0.20157
  H         2.15894         -1.14754        -0.19598
  H         0.48098         -2.17056         1.10222
  H        -1.97188         -2.07669         0.29122
  H        -1.53036         -0.93626        -1.05341
  H        -1.97253          2.07628         0.29702
  H        -1.38718          0.91107        -1.03106
14
 step=         494     theta[rad]=           5.1732
  C        -1.18357          1.50227        -0.17202
  C         0.05799          1.52354         0.28821
  C         1.18186          0.67068        -0.09072
  C         1.18289         -0.67199        -0.08990
  C         0.05629         -1.52758         0.29256
  C        -1.18703         -1.49862        -0.17732
  H         0.25044          2.23617         1.08812
  H         2.14143          1.16784        -0.19964
  H         2.14647         -1.16198        -0.19872
  H         0.31742         -2.21704         1.09228
  H        -1.97199         -2.07651         0.29387
  H        -1.47330         -0.92608        -1.04442
  H        -1.97210          2.07644         0.29481
  H        -1.44982          0.92195        -1.04076
14
 step=         495     theta[rad]=           5.1836
  C        -1.19478          1.49049        -0.18915
  C         0.05249          1.53652         0.30225
  C         1.18530          0.67454        -0.08803
  C         1.17997         -0.66779        -0.09225
  C         0.06127         -1.51559         0.27978
  C        -1.17689         -1.50937        -0.16176
  H         0.46586          2.17436         1.10179
  H         2.15750          1.14916        -0.19730
  H         2.13139         -1.17946        -0.20204
  H         0.11949         -2.27329         1.08025
  H        -1.97213         -2.07630         0.29707
  H        -1.40424         -0.91376        -1.03355
  H        -1.97158          2.07664         0.29215
  H        -1.52562          0.93512        -1.05251
14
 step=         496     theta[rad]=           5.1941
  C        -1.19579          1.48944        -0.19068
  C         0.05199          1.53769         0.30351
  C         1.18561          0.67488        -0.08779
  C         1.17971         -0.66741        -0.09246
  C         0.06171         -1.51452         0.27863
  C        -1.17598         -1.51033        -0.16037
  H         0.48520          2.16881         1.10301
  H         2.15894          1.14748        -0.19708
  H         2.13003         -1.18103        -0.20234
  H         0.10172         -2.27834         1.07917
  H        -1.97215         -2.07628         0.29736
  H        -1.39804         -0.91265        -1.03257
  H        -1.97153          2.07666         0.29191
  H        -1.53242          0.93630        -1.05356
14
 step=         497     theta[rad]=           5.2046
  C        -1.18575          1.49998        -0.17536
  C         0.05692          1.52606         0.29094
  C         1.18253          0.67143        -0.09019
  C         1.18232         -0.67117        -0.09036
  C         0.05726         -1.52525         0.29007
  C        -1.18506         -1.50071        -0.17429
  H         0.29236          2.22414         1.09078
  H         2.14455          1.16421        -0.19918
  H         2.14354         -1.16538        -0.19937
  H         0.27891         -2.22798         1.08994
  H        -1.97202         -2.07647         0.29449
  H        -1.45986         -0.92368        -1.04230
  H        -1.97200          2.07648         0.29430
  H        -1.46457          0.92451        -1.04305
14
 step=         498     theta[rad]=           5.2150
  C        -1.17538          1.51087        -0.15954
  C         0.06201          1.51406         0.27797
  C         1.17936          0.66787        -0.09267
  C         1.18503         -0.67505        -0.08819
  C         0.05267         -1.53633         0.30188
  C        -1.19443         -1.49078        -0.18866
  H         0.09330          2.28125         1.07815
  H         2.12970          1.18147        -0.20135
  H         2.15748         -1.14924        -0.19630
  H         0.46182         -2.17601         1.10105
  H        -1.97189         -2.07667         0.29153
  H        -1.52367         -0.93507        -1.05235
  H        -1.97248          2.07630         0.29676
  H        -1.39453          0.91234        -1.03219
14
 step=         499     theta[rad]=           5.2255
  C        -1.17532          1.51093        -0.15944
  C         0.06204          1.51399         0.27789
  C         1.17934          0.66785        -0.09269
  C         1.18504         -0.67507        -0.08817
  C         0.05264         -1.53639         0.30195
  C        -1.19448         -1.49073        -0.18875
  H         0.09212          2.28159         1.07808
  H         2.12961          1.18158        -0.20136
  H         2.15756         -1.14914        -0.19628
  H         0.46290         -2.17570         1.10112
  H        -1.97189         -2.07667         0.29152
  H        -1.52405         -0.93513        -1.05241
  H        -1.97248          2.07630         0.29678
  H        -1.39411          0.91227        -1.03213
14
 step=         500     theta[rad]=           5.2360
  C        -1.18539          1.50036        -0.17480
  C         0.05710          1.52564         0.29049
  C         1.18242          0.67131        -0.09028
  C         1.18242         -0.67131        -0.09028
  C         0.05710         -1.52564         0.29048
  C        -1.18539         -1.50036        -0.17480
  H         0.28535          2.22615         1.09034
  H         2.14403          1.16481        -0.19926
  H         2.14403         -1.16482        -0.19926
  H         0.28535         -2.22615         1.09033
  H        -1.97202         -2.07648         0.29439
  H        -1.46211         -0.92408        -1.04266
  H        -1.97202          2.07648         0.29438
  H        -1.46210          0.92408        -1.04267
14
 step=         501     theta[rad]=           5.2465
  C        -1.19539          1.48986        -0.19006
  C         0.05219          1.53722         0.30301
  C         1.18548          0.67474        -0.08789
  C         1.17981         -0.66756        -0.09238
  C         0.06153         -1.51495         0.27909
  C        -1.17635         -1.50994        -0.16093
  H         0.47740          2.17105         1.10252
  H         2.15836          1.14816        -0.19717
  H         2.13058         -1.18039        -0.20222
  H         0.10888         -2.27630         1.07961
  H        -1.97214         -2.07629         0.29725
  H        -1.40055         -0.91310        -1.03296
  H        -1.97155          2.07665         0.29200
  H        -1.52968          0.93582        -1.05314
14
 step=         502     theta[rad]=           5.2569
  C        -1.19562          1.48961        -0.19043
  C         0.05208          1.53749         0.30330
  C         1.18556          0.67483        -0.08783
  C         1.17975         -0.66747        -0.09243
  C         0.06164         -1.51470         0.27882
  C        -1.17613         -1.51017        -0.16060
  H         0.48198          2.16974         1.10281
  H         2.15870          1.14776        -0.19712
  H         2.13026         -1.18077        -0.20229
  H         0.10467         -2.27750         1.07935
  H        -1.97214         -2.07629         0.29731
  H        -1.39907         -0.91283        -1.03273
  H        -1.97154          2.07666         0.29195
  H        -1.53129          0.93610        -1.05339
14
 step=         503     theta[rad]=           5.2674
  C        -1.18611          1.49960        -0.17591
  C         0.05674          1.52649         0.29140
  C         1.18264          0.67156        -0.09011
  C         1.18223         -0.67103        -0.09043
  C         0.05742         -1.52486         0.28965
  C        -1.18473         -1.50106        -0.17378
  H         0.29936          2.22213         1.09122
  H         2.14508          1.16360        -0.19911
  H         2.14305         -1.16595        -0.19948
  H         0.27248         -2.22981         1.08955
  H        -1.97203         -2.07646         0.29460
  H        -1.45762         -0.92328        -1.04195
  H        -1.97198          2.07649         0.29421
  H        -1.46703          0.92494        -1.04343
14
 step=         504     theta[rad]=           5.2779
  C        -1.17599          1.51023        -0.16045
  C         0.06171          1.51476         0.27872
  C         1.17954          0.66808        -0.09253
  C         1.18487         -0.67482        -0.08831
  C         0.05293         -1.53569         0.30119
  C        -1.19389         -1.49136        -0.18783
  H         0.10484          2.27794         1.07889
  H         2.13056          1.18047        -0.20122
  H         2.15667         -1.15017        -0.19648
  H         0.45121         -2.17902         1.10041
  H        -1.97190         -2.07666         0.29170
  H        -1.51997         -0.93441        -1.05177
  H        -1.97245          2.07631         0.29662
  H        -1.39859          0.91305        -1.03282
14
 step=         505     theta[rad]=           5.2883
  C        -1.17454          1.51175        -0.15824
  C         0.06242          1.51308         0.27691
  C         1.17910          0.66758        -0.09287
  C         1.18525         -0.67537        -0.08801
  C         0.05229         -1.53723         0.30284
  C        -1.19519         -1.48997        -0.18984
  H         0.07704          2.28592         1.07712
  H         2.12849          1.18288        -0.20152
  H         2.15862         -1.14792        -0.19605
  H         0.47675         -2.17176         1.10196
  H        -1.97188         -2.07668         0.29129
  H        -1.52888         -0.93600        -1.05317
  H        -1.97252          2.07628         0.29696
  H        -1.38881          0.91135        -1.03131
14
 step=         506     theta[rad]=           5.2988
  C        -1.18285          1.50303        -0.17093
  C         0.05834          1.52271         0.28731
  C         1.18164          0.67044        -0.09089
  C         1.18308         -0.67225        -0.08975
  C         0.05598         -1.52835         0.29337
  C        -1.18768         -1.49794        -0.17831
  H         0.23667          2.24012         1.08725
  H         2.14040          1.16904        -0.19979
  H         2.14744         -1.16087        -0.19851
  H         0.33007         -2.21345         1.09305
  H        -1.97198         -2.07653         0.29367
  H        -1.47771         -0.92687        -1.04511
  H        -1.97213          2.07643         0.29499
  H        -1.44497          0.92111        -1.04001
14
 step=         507     theta[rad]=           5.3093
  C        -1.19334          1.49201        -0.18694
  C         0.05320          1.53485         0.30044
  C         1.18486          0.67404        -0.08838
  C         1.18035         -0.66833        -0.09195
  C         0.06063         -1.51714         0.28143
  C        -1.17820         -1.50798        -0.16377
  H         0.43808          2.18233         1.10002
  H         2.15543          1.15157        -0.19760
  H         2.13333         -1.17721        -0.20162
  H         0.14501         -2.26604         1.08180
  H        -1.97212         -2.07633         0.29666
  H        -1.41315         -0.91535        -1.03495
  H        -1.97165          2.07662         0.29249
  H        -1.51584          0.93342        -1.05099
14
 step=         508     theta[rad]=           5.3198
  C        -1.19688          1.48829        -0.19234
  C         0.05146          1.53895         0.30488
  C         1.18594          0.67526        -0.08753
  C         1.17942         -0.66700        -0.09269
  C         0.06219         -1.51336         0.27739
  C        -1.17500         -1.51137        -0.15886
  H         0.50608          2.16282         1.10434
  H         2.16050          1.14567        -0.19686
  H         2.12857         -1.18272        -0.20266
  H         0.08253         -2.28379         1.07801
  H        -1.97216         -2.07626         0.29767
  H        -1.39135         -0.91146        -1.03152
  H        -1.97148          2.07668         0.29165
  H        -1.53977          0.93758        -1.05470
14
 step=         509     theta[rad]=           5.3302
  C        -1.19066          1.49482        -0.18285
  C         0.05451          1.53175         0.29709
  C         1.18404          0.67312        -0.08902
  C         1.18104         -0.66933        -0.09139
  C         0.05944         -1.52000         0.28448
  C        -1.18062         -1.50542        -0.16748
  H         0.38664          2.19709         1.09676
  H         2.15159          1.15603        -0.19816
  H         2.13693         -1.17303        -0.20082
  H         0.19228         -2.25260         1.08468
  H        -1.97208         -2.07638         0.29590
  H        -1.42964         -0.91829        -1.03754
  H        -1.97177          2.07657         0.29313
  H        -1.49774          0.93028        -1.04819
14
 step=         510     theta[rad]=           5.3407
  C        -1.18011          1.50590        -0.16675
  C         0.05969          1.51953         0.28388
  C         1.18080          0.66949        -0.09154
  C         1.18380         -0.67328        -0.08918
  C         0.05476         -1.53128         0.29649
  C        -1.19016         -1.49531        -0.18211
  H         0.18405          2.25522         1.08391
  H         2.13647          1.17360        -0.20036
  H         2.15112         -1.15660        -0.19770
  H         0.37842         -2.19970         1.09599
  H        -1.97195         -2.07658         0.29288
  H        -1.49458         -0.92988        -1.04777
  H        -1.97226          2.07638         0.29564
  H        -1.42646          0.91789        -1.03714
14
 step=         511     theta[rad]=           5.3512
  C        -1.17393          1.51239        -0.15731
  C         0.06272          1.51238         0.27614
  C         1.17891          0.66737        -0.09302
  C         1.18541         -0.67559        -0.08788
  C         0.05202         -1.53788         0.30353
  C        -1.19574         -1.48939        -0.19068
  H         0.06535          2.28927         1.07638
  H         2.12761          1.18390        -0.20165
  H         2.15944         -1.14697        -0.19587
  H         0.48749         -2.16871         1.10261
  H        -1.97187         -2.07669         0.29112
  H        -1.53263         -0.93667        -1.05376
  H        -1.97255          2.07627         0.29711
  H        -1.38469          0.91063        -1.03067
14
 step=         512     theta[rad]=           5.3617
  C        -1.17692          1.50926        -0.16187
  C         0.06126          1.51584         0.27988
  C         1.17983          0.66840        -0.09231
  C         1.18463         -0.67448        -0.08851
  C         0.05335         -1.53469         0.30013
  C        -1.19304         -1.49225        -0.18654
  H         0.12270          2.27282         1.08002
  H         2.13189          1.17892        -0.20103
  H         2.15542         -1.15162        -0.19675
  H         0.43480         -2.18368         1.09941
  H        -1.97191         -2.07664         0.29197
  H        -1.51425         -0.93339        -1.05087
  H        -1.97241          2.07633         0.29640
  H        -1.40487          0.91414        -1.03380
14
 step=         513     theta[rad]=           5.3721
  C        -1.18648          1.49922        -0.17647
  C         0.05656          1.52691         0.29185
  C         1.18276          0.67168        -0.09002
  C         1.18213         -0.67090        -0.09051
  C         0.05758         -1.52447         0.28924
  C        -1.18440         -1.50141        -0.17328
  H         0.30634          2.22013         1.09167
  H         2.14560          1.16299        -0.19903
  H         2.14256         -1.16652        -0.19958
  H         0.26606         -2.23164         1.08916
  H        -1.97203         -2.07646         0.29470
  H        -1.45538         -0.92288        -1.04160
  H        -1.97197          2.07650         0.29412
  H        -1.46949          0.92537        -1.04381
14
 step=         514     theta[rad]=           5.3826
  C        -1.19513          1.49013        -0.18967
  C         0.05232          1.53692         0.30268
  C         1.18541          0.67466        -0.08795
  C         1.17988         -0.66766        -0.09232
  C         0.06142         -1.51523         0.27939
  C        -1.17658         -1.50970        -0.16128
  H         0.47247          2.17247         1.10220
  H         2.15799          1.14858        -0.19722
  H         2.13092         -1.18000        -0.20215
  H         0.11341         -2.27501         1.07989
  H        -1.97214         -2.07629         0.29717
  H        -1.40212         -0.91338        -1.03321
  H        -1.97156          2.07665         0.29206
  H        -1.52794          0.93552        -1.05287
14
 step=         515     theta[rad]=           5.3931
  C        -1.19644          1.48876        -0.19166
  C         0.05168          1.53843         0.30432
  C         1.18581          0.67510        -0.08764
  C         1.17954         -0.66717        -0.09260
  C         0.06200         -1.51383         0.27790
  C        -1.17540         -1.51095        -0.15947
  H         0.49755          2.16527         1.10380
  H         2.15986          1.14641        -0.19695
  H         2.12917         -1.18203        -0.20253
  H         0.09037         -2.28156         1.07849
  H        -1.97215         -2.07627         0.29754
  H        -1.39409         -0.91194        -1.03195
  H        -1.97150          2.07667         0.29175
  H        -1.53677          0.93706        -1.05424
14
 step=         516     theta[rad]=           5.4035
  C        -1.18966          1.49587        -0.18133
  C         0.05500          1.53059         0.29584
  C         1.18373          0.67278        -0.08926
  C         1.18130         -0.66970        -0.09118
  C         0.05900         -1.52107         0.28561
  C        -1.18152         -1.50446        -0.16887
  H         0.36748          2.20259         1.09555
  H         2.15016          1.15769        -0.19836
  H         2.13828         -1.17148        -0.20053
  H         0.20988         -2.24760         1.08575
  H        -1.97207         -2.07640         0.29561
  H        -1.43578         -0.91938        -1.03851
  H        -1.97182          2.07655         0.29336
  H        -1.49100          0.92910        -1.04714
14
 step=         517     theta[rad]=           5.4140
  C        -1.17989          1.50613        -0.16642
  C         0.05979          1.51929         0.28361
  C         1.18074          0.66942        -0.09159
  C         1.18385         -0.67336        -0.08913
  C         0.05467         -1.53151         0.29674
  C        -1.19035         -1.49510        -0.18241
  H         0.17991          2.25640         1.08365
  H         2.13616          1.17396        -0.20040
  H         2.15141         -1.15626        -0.19764
  H         0.38223         -2.19862         1.09622
  H        -1.97195         -2.07658         0.29282
  H        -1.49591         -0.93011        -1.04798
  H        -1.97227          2.07638         0.29569
  H        -1.42500          0.91764        -1.03692
14
 step=         518     theta[rad]=           5.4245
  C        -1.17405          1.51227        -0.15749
  C         0.06266          1.51252         0.27629
  C         1.17895          0.66741        -0.09299
  C         1.18538         -0.67555        -0.08791
  C         0.05207         -1.53776         0.30340
  C        -1.19564         -1.48950        -0.19052
  H         0.06760          2.28863         1.07652
  H         2.12778          1.18370        -0.20163
  H         2.15928         -1.14715        -0.19590
  H         0.48543         -2.16930         1.10249
  H        -1.97187         -2.07669         0.29115
  H        -1.53191         -0.93654        -1.05365
  H        -1.97254          2.07628         0.29708
  H        -1.38548          0.91077        -1.03079
14
 step=         519     theta[rad]=           5.4350
  C        -1.17599          1.51023        -0.16045
  C         0.06171          1.51476         0.27872
  C         1.17954          0.66808        -0.09253
  C         1.18487         -0.67482        -0.08831
  C         0.05293         -1.53569         0.30119
  C        -1.19389         -1.49136        -0.18783
  H         0.10484          2.27794         1.07889
  H         2.13056          1.18047        -0.20122
  H         2.15667         -1.15017        -0.19648
  H         0.45121         -2.17902         1.10041
  H        -1.97190         -2.07666         0.29170
  H        -1.51997         -0.93441        -1.05177
  H        -1.97245          2.07631         0.29662
  H        -1.39859          0.91305        -1.03282
14
 step=         520     theta[rad]=           5.4454
  C        -1.18417          1.50164        -0.17295
  C         0.05770          1.52424         0.28897
  C         1.18205          0.67089        -0.09057
  C         1.18274         -0.67176        -0.09003
  C         0.05656         -1.52694         0.29187
  C        -1.18649         -1.49920        -0.17648
  H         0.26202          2.23284         1.08886
  H         2.14229          1.16684        -0.19951
  H         2.14566         -1.16292        -0.19890
  H         0.30678         -2.22006         1.09163
  H        -1.97200         -2.07650         0.29404
  H        -1.46959         -0.92542        -1.04384
  H        -1.97207          2.07645         0.29467
  H        -1.45389          0.92266        -1.04139
14
 step=         521     theta[rad]=           5.4559
  C        -1.19307          1.49230        -0.18653
  C         0.05333          1.53454         0.30011
  C         1.18478          0.67395        -0.08844
  C         1.18042         -0.66843        -0.09189
  C         0.06051         -1.51743         0.28173
  C        -1.17844         -1.50772        -0.16414
  H         0.43290          2.18382         1.09969
  H         2.15504          1.15202        -0.19765
  H         2.13369         -1.17678        -0.20154
  H         0.14977         -2.26468         1.08209
  H        -1.97211         -2.07633         0.29658
  H        -1.41481         -0.91564        -1.03521
  H        -1.97166          2.07661         0.29255
  H        -1.51402          0.93310        -1.05071
14
 step=         522     theta[rad]=           5.4664
  C        -1.19700          1.48817        -0.19252
  C         0.05140          1.53908         0.30502
  C         1.18598          0.67530        -0.08750
  C         1.17939         -0.66696        -0.09272
  C         0.06225         -1.51323         0.27726
  C        -1.17489         -1.51149        -0.15869
  H         0.50836          2.16217         1.10448
  H         2.16067          1.14547        -0.19683
  H         2.12841         -1.18291        -0.20270
  H         0.08044         -2.28438         1.07788
  H        -1.97216         -2.07626         0.29771
  H        -1.39062         -0.91133        -1.03140
  H        -1.97148          2.07668         0.29162
  H        -1.54057          0.93772        -1.05483
14
 step=         523     theta[rad]=           5.4768
  C        -1.19369          1.49165        -0.18747
  C         0.05303          1.53525         0.30088
  C         1.18496          0.67416        -0.08830
  C         1.18025         -0.66820        -0.09202
  C         0.06078         -1.51677         0.28103
  C        -1.17788         -1.50832        -0.16329
  H         0.44476          2.18042         1.10045
  H         2.15593          1.15099        -0.19752
  H         2.13286         -1.17775        -0.20172
  H         0.13887         -2.26778         1.08143
  H        -1.97212         -2.07632         0.29676
  H        -1.41101         -0.91496        -1.03461
  H        -1.97163          2.07662         0.29241
  H        -1.51819          0.93383        -1.05136
14
 step=         524     theta[rad]=           5.4873
  C        -1.18538          1.50036        -0.17480
  C         0.05710          1.52564         0.29049
  C         1.18242          0.67131        -0.09028
  C         1.18242         -0.67131        -0.09028
  C         0.05710         -1.52564         0.29048
  C        -1.18539         -1.50036        -0.17480
  H         0.28535          2.22615         1.09034
  H         2.14403          1.16481        -0.19926
  H         2.14403         -1.16481        -0.19926
  H         0.28535         -2.22615         1.09033
  H        -1.97202         -2.07648         0.29439
  H        -1.46211         -0.92408        -1.04266
  H        -1.97202          2.07648         0.29438
  H        -1.46210          0.92408        -1.04266
14
 step=         525     theta[rad]=           5.4978
  C        -1.17717          1.50899        -0.16226
  C         0.06113          1.51613         0.28020
  C         1.17990          0.66848        -0.09225
  C         1.18456         -0.67438        -0.08856
  C         0.05346         -1.53442         0.29984
  C        -1.19282         -1.49249        -0.18619
  H         0.12758          2.27142         1.08033
  H         2.13226          1.17850        -0.20097
  H         2.15508         -1.15202        -0.19683
  H         0.43032         -2.18496         1.09914
  H        -1.97191         -2.07663         0.29204
  H        -1.51268         -0.93311        -1.05062
  H        -1.97240          2.07633         0.29634
  H        -1.40659          0.91444        -1.03406
14
 step=         526     theta[rad]=           5.5083
  C        -1.17377          1.51256        -0.15707
  C         0.06280          1.51219         0.27594
  C         1.17886          0.66731        -0.09306
  C         1.18545         -0.67566        -0.08785
  C         0.05195         -1.53806         0.30372
  C        -1.19589         -1.48923        -0.19091
  H         0.06224          2.29016         1.07618
  H         2.12738          1.18417        -0.20168
  H         2.15966         -1.14672        -0.19582
  H         0.49035         -2.16790         1.10279
  H        -1.97187         -2.07670         0.29107
  H        -1.53363         -0.93684        -1.05392
  H        -1.97256          2.07627         0.29715
  H        -1.38360          0.91044        -1.03050
14
 step=         527     theta[rad]=           5.5187
  C        -1.17692          1.50926        -0.16187
  C         0.06126          1.51584         0.27988
  C         1.17983          0.66840        -0.09231
  C         1.18463         -0.67448        -0.08851
  C         0.05335         -1.53469         0.30013
  C        -1.19304         -1.49225        -0.18654
  H         0.12270          2.27282         1.08002
  H         2.13189          1.17892        -0.20103
  H         2.15542         -1.15162        -0.19675
  H         0.43480         -2.18368         1.09941
  H        -1.97191         -2.07664         0.29197
  H        -1.51425         -0.93339        -1.05087
  H        -1.97241          2.07633         0.29640
  H        -1.40487          0.91414        -1.03380
14
 step=         528     theta[rad]=           5.5292
  C        -1.18466          1.50113        -0.17369
  C         0.05746          1.52480         0.28957
  C         1.18220          0.67106        -0.09046
  C         1.18261         -0.67158        -0.09013
  C         0.05678         -1.52642         0.29132
  C        -1.18605         -1.49967        -0.17581
  H         0.27134          2.23017         1.08945
  H         2.14298          1.16603        -0.19941
  H         2.14501         -1.16368        -0.19904
  H         0.29822         -2.22250         1.09111
  H        -1.97201         -2.07649         0.29418
  H        -1.46660         -0.92488        -1.04337
  H        -1.97205          2.07646         0.29456
  H        -1.45717          0.92323        -1.04190
14
 step=         529     theta[rad]=           5.5397
  C        -1.19270          1.49269        -0.18596
  C         0.05351          1.53411         0.29964
  C         1.18466          0.67382        -0.08853
  C         1.18051         -0.66857        -0.09181
  C         0.06034         -1.51782         0.28216
  C        -1.17878         -1.50737        -0.16466
  H         0.42576          2.18587         1.09924
  H         2.15451          1.15263        -0.19773
  H         2.13419         -1.17621        -0.20143
  H         0.15633         -2.26282         1.08249
  H        -1.97211         -2.07634         0.29648
  H        -1.41710         -0.91605        -1.03557
  H        -1.97168          2.07661         0.29264
  H        -1.51151          0.93267        -1.05032
14
 step=         530     theta[rad]=           5.5501
  C        -1.19686          1.48831        -0.19231
  C         0.05147          1.53893         0.30485
  C         1.18594          0.67525        -0.08754
  C         1.17943         -0.66701        -0.09269
  C         0.06219         -1.51337         0.27741
  C        -1.17501         -1.51136        -0.15888
  H         0.50572          2.16293         1.10431
  H         2.16047          1.14570        -0.19686
  H         2.12859         -1.18269        -0.20266
  H         0.08286         -2.28370         1.07803
  H        -1.97216         -2.07626         0.29767
  H        -1.39147         -0.91148        -1.03153
  H        -1.97148          2.07668         0.29165
  H        -1.53964          0.93755        -1.05468
14
 step=         531     theta[rad]=           5.5606
  C        -1.19520          1.49006        -0.18977
  C         0.05229          1.53700         0.30277
  C         1.18543          0.67468        -0.08794
  C         1.17986         -0.66763        -0.09234
  C         0.06145         -1.51515         0.27931
  C        -1.17652         -1.50976        -0.16119
  H         0.47373          2.17210         1.10228
  H         2.15809          1.14847        -0.19721
  H         2.13083         -1.18010        -0.20217
  H         0.11225         -2.27534         1.07981
  H        -1.97214         -2.07629         0.29719
  H        -1.40172         -0.91331        -1.03315
  H        -1.97156          2.07665         0.29205
  H        -1.52839          0.93560        -1.05294
14
 step=         532     theta[rad]=           5.5711
  C        -1.18874          1.49684        -0.17992
  C         0.05545          1.52953         0.29469
  C         1.18345          0.67246        -0.08948
  C         1.18154         -0.67005        -0.09099
  C         0.05859         -1.52205         0.28666
  C        -1.18235         -1.50358        -0.17014
  H         0.34984          2.20765         1.09443
  H         2.14884          1.15922        -0.19856
  H         2.13951         -1.17005        -0.20026
  H         0.22609         -2.24299         1.08673
  H        -1.97206         -2.07641         0.29535
  H        -1.44144         -0.92039        -1.03940
  H        -1.97186          2.07654         0.29358
  H        -1.48479          0.92803        -1.04618
14
 step=         533     theta[rad]=           5.5816
  C        -1.18077          1.50521        -0.16776
  C         0.05936          1.52030         0.28471
  C         1.18101          0.66972        -0.09138
  C         1.18362         -0.67303        -0.08932
  C         0.05505         -1.53057         0.29574
  C        -1.18956         -1.49594        -0.18119
  H         0.19673          2.25158         1.08472
  H         2.13742          1.17250        -0.20022
  H         2.15024         -1.15763        -0.19789
  H         0.36677         -2.20302         1.09528
  H        -1.97196         -2.07656         0.29307
  H        -1.49051         -0.92915        -1.04713
  H        -1.97223          2.07639         0.29548
  H        -1.43092          0.91867        -1.03783
14
 step=         534     theta[rad]=           5.5920
  C        -1.17503          1.51124        -0.15900
  C         0.06218          1.51366         0.27753
  C         1.17925          0.66775        -0.09276
  C         1.18512         -0.67518        -0.08811
  C         0.05251         -1.53670         0.30228
  C        -1.19475         -1.49045        -0.18915
  H         0.08654          2.28319         1.07773
  H         2.12920          1.18206        -0.20142
  H         2.15795         -1.14869        -0.19620
  H         0.46802         -2.17424         1.10143
  H        -1.97189         -2.07667         0.29143
  H        -1.52584         -0.93545        -1.05269
  H        -1.97250          2.07629         0.29685
  H        -1.39215          0.91193        -1.03182
14
 step=         535     theta[rad]=           5.6025
  C        -1.17402          1.51230        -0.15745
  C         0.06268          1.51249         0.27626
  C         1.17894          0.66740        -0.09300
  C         1.18538         -0.67556        -0.08790
  C         0.05206         -1.53779         0.30343
  C        -1.19566         -1.48948        -0.19055
  H         0.06710          2.28877         1.07649
  H         2.12774          1.18375        -0.20163
  H         2.15932         -1.14711        -0.19590
  H         0.48588         -2.16917         1.10252
  H        -1.97187         -2.07669         0.29114
  H        -1.53207         -0.93657        -1.05367
  H        -1.97254          2.07627         0.29709
  H        -1.38531          0.91074        -1.03076
14
 step=         536     theta[rad]=           5.6130
  C        -1.17798          1.50814        -0.16350
  C         0.06073          1.51707         0.28121
  C         1.18015          0.66876        -0.09205
  C         1.18435         -0.67408        -0.08873
  C         0.05382         -1.53356         0.29892
  C        -1.19208         -1.49327        -0.18507
  H         0.14312          2.26696         1.08132
  H         2.13342          1.17715        -0.20080
  H         2.15399         -1.15328        -0.19707
  H         0.41603         -2.18902         1.09827
  H        -1.97192         -2.07662         0.29227
  H        -1.50770         -0.93222        -1.04984
  H        -1.97236          2.07634         0.29614
  H        -1.41206          0.91539        -1.03491
14
 step=         537     theta[rad]=           5.6235
  C        -1.18502          1.50075        -0.17424
  C         0.05728          1.52522         0.29003
  C         1.18231          0.67118        -0.09037
  C         1.18252         -0.67144        -0.09021
  C         0.05694         -1.52603         0.29090
  C        -1.18572         -1.50001        -0.17530
  H         0.27834          2.22816         1.08989
  H         2.14351          1.16542        -0.19933
  H         2.14452         -1.16425        -0.19915
  H         0.29179         -2.22432         1.09072
  H        -1.97201         -2.07648         0.29428
  H        -1.46436         -0.92448        -1.04301
  H        -1.97203          2.07647         0.29447
  H        -1.45963          0.92365        -1.04228
14
 step=         538     theta[rad]=           5.6339
  C        -1.19212          1.49330        -0.18507
  C         0.05380          1.53343         0.29891
  C         1.18448          0.67362        -0.08867
  C         1.18066         -0.66879        -0.09169
  C         0.06008         -1.51845         0.28282
  C        -1.17930         -1.50681        -0.16546
  H         0.41460          2.18907         1.09853
  H         2.15367          1.15360        -0.19785
  H         2.13498         -1.17530        -0.20125
  H         0.16659         -2.25990         1.08312
  H        -1.97210         -2.07635         0.29631
  H        -1.42068         -0.91669        -1.03613
  H        -1.97170          2.07660         0.29278
  H        -1.50758          0.93198        -1.04971
14
 step=         539     theta[rad]=           5.6444
  C        -1.19644          1.48876        -0.19166
  C         0.05168          1.53843         0.30432
  C         1.18581          0.67510        -0.08764
  C         1.17954         -0.66717        -0.09260
  C         0.06200         -1.51383         0.27790
  C        -1.17540         -1.51095        -0.15947
  H         0.49755          2.16527         1.10380
  H         2.15986          1.14641        -0.19695
  H         2.12917         -1.18203        -0.20253
  H         0.09037         -2.28156         1.07849
  H        -1.97215         -2.07627         0.29754
  H        -1.39409         -0.91194        -1.03195
  H        -1.97150          2.07667         0.29175
  H        -1.53677          0.93706        -1.05424
14
 step=         540     theta[rad]=           5.6549
  C        -1.19644          1.48876        -0.19166
  C         0.05168          1.53843         0.30432
  C         1.18581          0.67510        -0.08764
  C         1.17954         -0.66717        -0.09260
  C         0.06200         -1.51383         0.27790
  C        -1.17540         -1.51095        -0.15947
  H         0.49755          2.16527         1.10380
  H         2.15986          1.14641        -0.19695
  H         2.12917         -1.18203        -0.20253
  H         0.09037         -2.28156         1.07849
  H        -1.97215         -2.07627         0.29754
  H        -1.39409         -0.91194        -1.03195
  H        -1.97150          2.07667         0.29175
  H        -1.53677          0.93706        -1.05424
14
 step=         541     theta[rad]=           5.6653
  C        -1.19231          1.49309        -0.18537
  C         0.05370          1.53366         0.29916
  C         1.18454          0.67369        -0.08862
  C         1.18061         -0.66871        -0.09173
  C         0.06017         -1.51824         0.28259
  C        -1.17913         -1.50700        -0.16519
  H         0.41838          2.18799         1.09877
  H         2.15396          1.15327        -0.19781
  H         2.13471         -1.17561        -0.20131
  H         0.16311         -2.26089         1.08291
  H        -1.97210         -2.07635         0.29637
  H        -1.41946         -0.91647        -1.03594
  H        -1.97170          2.07660         0.29273
  H        -1.50891          0.93222        -1.04992
14
 step=         542     theta[rad]=           5.6758
  C        -1.18575          1.49998        -0.17536
  C         0.05692          1.52606         0.29094
  C         1.18253          0.67143        -0.09019
  C         1.18232         -0.67117        -0.09036
  C         0.05726         -1.52525         0.29007
  C        -1.18506         -1.50071        -0.17429
  H         0.29236          2.22414         1.09078
  H         2.14455          1.16421        -0.19918
  H         2.14354         -1.16538        -0.19937
  H         0.27891         -2.22798         1.08994
  H        -1.97202         -2.07647         0.29449
  H        -1.45986         -0.92368        -1.04230
  H        -1.97200          2.07648         0.29430
  H        -1.46457          0.92451        -1.04305
14
 step=         543     theta[rad]=           5.6863
  C        -1.17916          1.50690        -0.16530
  C         0.06016          1.51843         0.28269
  C         1.18051          0.66917        -0.09177
  C         1.18404         -0.67364        -0.08898
  C         0.05434         -1.53229         0.29758
  C        -1.19102         -1.49440        -0.18343
  H         0.16579          2.26045         1.08275
  H         2.13511          1.17519        -0.20056
  H         2.15240         -1.15512        -0.19742
  H         0.39520         -2.19494         1.09701
  H        -1.97194         -2.07660         0.29261
  H        -1.50043         -0.93092        -1.04869
  H        -1.97231          2.07637         0.29586
  H        -1.42003          0.91677        -1.03615
14
 step=         544     theta[rad]=           5.6968
  C        -1.17477          1.51151        -0.15860
  C         0.06231          1.51335         0.27720
  C         1.17917          0.66766        -0.09282
  C         1.18519         -0.67528        -0.08806
  C         0.05240         -1.53698         0.30257
  C        -1.19498         -1.49020        -0.18951
  H         0.08152          2.28463         1.07741
  H         2.12882          1.18250        -0.20147
  H         2.15831         -1.14828        -0.19612
  H         0.47264         -2.17293         1.10171
  H        -1.97188         -2.07668         0.29136
  H        -1.52745         -0.93574        -1.05295
  H        -1.97251          2.07629         0.29691
  H        -1.39038          0.91162        -1.03155
14
 step=         545     theta[rad]=           5.7072
  C        -1.17391          1.51241        -0.15728
  C         0.06273          1.51236         0.27612
  C         1.17891          0.66736        -0.09302
  C         1.18541         -0.67560        -0.08788
  C         0.05201         -1.53791         0.30356
  C        -1.19576         -1.48937        -0.19071
  H         0.06497          2.28938         1.07636
  H         2.12759          1.18393        -0.20165
  H         2.15947         -1.14694        -0.19586
  H         0.48784         -2.16861         1.10264
  H        -1.97187         -2.07669         0.29111
  H        -1.53275         -0.93669        -1.05378
  H        -1.97255          2.07627         0.29711
  H        -1.38456          0.91061        -1.03065
14
 step=         546     theta[rad]=           5.7177
  C        -1.17667          1.50952        -0.16150
  C         0.06138          1.51555         0.27958
  C         1.17975          0.66831        -0.09236
  C         1.18469         -0.67457        -0.08846
  C         0.05324         -1.53496         0.30041
  C        -1.19327         -1.49202        -0.18688
  H         0.11798          2.27417         1.07972
  H         2.13154          1.17933        -0.20108
  H         2.15575         -1.15124        -0.19668
  H         0.43913         -2.18245         1.09968
  H        -1.97191         -2.07664         0.29190
  H        -1.51576         -0.93366        -1.05111
  H        -1.97242          2.07632         0.29646
  H        -1.40321          0.91385        -1.03354
14
 step=         547     theta[rad]=           5.7282
  C        -1.18203          1.50389        -0.16967
  C         0.05875          1.52175         0.28628
  C         1.18139          0.67015        -0.09108
  C         1.18330         -0.67256        -0.08958
  C         0.05561         -1.52923         0.29431
  C        -1.18842         -1.49715        -0.17945
  H         0.22086          2.24466         1.08625
  H         2.13922          1.17041        -0.19996
  H         2.14855         -1.15958        -0.19827
  H         0.34461         -2.20932         1.09393
  H        -1.97197         -2.07654         0.29343
  H        -1.48278         -0.92777        -1.04591
  H        -1.97217          2.07642         0.29518
  H        -1.43941          0.92014        -1.03915
14
 step=         548     theta[rad]=           5.7386
  C        -1.18827          1.49733        -0.17921
  C         0.05568          1.52899         0.29410
  C         1.18331          0.67230        -0.08959
  C         1.18167         -0.67022        -0.09089
  C         0.05838         -1.52255         0.28719
  C        -1.18278         -1.50313        -0.17079
  H         0.34084          2.21023         1.09386
  H         2.14817          1.16000        -0.19865
  H         2.14014         -1.16932        -0.20012
  H         0.23436         -2.24064         1.08723
  H        -1.97205         -2.07642         0.29521
  H        -1.44432         -0.92091        -1.03986
  H        -1.97188          2.07653         0.29369
  H        -1.48163          0.92748        -1.04569
14
 step=         549     theta[rad]=           5.7491
  C        -1.19360          1.49174        -0.18734
  C         0.05307          1.53515         0.30077
  C         1.18494          0.67413        -0.08832
  C         1.18028         -0.66823        -0.09200
  C         0.06074         -1.51686         0.28113
  C        -1.17796         -1.50823        -0.16340
  H         0.44312          2.18089         1.10034
  H         2.15580          1.15113        -0.19754
  H         2.13298         -1.17761        -0.20169
  H         0.14038         -2.26735         1.08152
  H        -1.97212         -2.07632         0.29674
  H        -1.41153         -0.91506        -1.03469
  H        -1.97164          2.07662         0.29243
  H        -1.51762          0.93373        -1.05127
14
 step=         550     theta[rad]=           5.7596
  C        -1.19661          1.48858        -0.19193
  C         0.05159          1.53863         0.30454
  C         1.18586          0.67516        -0.08760
  C         1.17949         -0.66710        -0.09263
  C         0.06207         -1.51364         0.27770
  C        -1.17524         -1.51111        -0.15923
  H         0.50087          2.16432         1.10401
  H         2.16011          1.14612        -0.19691
  H         2.12893         -1.18230        -0.20258
  H         0.08732         -2.28243         1.07830
  H        -1.97216         -2.07627         0.29759
  H        -1.39302         -0.91175        -1.03178
  H        -1.97150          2.07667         0.29171
  H        -1.53793          0.93726        -1.05442
14
 step=         551     theta[rad]=           5.7701
  C        -1.19664          1.48855        -0.19197
  C         0.05158          1.53867         0.30457
  C         1.18587          0.67517        -0.08759
  C         1.17948         -0.66709        -0.09264
  C         0.06209         -1.51361         0.27767
  C        -1.17521         -1.51114        -0.15919
  H         0.50146          2.16415         1.10404
  H         2.16016          1.14607        -0.19691
  H         2.12889         -1.18235        -0.20259
  H         0.08678         -2.28258         1.07827
  H        -1.97216         -2.07627         0.29760
  H        -1.39283         -0.91172        -1.03175
  H        -1.97149          2.07668         0.29170
  H        -1.53814          0.93729        -1.05445
14
 step=         552     theta[rad]=           5.7805
  C        -1.19385          1.49147        -0.18773
  C         0.05294          1.53545         0.30109
  C         1.18502          0.67422        -0.08826
  C         1.18021         -0.66814        -0.09206
  C         0.06085         -1.51659         0.28084
  C        -1.17773         -1.50848        -0.16305
  H         0.44800          2.17949         1.10065
  H         2.15617          1.15071        -0.19749
  H         2.13264         -1.17801        -0.20177
  H         0.13590         -2.26862         1.08125
  H        -1.97212         -2.07632         0.29681
  H        -1.40997         -0.91478        -1.03445
  H        -1.97162          2.07663         0.29237
  H        -1.51933          0.93403        -1.05153
14
 step=         553     theta[rad]=           5.7910
  C        -1.18909          1.49647        -0.18046
  C         0.05528          1.52993         0.29513
  C         1.18356          0.67258        -0.08939
  C         1.18145         -0.66992        -0.09106
  C         0.05874         -1.52168         0.28626
  C        -1.18204         -1.50391        -0.16966
  H         0.35651          2.20573         1.09485
  H         2.14934          1.15864        -0.19848
  H         2.13904         -1.17059        -0.20036
  H         0.21996         -2.24474         1.08636
  H        -1.97206         -2.07641         0.29545
  H        -1.43930         -0.92001        -1.03907
  H        -1.97185          2.07654         0.29350
  H        -1.48714          0.92843        -1.04655
14
 step=         554     theta[rad]=           5.8015
  C        -1.18357          1.50227        -0.17202
  C         0.05799          1.52354         0.28821
  C         1.18186          0.67068        -0.09072
  C         1.18289         -0.67199        -0.08990
  C         0.05629         -1.52758         0.29256
  C        -1.18703         -1.49862        -0.17732
  H         0.25044          2.23617         1.08812
  H         2.14143          1.16784        -0.19964
  H         2.14647         -1.16198        -0.19872
  H         0.31742         -2.21704         1.09228
  H        -1.97199         -2.07651         0.29387
  H        -1.47330         -0.92608        -1.04442
  H        -1.97210          2.07644         0.29481
  H        -1.44982          0.92195        -1.04076
14
 step=         555     theta[rad]=           5.8119
  C        -1.17856          1.50754        -0.16438
  C         0.06045          1.51774         0.28194
  C         1.18033          0.66896        -0.09191
  C         1.18420         -0.67386        -0.08885
  C         0.05407         -1.53294         0.29826
  C        -1.19156         -1.49382        -0.18427
  H         0.15420          2.26378         1.08202
  H         2.13424          1.17619        -0.20068
  H         2.15322         -1.15418        -0.19724
  H         0.40585         -2.19191         1.09765
  H        -1.97193         -2.07661         0.29244
  H        -1.50415         -0.93158        -1.04928
  H        -1.97233          2.07636         0.29601
  H        -1.41595          0.91607        -1.03551
14
 step=         556     theta[rad]=           5.8224
  C        -1.17509          1.51118        -0.15908
  C         0.06215          1.51372         0.27760
  C         1.17927          0.66777        -0.09274
  C         1.18511         -0.67516        -0.08812
  C         0.05254         -1.53665         0.30221
  C        -1.19470         -1.49050        -0.18907
  H         0.08762          2.28288         1.07779
  H         2.12928          1.18197        -0.20141
  H         2.15788         -1.14877        -0.19621
  H         0.46704         -2.17452         1.10137
  H        -1.97189         -2.07667         0.29145
  H        -1.52549         -0.93539        -1.05264
  H        -1.97249          2.07629         0.29683
  H        -1.39253          0.91200        -1.03188
14
 step=         557     theta[rad]=           5.8329
  C        -1.17377          1.51256        -0.15707
  C         0.06280          1.51220         0.27595
  C         1.17886          0.66732        -0.09306
  C         1.18545         -0.67565        -0.08785
  C         0.05195         -1.53805         0.30371
  C        -1.19589         -1.48924        -0.19090
  H         0.06234          2.29014         1.07619
  H         2.12739          1.18416        -0.20168
  H         2.15965         -1.14672        -0.19582
  H         0.49026         -2.16792         1.10278
  H        -1.97187         -2.07670         0.29107
  H        -1.53360         -0.93684        -1.05391
  H        -1.97256          2.07627         0.29714
  H        -1.38363          0.91045        -1.03050
14
 step=         558     theta[rad]=           5.8434
  C        -1.17472          1.51156        -0.15852
  C         0.06233          1.51330         0.27714
  C         1.17915          0.66764        -0.09283
  C         1.18520         -0.67530        -0.08805
  C         0.05237         -1.53704         0.30263
  C        -1.19503         -1.49015        -0.18958
  H         0.08058          2.28490         1.07735
  H         2.12875          1.18258        -0.20148
  H         2.15837         -1.14820        -0.19610
  H         0.47350         -2.17269         1.10176
  H        -1.97188         -2.07668         0.29134
  H        -1.52775         -0.93579        -1.05299
  H        -1.97251          2.07629         0.29692
  H        -1.39005          0.91156        -1.03150
14
 step=         559     theta[rad]=           5.8538
  C        -1.17761          1.50853        -0.16293
  C         0.06092          1.51664         0.28075
  C         1.18004          0.66864        -0.09214
  C         1.18445         -0.67422        -0.08865
  C         0.05365         -1.53395         0.29934
  C        -1.19242         -1.49292        -0.18558
  H         0.13605          2.26899         1.08087
  H         2.13289          1.17777        -0.20088
  H         2.15449         -1.15270        -0.19696
  H         0.42253         -2.18717         1.09867
  H        -1.97192         -2.07662         0.29217
  H        -1.50997         -0.93262        -1.05019
  H        -1.97238          2.07634         0.29623
  H        -1.40957          0.91496        -1.03452
14
 step=         560     theta[rad]=           5.8643
  C        -1.18179          1.50413        -0.16932
  C         0.05886          1.52148         0.28599
  C         1.18132          0.67007        -0.09114
  C         1.18336         -0.67265        -0.08953
  C         0.05551         -1.52948         0.29457
  C        -1.18863         -1.49692        -0.17977
  H         0.21640          2.24593         1.08596
  H         2.13889          1.17080        -0.20001
  H         2.14886         -1.15922        -0.19820
  H         0.34870         -2.20815         1.09418
  H        -1.97197         -2.07655         0.29336
  H        -1.48421         -0.92803        -1.04614
  H        -1.97218          2.07641         0.29524
  H        -1.43784          0.91987        -1.03891
14
 step=         561     theta[rad]=           5.8748
  C        -1.18648          1.49922        -0.17647
  C         0.05656          1.52691         0.29185
  C         1.18276          0.67168        -0.09002
  C         1.18213         -0.67090        -0.09051
  C         0.05758         -1.52447         0.28924
  C        -1.18440         -1.50141        -0.17328
  H         0.30634          2.22013         1.09167
  H         2.14560          1.16299        -0.19903
  H         2.14256         -1.16652        -0.19958
  H         0.26606         -2.23164         1.08916
  H        -1.97203         -2.07646         0.29470
  H        -1.45538         -0.92288        -1.04160
  H        -1.97197          2.07650         0.29412
  H        -1.46949          0.92537        -1.04381
14
 step=         562     theta[rad]=           5.8853
  C        -1.19088          1.49460        -0.18318
  C         0.05441          1.53200         0.29736
  C         1.18410          0.67319        -0.08897
  C         1.18099         -0.66925        -0.09143
  C         0.05953         -1.51977         0.28423
  C        -1.18042         -1.50562        -0.16718
  H         0.39078          2.19590         1.09702
  H         2.15190          1.15567        -0.19811
  H         2.13664         -1.17337        -0.20089
  H         0.18847         -2.25368         1.08445
  H        -1.97208         -2.07637         0.29596
  H        -1.42831         -0.91805        -1.03734
  H        -1.97176          2.07657         0.29308
  H        -1.49920          0.93053        -1.04841
14
 step=         563     theta[rad]=           5.8957
  C        -1.19434          1.49096        -0.18846
  C         0.05271          1.53600         0.30169
  C         1.18516          0.67438        -0.08814
  C         1.18009         -0.66795        -0.09216
  C         0.06107         -1.51607         0.28029
  C        -1.17729         -1.50894        -0.16238
  H         0.45727          2.17683         1.10124
  H         2.15686          1.14990        -0.19739
  H         2.13199         -1.17876        -0.20191
  H         0.12738         -2.27104         1.08073
  H        -1.97213         -2.07631         0.29695
  H        -1.40700         -0.91425        -1.03398
  H        -1.97160          2.07663         0.29225
  H        -1.52259          0.93459        -1.05204
14
 step=         564     theta[rad]=           5.9062
  C        -1.19644          1.48876        -0.19166
  C         0.05168          1.53843         0.30432
  C         1.18581          0.67510        -0.08764
  C         1.17954         -0.66717        -0.09260
  C         0.06200         -1.51383         0.27790
  C        -1.17540         -1.51095        -0.15947
  H         0.49755          2.16527         1.10380
  H         2.15986          1.14641        -0.19695
  H         2.12917         -1.18203        -0.20253
  H         0.09037         -2.28156         1.07849
  H        -1.97215         -2.07627         0.29754
  H        -1.39409         -0.91194        -1.03195
  H        -1.97150          2.07667         0.29175
  H        -1.53677          0.93706        -1.05424
14
 step=         565     theta[rad]=           5.9167
  C        -1.19699          1.48818        -0.19251
  C         0.05141          1.53907         0.30501
  C         1.18598          0.67529        -0.08751
  C         1.17939         -0.66696        -0.09271
  C         0.06224         -1.51324         0.27727
  C        -1.17490         -1.51148        -0.15871
  H         0.50816          2.16223         1.10447
  H         2.16066          1.14549        -0.19684
  H         2.12842         -1.18289        -0.20270
  H         0.08062         -2.28433         1.07789
  H        -1.97216         -2.07626         0.29770
  H        -1.39068         -0.91134        -1.03141
  H        -1.97148          2.07668         0.29162
  H        -1.54050          0.93770        -1.05481
14
 step=         566     theta[rad]=           5.9271
  C        -1.19605          1.48917        -0.19107
  C         0.05187          1.53798         0.30384
  C         1.18569          0.67497        -0.08773
  C         1.17964         -0.66731        -0.09252
  C         0.06183         -1.51424         0.27834
  C        -1.17575         -1.51058        -0.16001
  H         0.49012          2.16740         1.10332
  H         2.15931          1.14705        -0.19703
  H         2.12969         -1.18143        -0.20242
  H         0.09720         -2.27962         1.07890
  H        -1.97215         -2.07628         0.29743
  H        -1.39647         -0.91237        -1.03232
  H        -1.97152          2.07666         0.29185
  H        -1.53415          0.93660        -1.05383
14
 step=         567     theta[rad]=           5.9376
  C        -1.19385          1.49147        -0.18773
  C         0.05294          1.53545         0.30109
  C         1.18502          0.67422        -0.08826
  C         1.18021         -0.66814        -0.09206
  C         0.06085         -1.51659         0.28084
  C        -1.17773         -1.50848        -0.16305
  H         0.44800          2.17949         1.10065
  H         2.15617          1.15071        -0.19749
  H         2.13264         -1.17801        -0.20177
  H         0.13590         -2.26862         1.08125
  H        -1.97212         -2.07632         0.29681
  H        -1.40997         -0.91478        -1.03445
  H        -1.97162          2.07663         0.29237
  H        -1.51933          0.93403        -1.05153
14
 step=         568     theta[rad]=           5.9481
  C        -1.19077          1.49471        -0.18301
  C         0.05446          1.53187         0.29722
  C         1.18407          0.67316        -0.08899
  C         1.18102         -0.66929        -0.09141
  C         0.05949         -1.51989         0.28435
  C        -1.18052         -1.50552        -0.16733
  H         0.38872          2.19650         1.09689
  H         2.15174          1.15585        -0.19813
  H         2.13679         -1.17320        -0.20085
  H         0.19037         -2.25315         1.08456
  H        -1.97208         -2.07638         0.29593
  H        -1.42897         -0.91817        -1.03744
  H        -1.97177          2.07657         0.29310
  H        -1.49847          0.93040        -1.04830
14
 step=         569     theta[rad]=           5.9586
  C        -1.18720          1.49846        -0.17757
  C         0.05621          1.52774         0.29276
  C         1.18298          0.67193        -0.08985
  C         1.18195         -0.67063        -0.09066
  C         0.05791         -1.52370         0.28841
  C        -1.18374         -1.50211        -0.17228
  H         0.32025          2.21614         1.09255
  H         2.14663          1.16179        -0.19888
  H         2.14158         -1.16765        -0.19980
  H         0.25328         -2.23527         1.08838
  H        -1.97204         -2.07644         0.29491
  H        -1.45092         -0.92209        -1.04090
  H        -1.97193          2.07651         0.29395
  H        -1.47438          0.92622        -1.04457
14
 step=         570     theta[rad]=           5.9690
  C        -1.18357          1.50227        -0.17202
  C         0.05799          1.52354         0.28821
  C         1.18186          0.67068        -0.09072
  C         1.18289         -0.67199        -0.08990
  C         0.05629         -1.52758         0.29256
  C        -1.18703         -1.49862        -0.17732
  H         0.25044          2.23617         1.08812
  H         2.14143          1.16784        -0.19964
  H         2.14647         -1.16198        -0.19872
  H         0.31742         -2.21704         1.09228
  H        -1.97199         -2.07651         0.29387
  H        -1.47330         -0.92608        -1.04442
  H        -1.97210          2.07644         0.29481
  H        -1.44982          0.92195        -1.04076
14
 step=         571     theta[rad]=           5.9795
  C        -1.18022          1.50579        -0.16691
  C         0.05964          1.51966         0.28402
  C         1.18084          0.66953        -0.09152
  C         1.18377         -0.67324        -0.08920
  C         0.05481         -1.53116         0.29637
  C        -1.19006         -1.49542        -0.18196
  H         0.18614          2.25462         1.08404
  H         2.13663          1.17342        -0.20034
  H         2.15098         -1.15677        -0.19773
  H         0.37651         -2.20025         1.09587
  H        -1.97195         -2.07658         0.29291
  H        -1.49391         -0.92976        -1.04767
  H        -1.97226          2.07638         0.29561
  H        -1.42719          0.91802        -1.03726
14
 step=         572     theta[rad]=           5.9900
  C        -1.17743          1.50872        -0.16266
  C         0.06100          1.51643         0.28053
  C         1.17998          0.66857        -0.09218
  C         1.18449         -0.67428        -0.08862
  C         0.05357         -1.53414         0.29954
  C        -1.19258         -1.49275        -0.18582
  H         0.13261          2.26997         1.08065
  H         2.13263          1.17806        -0.20092
  H         2.15473         -1.15242        -0.19691
  H         0.42569         -2.18627         1.09886
  H        -1.97192         -2.07663         0.29212
  H        -1.51107         -0.93282        -1.05037
  H        -1.97239          2.07634         0.29627
  H        -1.40836          0.91475        -1.03434
14
 step=         573     theta[rad]=           6.0004
  C        -1.17538          1.51087        -0.15954
  C         0.06201          1.51406         0.27797
  C         1.17936          0.66787        -0.09267
  C         1.18503         -0.67505        -0.08819
  C         0.05267         -1.53633         0.30188
  C        -1.19443         -1.49078        -0.18866
  H         0.09330          2.28125         1.07815
  H         2.12970          1.18147        -0.20135
  H         2.15748         -1.14924        -0.19630
  H         0.46182         -2.17601         1.10105
  H        -1.97189         -2.07667         0.29153
  H        -1.52367         -0.93507        -1.05235
  H        -1.97248          2.07630         0.29676
  H        -1.39453          0.91234        -1.03219
14
 step=         574     theta[rad]=           6.0109
  C        -1.17416          1.51215        -0.15767
  C         0.06261          1.51265         0.27644
  C         1.17898          0.66745        -0.09296
  C         1.18535         -0.67551        -0.08793
  C         0.05213         -1.53764         0.30327
  C        -1.19553         -1.48961        -0.19036
  H         0.06983          2.28799         1.07667
  H         2.12795          1.18351        -0.20160
  H         2.15913         -1.14733        -0.19594
  H         0.48338         -2.16988         1.10236
  H        -1.97188         -2.07669         0.29118
  H        -1.53120         -0.93641        -1.05354
  H        -1.97254          2.07628         0.29705
  H        -1.38627          0.91091        -1.03091
14
 step=         575     theta[rad]=           6.0214
  C        -1.17377          1.51257        -0.15707
  C         0.06280          1.51219         0.27594
  C         1.17886          0.66731        -0.09306
  C         1.18545         -0.67566        -0.08785
  C         0.05195         -1.53806         0.30372
  C        -1.19589         -1.48923        -0.19091
  H         0.06223          2.29017         1.07618
  H         2.12738          1.18417        -0.20168
  H         2.15966         -1.14671        -0.19582
  H         0.49037         -2.16789         1.10279
  H        -1.97187         -2.07670         0.29107
  H        -1.53363         -0.93684        -1.05392
  H        -1.97256          2.07627         0.29715
  H        -1.38359          0.91044        -1.03050
14
 step=         576     theta[rad]=           6.0319
  C        -1.17413          1.51218        -0.15762
  C         0.06262          1.51261         0.27640
  C         1.17897          0.66744        -0.09297
  C         1.18536         -0.67552        -0.08792
  C         0.05211         -1.53767         0.30330
  C        -1.19556         -1.48958        -0.19040
  H         0.06924          2.28816         1.07663
  H         2.12790          1.18356        -0.20161
  H         2.15917         -1.14728        -0.19593
  H         0.48392         -2.16972         1.10240
  H        -1.97187         -2.07669         0.29118
  H        -1.53139         -0.93644        -1.05357
  H        -1.97254          2.07628         0.29706
  H        -1.38606          0.91087        -1.03088
14
 step=         577     theta[rad]=           6.0423
  C        -1.17515          1.51112        -0.15917
  C         0.06212          1.51379         0.27767
  C         1.17928          0.66779        -0.09273
  C         1.18509         -0.67514        -0.08814
  C         0.05256         -1.53658         0.30215
  C        -1.19464         -1.49056        -0.18899
  H         0.08871          2.28257         1.07786
  H         2.12936          1.18187        -0.20140
  H         2.15780         -1.14886        -0.19623
  H         0.46603         -2.17481         1.10131
  H        -1.97189         -2.07667         0.29146
  H        -1.52514         -0.93533        -1.05258
  H        -1.97249          2.07629         0.29682
  H        -1.39291          0.91206        -1.03194
14
 step=         578     theta[rad]=           6.0528
  C        -1.17667          1.50952        -0.16150
  C         0.06138          1.51555         0.27958
  C         1.17975          0.66831        -0.09236
  C         1.18469         -0.67457        -0.08846
  C         0.05324         -1.53496         0.30041
  C        -1.19327         -1.49202        -0.18688
  H         0.11798          2.27417         1.07972
  H         2.13154          1.17933        -0.20108
  H         2.15575         -1.15124        -0.19668
  H         0.43913         -2.18245         1.09968
  H        -1.97191         -2.07664         0.29190
  H        -1.51576         -0.93366        -1.05111
  H        -1.97242          2.07632         0.29646
  H        -1.40321          0.91385        -1.03354
14
 step=         579     theta[rad]=           6.0633
  C        -1.17856          1.50754        -0.16438
  C         0.06045          1.51774         0.28194
  C         1.18033          0.66896        -0.09191
  C         1.18420         -0.67386        -0.08885
  C         0.05407         -1.53294         0.29826
  C        -1.19156         -1.49382        -0.18427
  H         0.15420          2.26378         1.08202
  H         2.13424          1.17619        -0.20068
  H         2.15322         -1.15418        -0.19724
  H         0.40585         -2.19191         1.09765
  H        -1.97193         -2.07661         0.29244
  H        -1.50415         -0.93158        -1.04928
  H        -1.97233          2.07636         0.29601
  H        -1.41595          0.91607        -1.03551
14
 step=         580     theta[rad]=           6.0737
  C        -1.18066          1.50533        -0.16759
  C         0.05942          1.52017         0.28457
  C         1.18097          0.66968        -0.09141
  C         1.18365         -0.67308        -0.08929
  C         0.05501         -1.53069         0.29587
  C        -1.18966         -1.49584        -0.18135
  H         0.19460          2.25219         1.08458
  H         2.13726          1.17269        -0.20024
  H         2.15039         -1.15745        -0.19786
  H         0.36874         -2.20246         1.09540
  H        -1.97196         -2.07657         0.29304
  H        -1.49120         -0.92927        -1.04724
  H        -1.97224          2.07639         0.29551
  H        -1.43017          0.91854        -1.03772
14
 step=         581     theta[rad]=           6.0842
  C        -1.18285          1.50303        -0.17093
  C         0.05834          1.52271         0.28731
  C         1.18164          0.67044        -0.09089
  C         1.18308         -0.67225        -0.08975
  C         0.05598         -1.52835         0.29337
  C        -1.18768         -1.49794        -0.17831
  H         0.23667          2.24012         1.08725
  H         2.14040          1.16904        -0.19979
  H         2.14744         -1.16087        -0.19851
  H         0.33007         -2.21345         1.09305
  H        -1.97198         -2.07653         0.29367
  H        -1.47771         -0.92687        -1.04511
  H        -1.97213          2.07643         0.29499
  H        -1.44497          0.92111        -1.04001
14
 step=         582     theta[rad]=           6.0947
  C        -1.18502          1.50075        -0.17424
  C         0.05728          1.52522         0.29003
  C         1.18231          0.67118        -0.09037
  C         1.18252         -0.67144        -0.09021
  C         0.05694         -1.52603         0.29090
  C        -1.18572         -1.50001        -0.17530
  H         0.27834          2.22816         1.08989
  H         2.14351          1.16542        -0.19933
  H         2.14452         -1.16425        -0.19915
  H         0.29179         -2.22432         1.09072
  H        -1.97201         -2.07648         0.29428
  H        -1.46436         -0.92448        -1.04301
  H        -1.97203          2.07647         0.29447
  H        -1.45963          0.92365        -1.04228
14
 step=         583     theta[rad]=           6.1052
  C        -1.18708          1.49858        -0.17739
  C         0.05627          1.52761         0.29261
  C         1.18294          0.67189        -0.08988
  C         1.18198         -0.67067        -0.09064
  C         0.05785         -1.52383         0.28855
  C        -1.18385         -1.50199        -0.17244
  H         0.31794          2.21680         1.09240
  H         2.14646          1.16199        -0.19890
  H         2.14175         -1.16746        -0.19976
  H         0.25540         -2.23466         1.08851
  H        -1.97204         -2.07645         0.29487
  H        -1.45166         -0.92222        -1.04101
  H        -1.97194          2.07651         0.29398
  H        -1.47357          0.92608        -1.04444
14
 step=         584     theta[rad]=           6.1156
  C        -1.18898          1.49659        -0.18028
  C         0.05534          1.52980         0.29498
  C         1.18352          0.67254        -0.08942
  C         1.18148         -0.66996        -0.09103
  C         0.05869         -1.52180         0.28640
  C        -1.18214         -1.50380        -0.16982
  H         0.35430          2.20637         1.09471
  H         2.14917          1.15883        -0.19851
  H         2.13920         -1.17041        -0.20032
  H         0.22200         -2.24416         1.08648
  H        -1.97206         -2.07641         0.29541
  H        -1.44001         -0.92014        -1.03918
  H        -1.97185          2.07654         0.29353
  H        -1.48636          0.92830        -1.04642
14
 step=         585     theta[rad]=           6.1261
  C        -1.19066          1.49482        -0.18285
  C         0.05451          1.53175         0.29709
  C         1.18404          0.67312        -0.08902
  C         1.18104         -0.66933        -0.09139
  C         0.05944         -1.52000         0.28448
  C        -1.18062         -1.50542        -0.16748
  H         0.38664          2.19709         1.09676
  H         2.15159          1.15603        -0.19816
  H         2.13693         -1.17303        -0.20082
  H         0.19228         -2.25260         1.08468
  H        -1.97208         -2.07638         0.29590
  H        -1.42964         -0.91829        -1.03754
  H        -1.97177          2.07657         0.29313
  H        -1.49774          0.93028        -1.04819
14
 step=         586     theta[rad]=           6.1366
  C        -1.19212          1.49330        -0.18507
  C         0.05380          1.53343         0.29891
  C         1.18448          0.67362        -0.08867
  C         1.18066         -0.66879        -0.09169
  C         0.06008         -1.51845         0.28282
  C        -1.17930         -1.50681        -0.16546
  H         0.41460          2.18907         1.09853
  H         2.15367          1.15360        -0.19785
  H         2.13498         -1.17530        -0.20125
  H         0.16659         -2.25990         1.08312
  H        -1.97210         -2.07635         0.29631
  H        -1.42068         -0.91669        -1.03613
  H        -1.97170          2.07660         0.29278
  H        -1.50758          0.93198        -1.04971
14
 step=         587     theta[rad]=           6.1470
  C        -1.19334          1.49201        -0.18694
  C         0.05320          1.53485         0.30044
  C         1.18486          0.67404        -0.08838
  C         1.18035         -0.66833        -0.09195
  C         0.06063         -1.51714         0.28143
  C        -1.17820         -1.50798        -0.16377
  H         0.43808          2.18233         1.10002
  H         2.15543          1.15157        -0.19760
  H         2.13333         -1.17721        -0.20162
  H         0.14501         -2.26604         1.08180
  H        -1.97212         -2.07633         0.29666
  H        -1.41315         -0.91535        -1.03495
  H        -1.97165          2.07662         0.29249
  H        -1.51584          0.93342        -1.05099
14
 step=         588     theta[rad]=           6.1575
  C        -1.19434          1.49096        -0.18846
  C         0.05271          1.53600         0.30169
  C         1.18516          0.67438        -0.08814
  C         1.18009         -0.66795        -0.09216
  C         0.06107         -1.51607         0.28029
  C        -1.17729         -1.50894        -0.16238
  H         0.45727          2.17683         1.10124
  H         2.15686          1.14990        -0.19739
  H         2.13199         -1.17876        -0.20191
  H         0.12738         -2.27104         1.08073
  H        -1.97213         -2.07631         0.29695
  H        -1.40700         -0.91425        -1.03398
  H        -1.97160          2.07663         0.29225
  H        -1.52259          0.93459        -1.05204
14
 step=         589     theta[rad]=           6.1680
  C        -1.19513          1.49013        -0.18967
  C         0.05232          1.53692         0.30268
  C         1.18541          0.67466        -0.08795
  C         1.17988         -0.66766        -0.09232
  C         0.06142         -1.51523         0.27939
  C        -1.17658         -1.50970        -0.16128
  H         0.47247          2.17247         1.10220
  H         2.15799          1.14858        -0.19722
  H         2.13092         -1.18000        -0.20215
  H         0.11341         -2.27501         1.07989
  H        -1.97214         -2.07629         0.29717
  H        -1.40212         -0.91338        -1.03321
  H        -1.97156          2.07665         0.29206
  H        -1.52794          0.93552        -1.05287
14
 step=         590     theta[rad]=           6.1785
  C        -1.19574          1.48949        -0.19060
  C         0.05202          1.53762         0.30345
  C         1.18559          0.67487        -0.08781
  C         1.17972         -0.66743        -0.09245
  C         0.06169         -1.51458         0.27869
  C        -1.17603         -1.51028        -0.16044
  H         0.48415          2.16912         1.10295
  H         2.15886          1.14757        -0.19710
  H         2.13010         -1.18094        -0.20233
  H         0.10268         -2.27806         1.07923
  H        -1.97215         -2.07628         0.29735
  H        -1.39838         -0.91271        -1.03262
  H        -1.97154          2.07666         0.29192
  H        -1.53205          0.93624        -1.05351
14
 step=         591     theta[rad]=           6.1889
  C        -1.19619          1.48902        -0.19129
  C         0.05180          1.53815         0.30401
  C         1.18573          0.67502        -0.08770
  C         1.17960         -0.66726        -0.09255
  C         0.06189         -1.51409         0.27818
  C        -1.17562         -1.51071        -0.15982
  H         0.49280          2.16663         1.10349
  H         2.15951          1.14682        -0.19700
  H         2.12950         -1.18164        -0.20246
  H         0.09473         -2.28032         1.07875
  H        -1.97215         -2.07627         0.29747
  H        -1.39561         -0.91222        -1.03219
  H        -1.97152          2.07667         0.29181
  H        -1.53510          0.93676        -1.05398
14
 step=         592     theta[rad]=           6.1994
  C        -1.19651          1.48868        -0.19178
  C         0.05164          1.53852         0.30441
  C         1.18583          0.67513        -0.08762
  C         1.17952         -0.66714        -0.09261
  C         0.06203         -1.51375         0.27782
  C        -1.17533         -1.51102        -0.15937
  H         0.49895          2.16487         1.10388
  H         2.15997          1.14629        -0.19694
  H         2.12907         -1.18214        -0.20255
  H         0.08909         -2.28193         1.07841
  H        -1.97216         -2.07627         0.29757
  H        -1.39364         -0.91186        -1.03188
  H        -1.97150          2.07667         0.29174
  H        -1.53726          0.93714        -1.05431
14
 step=         593     theta[rad]=           6.2099
  C        -1.19672          1.48846        -0.19210
  C         0.05154          1.53877         0.30468
  C         1.18589          0.67520        -0.08757
  C         1.17946         -0.66706        -0.09266
  C         0.06213         -1.51352         0.27757
  C        -1.17514         -1.51123        -0.15907
  H         0.50310          2.16368         1.10415
  H         2.16028          1.14593        -0.19689
  H         2.12878         -1.18248        -0.20262
  H         0.08527         -2.28301         1.07818
  H        -1.97216         -2.07626         0.29763
  H        -1.39231         -0.91163        -1.03167
  H        -1.97149          2.07668         0.29168
  H        -1.53872          0.93739        -1.05454
14
 step=         594     theta[rad]=           6.2204
  C        -1.19686          1.48831        -0.19231
  C         0.05147          1.53893         0.30485
  C         1.18594          0.67525        -0.08754
  C         1.17943         -0.66701        -0.09269
  C         0.06219         -1.51337         0.27741
  C        -1.17501         -1.51136        -0.15888
  H         0.50572          2.16293         1.10431
  H         2.16047          1.14570        -0.19686
  H         2.12859         -1.18269        -0.20266
  H         0.08286         -2.28370         1.07803
  H        -1.97216         -2.07626         0.29767
  H        -1.39147         -0.91148        -1.03153
  H        -1.97148          2.07668         0.29165
  H        -1.53964          0.93755        -1.05468
14
 step=         595     theta[rad]=           6.2308
  C        -1.19694          1.48823        -0.19243
  C         0.05143          1.53902         0.30495
  C         1.18596          0.67528        -0.08752
  C         1.17941         -0.66698        -0.09270
  C         0.06222         -1.51329         0.27732
  C        -1.17494         -1.51143        -0.15877
  H         0.50725          2.16249         1.10441
  H         2.16059          1.14557        -0.19685
  H         2.12849         -1.18282        -0.20268
  H         0.08146         -2.28409         1.07794
  H        -1.97216         -2.07626         0.29769
  H        -1.39098         -0.91139        -1.03146
  H        -1.97148          2.07668         0.29163
  H        -1.54018          0.93765        -1.05476
14
 step=         596     theta[rad]=           6.2413
  C        -1.19698          1.48819        -0.19250
  C         0.05141          1.53906         0.30500
  C         1.18597          0.67529        -0.08751
  C         1.17940         -0.66697        -0.09271
  C         0.06224         -1.51325         0.27728
  C        -1.17491         -1.51147        -0.15872
  H         0.50803          2.16226         1.10446
  H         2.16065          1.14550        -0.19684
  H         2.12843         -1.18288        -0.20269
  H         0.08074         -2.28430         1.07790
  H        -1.97216         -2.07626         0.29770
  H        -1.39073         -0.91134        -1.03142
  H        -1.97148          2.07668         0.29162
  H        -1.54045          0.93770        -1.05481
14
 step=         597     theta[rad]=           6.2518
  C        -1.19700          1.48817        -0.19252
  C         0.05140          1.53908         0.30502
  C         1.18598          0.67530        -0.08750
  C         1.17939         -0.66696        -0.09272
  C         0.06225         -1.51323         0.27726
  C        -1.17489         -1.51149        -0.15869
  H         0.50836          2.16217         1.10448
  H         2.16067          1.14547        -0.19683
  H         2.12841         -1.18291        -0.20270
  H         0.08044         -2.28438         1.07788
  H        -1.97216         -2.07626         0.29771
  H        -1.39062         -0.91133        -1.03140
  H        -1.97148          2.07668         0.29162
  H        -1.54057          0.93772        -1.05483
14
 step=         598     theta[rad]=           6.2622
  C        -1.19700          1.48816        -0.19253
  C         0.05140          1.53909         0.30503
  C         1.18598          0.67530        -0.08750
  C         1.17939         -0.66696        -0.09272
  C         0.06225         -1.51322         0.27725
  C        -1.17489         -1.51149        -0.15869
  H         0.50846          2.16214         1.10449
  H         2.16068          1.14546        -0.19683
  H         2.12840         -1.18291        -0.20270
  H         0.08035         -2.28441         1.07788
  H        -1.97216         -2.07626         0.29771
  H        -1.39059         -0.91132        -1.03140
  H        -1.97148          2.07668         0.29162
  H        -1.54061          0.93772        -1.05483
14
 step=         599     theta[rad]=           6.2727
  C        -1.19700          1.48816        -0.19253
  C         0.05140          1.53909         0.30503
  C         1.18598          0.67530        -0.08750
  C         1.17939         -0.66696        -0.09272
  C         0.06225         -1.51322         0.27725
  C        -1.17488         -1.51149        -0.15869
  H         0.50847          2.16214         1.10449
  H         2.16068          1.14546        -0.19683
  H         2.12840         -1.18292        -0.20270
  H         0.08033         -2.28441         1.07788
  H        -1.97216         -2.07626         0.29771
  H        -1.39059         -0.91132        -1.03140
  H        -1.97148          2.07668         0.29162
  H        -1.54061          0.93772        -1.05483
14
 step=         600     theta[rad]=           6.2832
  C        -1.19700          1.48816        -0.19253
  C         0.05140          1.53909         0.30503
  C         1.18598          0.67530        -0.08750
  C         1.17939         -0.66696        -0.09272
  C         0.06225         -1.51322         0.27725
  C        -1.17488         -1.51149        -0.15869
  H         0.50847          2.16214         1.10449
  H         2.16068          1.14546        -0.19683
  H         2.12840         -1.18292        -0.20270
  H         0.08033         -2.28441         1.07788
  H        -1.97216         -2.07626         0.29771
  H        -1.39059         -0.91132        -1.03140
  H        -1.97148          2.07668         0.29162
  H        -1.54061          0.93772        -1.05483
