14
 step=           0     theta[rad]=           0.0000
  C        -1.18526          1.51736        -0.16558
  C         0.06294          1.51088         0.26236
  C         1.17385          0.66170        -0.07515
  C         1.17233         -0.65921        -0.07812
  C         0.06188         -1.51524         0.26758
  C        -1.18426         -1.51371        -0.16837
  H         0.35068          2.11141         1.13634
  H         2.12246          1.17078        -0.22248
  H         2.12468         -1.16139        -0.22420
  H         0.33617         -2.12811         1.13325
  H        -2.02874         -2.04386         0.25185
  H        -1.40825         -0.81146        -0.96956
  H        -2.04071          2.04028         0.24225
  H        -1.38638          0.79838        -0.96330
14
 step=           1     theta[rad]=           0.0105
  C        -1.18526          1.51736        -0.16558
  C         0.06294          1.51089         0.26236
  C         1.17385          0.66170        -0.07515
  C         1.17234         -0.65921        -0.07812
  C         0.06188         -1.51524         0.26758
  C        -1.18426         -1.51371        -0.16837
  H         0.35068          2.11141         1.13634
  H         2.12246          1.17078        -0.22248
  H         2.12468         -1.16139        -0.22419
  H         0.33617         -2.12812         1.13325
  H        -2.02874         -2.04386         0.25186
  H        -1.40825         -0.81146        -0.96956
  H        -2.04071          2.04028         0.24225
  H        -1.38639          0.79838        -0.96330
14
 step=           2     theta[rad]=           0.0209
  C        -1.18526          1.51735        -0.16559
  C         0.06294          1.51089         0.26237
  C         1.17385          0.66171        -0.07516
  C         1.17234         -0.65921        -0.07813
  C         0.06187         -1.51524         0.26759
  C        -1.18426         -1.51370        -0.16838
  H         0.35065          2.11146         1.13632
  H         2.12247          1.17077        -0.22247
  H         2.12469         -1.16140        -0.22418
  H         0.33615         -2.12816         1.13323
  H        -2.02871         -2.04388         0.25187
  H        -1.40827         -0.81151        -0.96960
  H        -2.04068          2.04029         0.24228
  H        -1.38642          0.79844        -0.96334
14
 step=           3     theta[rad]=           0.0314
  C        -1.18526          1.51732        -0.16560
  C         0.06293          1.51091         0.26241
  C         1.17387          0.66172        -0.07518
  C         1.17235         -0.65923        -0.07815
  C         0.06187         -1.51526         0.26763
  C        -1.18426         -1.51368        -0.16839
  H         0.35055          2.11163         1.13625
  H         2.12251          1.17076        -0.22243
  H         2.12471         -1.16140        -0.22415
  H         0.33607         -2.12831         1.13317
  H        -2.02863         -2.04392         0.25194
  H        -1.40835         -0.81168        -0.96970
  H        -2.04058          2.04035         0.24235
  H        -1.38653          0.79862        -0.96345
14
 step=           4     theta[rad]=           0.0419
  C        -1.18526          1.51726        -0.16563
  C         0.06291          1.51097         0.26251
  C         1.17390          0.66175        -0.07524
  C         1.17239         -0.65927        -0.07819
  C         0.06185         -1.51529         0.26771
  C        -1.18427         -1.51364        -0.16841
  H         0.35032          2.11204         1.13609
  H         2.12258          1.17074        -0.22235
  H         2.12478         -1.16141        -0.22406
  H         0.33589         -2.12865         1.13302
  H        -2.02843         -2.04404         0.25209
  H        -1.40854         -0.81207        -0.96996
  H        -2.04034          2.04047         0.24254
  H        -1.38680          0.79906        -0.96373
14
 step=           5     theta[rad]=           0.0524
  C        -1.18526          1.51715        -0.16570
  C         0.06287          1.51107         0.26271
  C         1.17395          0.66182        -0.07534
  C         1.17246         -0.65936        -0.07827
  C         0.06182         -1.51536         0.26786
  C        -1.18427         -1.51354        -0.16845
  H         0.34987          2.11282         1.13578
  H         2.12273          1.17070        -0.22219
  H         2.12491         -1.16144        -0.22389
  H         0.33555         -2.12932         1.13272
  H        -2.02804         -2.04426         0.25238
  H        -1.40891         -0.81284        -0.97046
  H        -2.03987          2.04072         0.24289
  H        -1.38732          0.79992        -0.96427
14
 step=           6     theta[rad]=           0.0628
  C        -1.18526          1.51695        -0.16581
  C         0.06280          1.51124         0.26304
  C         1.17405          0.66193        -0.07552
  C         1.17258         -0.65950        -0.07841
  C         0.06176         -1.51549         0.26813
  C        -1.18429         -1.51339        -0.16853
  H         0.34911          2.11417         1.13523
  H         2.12298          1.17063        -0.22192
  H         2.12514         -1.16148        -0.22360
  H         0.33495         -2.13047         1.13222
  H        -2.02737         -2.04464         0.25288
  H        -1.40954         -0.81417        -0.97132
  H        -2.03906          2.04115         0.24351
  H        -1.38821          0.80140        -0.96521
14
 step=           7     theta[rad]=           0.0733
  C        -1.18526          1.51663        -0.16598
  C         0.06269          1.51151         0.26356
  C         1.17421          0.66211        -0.07580
  C         1.17277         -0.65972        -0.07864
  C         0.06167         -1.51568         0.26856
  C        -1.18431         -1.51314        -0.16865
  H         0.34789          2.11630         1.13438
  H         2.12338          1.17052        -0.22149
  H         2.12550         -1.16154        -0.22313
  H         0.33400         -2.13230         1.13142
  H        -2.02632         -2.04525         0.25367
  H        -1.41054         -0.81626        -0.97268
  H        -2.03778          2.04182         0.24448
  H        -1.38962          0.80374        -0.96668
14
 step=           8     theta[rad]=           0.0838
  C        -1.18527          1.51616        -0.16623
  C         0.06253          1.51192         0.26433
  C         1.17445          0.66238        -0.07622
  C         1.17304         -0.66006        -0.07898
  C         0.06154         -1.51597         0.26919
  C        -1.18434         -1.51277        -0.16882
  H         0.34609          2.11946         1.13311
  H         2.12398          1.17036        -0.22085
  H         2.12604         -1.16163        -0.22244
  H         0.33260         -2.13500         1.13024
  H        -2.02476         -2.04615         0.25484
  H        -1.41203         -0.81936        -0.97469
  H        -2.03589          2.04282         0.24591
  H        -1.39170          0.80720        -0.96887
14
 step=           9     theta[rad]=           0.0942
  C        -1.18527          1.51550        -0.16659
  C         0.06231          1.51249         0.26542
  C         1.17478          0.66275        -0.07680
  C         1.17343         -0.66053        -0.07945
  C         0.06136         -1.51637         0.27008
  C        -1.18438         -1.51225        -0.16907
  H         0.34356          2.12391         1.13133
  H         2.12481          1.17013        -0.21995
  H         2.12679         -1.16177        -0.22148
  H         0.33063         -2.13880         1.12857
  H        -2.02256         -2.04741         0.25649
  H        -1.41412         -0.82373        -0.97753
  H        -2.03323          2.04422         0.24793
  H        -1.39464          0.81208        -0.97195
14
 step=          10     theta[rad]=           0.1047
  C        -1.18528          1.51461        -0.16707
  C         0.06200          1.51327         0.26690
  C         1.17523          0.66325        -0.07759
  C         1.17396         -0.66116        -0.08008
  C         0.06111         -1.51691         0.27128
  C        -1.18444         -1.51156        -0.16941
  H         0.34014          2.12992         1.12892
  H         2.12594          1.16981        -0.21873
  H         2.12780         -1.16195        -0.22017
  H         0.32797         -2.14393         1.12633
  H        -2.01959         -2.04912         0.25872
  H        -1.41694         -0.82963        -0.98135
  H        -2.02963          2.04612         0.25066
  H        -1.39860          0.81866        -0.97610
14
 step=          11     theta[rad]=           0.1152
  C        -1.18529          1.51346        -0.16770
  C         0.06160          1.51427         0.26881
  C         1.17582          0.66391        -0.07862
  C         1.17465         -0.66198        -0.08091
  C         0.06078         -1.51762         0.27284
  C        -1.18452         -1.51065        -0.16985
  H         0.33569          2.13774         1.12578
  H         2.12741          1.16941        -0.21715
  H         2.12912         -1.16218        -0.21847
  H         0.32451         -2.15061         1.12340
  H        -2.01572         -2.05134         0.26161
  H        -1.42061         -0.83730        -0.98633
  H        -2.02495          2.04858         0.25421
  H        -1.40376          0.82722        -0.98151
14
 step=          12     theta[rad]=           0.1257
  C        -1.18530          1.51200        -0.16849
  C         0.06110          1.51554         0.27123
  C         1.17655          0.66473        -0.07992
  C         1.17552         -0.66302        -0.08196
  C         0.06037         -1.51852         0.27481
  C        -1.18462         -1.50950        -0.17040
  H         0.33007          2.14760         1.12183
  H         2.12927          1.16890        -0.21515
  H         2.13078         -1.16247        -0.21633
  H         0.32014         -2.15904         1.11971
  H        -2.01085         -2.05415         0.26527
  H        -1.42524         -0.84698        -0.99262
  H        -2.01904          2.05170         0.25870
  H        -1.41027          0.83803        -0.98833
14
 step=          13     theta[rad]=           0.1361
  C        -1.18531          1.51021        -0.16946
  C         0.06048          1.51709         0.27419
  C         1.17746          0.66574        -0.08152
  C         1.17658         -0.66430        -0.08324
  C         0.05987         -1.51961         0.27722
  C        -1.18473         -1.50809        -0.17108
  H         0.32319          2.15968         1.11699
  H         2.13154          1.16827        -0.21271
  H         2.13282         -1.16283        -0.21371
  H         0.31479         -2.16936         1.11520
  H        -2.00488         -2.05758         0.26975
  H        -1.43091         -0.85884        -1.00031
  H        -2.01181          2.05551         0.26418
  H        -1.41824          0.85126        -0.99669
14
 step=          14     theta[rad]=           0.1466
  C        -1.18533          1.50808        -0.17062
  C         0.05975          1.51894         0.27772
  C         1.17853          0.66695        -0.08341
  C         1.17784         -0.66581        -0.08476
  C         0.05927         -1.52092         0.28009
  C        -1.18488         -1.50642        -0.17188
  H         0.31501          2.17406         1.11122
  H         2.13424          1.16752        -0.20980
  H         2.13524         -1.16326        -0.21058
  H         0.30842         -2.18164         1.10982
  H        -1.99777         -2.06167         0.27508
  H        -1.43766         -0.87295        -1.00947
  H        -2.00320          2.06004         0.27072
  H        -1.42773          0.86701        -1.00663
14
 step=          15     theta[rad]=           0.1571
  C        -1.18535          1.50561        -0.17195
  C         0.05891          1.52108         0.28179
  C         1.17977          0.66834        -0.08561
  C         1.17930         -0.66757        -0.08652
  C         0.05858         -1.52242         0.28341
  C        -1.18504         -1.50449        -0.17281
  H         0.30554          2.19069         1.10455
  H         2.13737          1.16666        -0.20643
  H         2.13805         -1.16376        -0.20697
  H         0.30106         -2.19586         1.10360
  H        -1.98954         -2.06640         0.28124
  H        -1.44546         -0.88928        -1.02007
  H        -1.99325          2.06529         0.27827
  H        -1.43870          0.88524        -1.01814
14
 step=          16     theta[rad]=           0.1676
  C        -1.18537          1.50285        -0.17345
  C         0.05795          1.52349         0.28638
  C         1.18117          0.66990        -0.08807
  C         1.18095         -0.66954        -0.08851
  C         0.05780         -1.52412         0.28714
  C        -1.18522         -1.50231        -0.17386
  H         0.29489          2.20939         1.09706
  H         2.14088          1.16569        -0.20265
  H         2.14120         -1.16432        -0.20290
  H         0.29277         -2.21183         1.09660
  H        -1.98030         -2.07171         0.28818
  H        -1.45424         -0.90763        -1.03198
  H        -1.98205          2.07119         0.28677
  H        -1.45104          0.90572        -1.03107
14
 step=          17     theta[rad]=           0.1780
  C        -1.18539          1.49983        -0.17509
  C         0.05692          1.52610         0.29137
  C         1.18269          0.67161        -0.09076
  C         1.18274         -0.67169        -0.09066
  C         0.05695         -1.52597         0.29120
  C        -1.18542         -1.49994        -0.17500
  H         0.28329          2.22976         1.08889
  H         2.14471          1.16463        -0.19853
  H         2.14464         -1.16492        -0.19848
  H         0.28375         -2.22923         1.08898
  H        -1.97023         -2.07750         0.29573
  H        -1.46380         -0.92762        -1.04495
  H        -1.96986          2.07761         0.29602
  H        -1.46448          0.92803        -1.04516
14
 step=          18     theta[rad]=           0.1885
  C        -1.18541          1.49666        -0.17681
  C         0.05583          1.52886         0.29662
  C         1.18429          0.67340        -0.09358
  C         1.18462         -0.67395        -0.09293
  C         0.05606         -1.52791         0.29548
  C        -1.18563         -1.49745        -0.17620
  H         0.27110          2.25118         1.08030
  H         2.14873          1.16351        -0.19419
  H         2.14825         -1.16556        -0.19382
  H         0.27426         -2.24754         1.08097
  H        -1.95964         -2.08359         0.30367
  H        -1.47386         -0.94865        -1.05860
  H        -1.95703          2.08437         0.30575
  H        -1.47862          0.95151        -1.05998
14
 step=          19     theta[rad]=           0.1990
  C        -1.18544          1.49345        -0.17855
  C         0.05472          1.53164         0.30193
  C         1.18591          0.67521        -0.09643
  C         1.18652         -0.67623        -0.09523
  C         0.05516         -1.52987         0.29980
  C        -1.18585         -1.49494        -0.17741
  H         0.25877          2.27282         1.07162
  H         2.15280          1.16239        -0.18981
  H         2.15190         -1.16621        -0.18912
  H         0.26468         -2.26603         1.07287
  H        -1.94894         -2.08975         0.31169
  H        -1.48402         -0.96989        -1.07239
  H        -1.94408          2.09120         0.31559
  H        -1.49290          0.97521        -1.07495
14
 step=          20     theta[rad]=           0.2094
  C        -1.18546          1.49038        -0.18022
  C         0.05367          1.53431         0.30702
  C         1.18746          0.67695        -0.09917
  C         1.18835         -0.67842        -0.09743
  C         0.05429         -1.53176         0.30395
  C        -1.18605         -1.49252        -0.17857
  H         0.24695          2.29360         1.06329
  H         2.15671          1.16131        -0.18561
  H         2.15540         -1.16683        -0.18460
  H         0.25548         -2.28378         1.06510
  H        -1.93867         -2.09565         0.31939
  H        -1.49377         -0.99028        -1.08562
  H        -1.93164          2.09775         0.32502
  H        -1.50661          0.99797        -1.08932
14
 step=          21     theta[rad]=           0.2199
  C        -1.18548          1.48762        -0.18171
  C         0.05272          1.53671         0.31158
  C         1.18885          0.67851        -0.10163
  C         1.18999         -0.68038        -0.09940
  C         0.05352         -1.53344         0.30766
  C        -1.18623         -1.49035        -0.17961
  H         0.23634          2.31223         1.05583
  H         2.16021          1.16034        -0.18184
  H         2.15855         -1.16738        -0.18056
  H         0.24723         -2.29970         1.05814
  H        -1.92947         -2.10095         0.32630
  H        -1.50251         -1.00856        -1.09749
  H        -1.92049          2.10363         0.33349
  H        -1.51890          1.01838        -1.10220
14
 step=          22     theta[rad]=           0.2304
  C        -1.18550          1.48539        -0.18292
  C         0.05195          1.53865         0.31527
  C         1.18998          0.67977        -0.10361
  C         1.19131         -0.68197        -0.10100
  C         0.05289         -1.53481         0.31067
  C        -1.18638         -1.48860        -0.18046
  H         0.22777          2.32728         1.04979
  H         2.16304          1.15956        -0.17880
  H         2.16108         -1.16783        -0.17729
  H         0.24056         -2.31256         1.05251
  H        -1.92202         -2.10523         0.33188
  H        -1.50958         -1.02334        -1.10708
  H        -1.91147          2.10838         0.34033
  H        -1.52883          1.03487        -1.11261
14
 step=          23     theta[rad]=           0.2409
  C        -1.18551          1.48391        -0.18373
  C         0.05144          1.53993         0.31773
  C         1.19072          0.68061        -0.10493
  C         1.19219         -0.68303        -0.10206
  C         0.05247         -1.53572         0.31267
  C        -1.18648         -1.48744        -0.18102
  H         0.22207          2.33729         1.04578
  H         2.16492          1.15904        -0.17677
  H         2.16277         -1.16813        -0.17511
  H         0.23612         -2.32112         1.04876
  H        -1.91707         -2.10807         0.33559
  H        -1.51428         -1.03317        -1.11346
  H        -1.90548          2.11154         0.34488
  H        -1.53544          1.04584        -1.11954
14
 step=          24     theta[rad]=           0.2513
  C        -1.18551          1.48337        -0.18401
  C         0.05126          1.54040         0.31861
  C         1.19099          0.68091        -0.10541
  C         1.19251         -0.68341        -0.10244
  C         0.05232         -1.53604         0.31339
  C        -1.18652         -1.48702        -0.18122
  H         0.22002          2.34090         1.04433
  H         2.16560          1.15885        -0.17604
  H         2.16338         -1.16824        -0.17433
  H         0.23453         -2.32420         1.04741
  H        -1.91529         -2.10910         0.33692
  H        -1.51597         -1.03671        -1.11576
  H        -1.90332          2.11268         0.34651
  H        -1.53782          1.04979        -1.12203
14
 step=          25     theta[rad]=           0.2618
  C        -1.18551          1.48395        -0.18370
  C         0.05146          1.53989         0.31765
  C         1.19070          0.68058        -0.10489
  C         1.19216         -0.68299        -0.10203
  C         0.05249         -1.53569         0.31261
  C        -1.18648         -1.48747        -0.18100
  H         0.22224          2.33699         1.04590
  H         2.16486          1.15906        -0.17683
  H         2.16272         -1.16812        -0.17518
  H         0.23626         -2.32086         1.04887
  H        -1.91722         -2.10799         0.33548
  H        -1.51414         -1.03287        -1.11327
  H        -1.90566          2.11144         0.34474
  H        -1.53524          1.04551        -1.11933
14
 step=          26     theta[rad]=           0.2723
  C        -1.18549          1.48574        -0.18273
  C         0.05207          1.53834         0.31470
  C         1.18980          0.67957        -0.10330
  C         1.19110         -0.68172        -0.10075
  C         0.05299         -1.53460         0.31020
  C        -1.18636         -1.48888        -0.18032
  H         0.22911          2.32492         1.05074
  H         2.16259          1.15968        -0.17927
  H         2.16069         -1.16776        -0.17780
  H         0.24160         -2.31054         1.05339
  H        -1.92319         -2.10455         0.33100
  H        -1.50847         -1.02102        -1.10558
  H        -1.91289          2.10764         0.33925
  H        -1.52727          1.03228        -1.11098
14
 step=          27     theta[rad]=           0.2827
  C        -1.18547          1.48873        -0.18111
  C         0.05310          1.53574         0.30974
  C         1.18829          0.67788        -0.10064
  C         1.18932         -0.67959        -0.09861
  C         0.05383         -1.53276         0.30616
  C        -1.18616         -1.49123        -0.17919
  H         0.24062          2.30470         1.05884
  H         2.15879          1.16073        -0.18336
  H         2.15728         -1.16716        -0.18219
  H         0.25056         -2.29327         1.06095
  H        -1.93319         -2.09881         0.32351
  H        -1.49898         -1.00118        -1.09270
  H        -1.92499          2.10126         0.33007
  H        -1.51393          1.01014        -1.09700
14
 step=          28     theta[rad]=           0.2932
  C        -1.18544          1.49281        -0.17890
  C         0.05450          1.53220         0.30299
  C         1.18623          0.67558        -0.09701
  C         1.18690         -0.67669        -0.09569
  C         0.05498         -1.53027         0.30067
  C        -1.18589         -1.49443        -0.17765
  H         0.25630          2.27717         1.06988
  H         2.15362          1.16216        -0.18893
  H         2.15263         -1.16634        -0.18817
  H         0.26275         -2.26975         1.07125
  H        -1.94679         -2.09098         0.31330
  H        -1.48606         -0.97416        -1.07516
  H        -1.94147          2.09257         0.31756
  H        -1.49577          0.97998        -1.07796
14
 step=          29     theta[rad]=           0.3037
  C        -1.18540          1.49771        -0.17624
  C         0.05619          1.52795         0.29489
  C         1.18376          0.67281        -0.09265
  C         1.18400         -0.67320        -0.09218
  C         0.05635         -1.52727         0.29407
  C        -1.18556         -1.49828        -0.17580
  H         0.27513          2.24410         1.08314
  H         2.14740          1.16388        -0.19563
  H         2.14706         -1.16535        -0.19536
  H         0.27740         -2.24149         1.08362
  H        -1.96314         -2.08158         0.30104
  H        -1.47054         -0.94170        -1.05409
  H        -1.96127          2.08214         0.30254
  H        -1.47395          0.94375        -1.05508
14
 step=          30     theta[rad]=           0.3142
  C        -1.18537          1.50302        -0.17336
  C         0.05801          1.52333         0.28609
  C         1.18108          0.66980        -0.08791
  C         1.18084         -0.66941        -0.08838
  C         0.05785         -1.52401         0.28690
  C        -1.18521         -1.50245        -0.17379
  H         0.29557          2.20820         1.09753
  H         2.14066          1.16575        -0.20289
  H         2.14100         -1.16428        -0.20316
  H         0.29330         -2.21082         1.09705
  H        -1.98089         -2.07138         0.28773
  H        -1.45368         -0.90646        -1.03122
  H        -1.98276          2.07081         0.28623
  H        -1.45026          0.90442        -1.03025
14
 step=          31     theta[rad]=           0.3246
  C        -1.18533          1.50824        -0.17053
  C         0.05981          1.51880         0.27745
  C         1.17845          0.66686        -0.08327
  C         1.17775         -0.66570        -0.08465
  C         0.05931         -1.52082         0.27987
  C        -1.18486         -1.50655        -0.17182
  H         0.31561          2.17299         1.11165
  H         2.13404          1.16758        -0.21002
  H         2.13506         -1.16323        -0.21081
  H         0.30890         -2.18073         1.11022
  H        -1.99830         -2.06137         0.27468
  H        -1.43715         -0.87190        -1.00879
  H        -2.00384          2.05970         0.27023
  H        -1.42702          0.86584        -1.00589
14
 step=          32     theta[rad]=           0.3351
  C        -1.18529          1.51275        -0.16808
  C         0.06136          1.51488         0.26998
  C         1.17617          0.66431        -0.07925
  C         1.17507         -0.66249        -0.08142
  C         0.06058         -1.51806         0.27379
  C        -1.18456         -1.51009        -0.17011
  H         0.33297          2.14251         1.12387
  H         2.12831          1.16916        -0.21618
  H         2.12992         -1.16232        -0.21744
  H         0.32240         -2.15468         1.12162
  H        -2.01337         -2.05270         0.26338
  H        -1.42284         -0.84198        -0.98937
  H        -2.02209          2.05009         0.25638
  H        -1.40691          0.83245        -0.98481
14
 step=          33     theta[rad]=           0.3456
  C        -1.18527          1.51596        -0.16634
  C         0.06246          1.51210         0.26467
  C         1.17455          0.66249        -0.07640
  C         1.17316         -0.66020        -0.07912
  C         0.06148         -1.51609         0.26947
  C        -1.18435         -1.51261        -0.16890
  H         0.34531          2.12084         1.13256
  H         2.12424          1.17029        -0.22057
  H         2.12627         -1.16168        -0.22214
  H         0.33199         -2.13618         1.12972
  H        -2.02407         -2.04654         0.25535
  H        -1.41268         -0.82072        -0.97557
  H        -2.03506          2.04325         0.24654
  H        -1.39261          0.80871        -0.96982
14
 step=          34     theta[rad]=           0.3560
  C        -1.18526          1.51733        -0.16560
  C         0.06293          1.51090         0.26240
  C         1.17386          0.66172        -0.07517
  C         1.17235         -0.65922        -0.07814
  C         0.06187         -1.51525         0.26761
  C        -1.18426         -1.51369        -0.16838
  H         0.35059          2.11156         1.13628
  H         2.12249          1.17077        -0.22245
  H         2.12470         -1.16140        -0.22416
  H         0.33610         -2.12825         1.13319
  H        -2.02866         -2.04390         0.25191
  H        -1.40832         -0.81161        -0.96966
  H        -2.04062          2.04033         0.24232
  H        -1.38649          0.79855        -0.96341
14
 step=          35     theta[rad]=           0.3665
  C        -1.18527          1.51652        -0.16603
  C         0.06266          1.51161         0.26374
  C         1.17427          0.66217        -0.07589
  C         1.17283         -0.65980        -0.07872
  C         0.06164         -1.51574         0.26870
  C        -1.18431         -1.51306        -0.16869
  H         0.34748          2.11702         1.13409
  H         2.12352          1.17048        -0.22134
  H         2.12562         -1.16156        -0.22298
  H         0.33369         -2.13291         1.13115
  H        -2.02596         -2.04546         0.25394
  H        -1.41088         -0.81697        -0.97314
  H        -2.03735          2.04205         0.24480
  H        -1.39009          0.80453        -0.96718
14
 step=          36     theta[rad]=           0.3770
  C        -1.18529          1.51346        -0.16770
  C         0.06160          1.51427         0.26881
  C         1.17582          0.66391        -0.07862
  C         1.17465         -0.66198        -0.08091
  C         0.06078         -1.51762         0.27284
  C        -1.18452         -1.51065        -0.16985
  H         0.33569          2.13774         1.12578
  H         2.12741          1.16941        -0.21715
  H         2.12912         -1.16218        -0.21847
  H         0.32451         -2.15061         1.12340
  H        -2.01572         -2.05134         0.26161
  H        -1.42061         -0.83730        -0.98633
  H        -2.02495          2.04858         0.25421
  H        -1.40376          0.82722        -0.98151
14
 step=          37     theta[rad]=           0.3875
  C        -1.18533          1.50839        -0.17044
  C         0.05986          1.51867         0.27719
  C         1.17837          0.66677        -0.08313
  C         1.17765         -0.66559        -0.08454
  C         0.05936         -1.52072         0.27966
  C        -1.18485         -1.50667        -0.17176
  H         0.31622          2.17193         1.11208
  H         2.13384          1.16763        -0.21023
  H         2.13488         -1.16320        -0.21104
  H         0.30937         -2.17982         1.11061
  H        -1.99882         -2.06106         0.27429
  H        -1.43666         -0.87086        -1.00812
  H        -2.00448          2.05937         0.26975
  H        -1.42632          0.86468        -1.00516
14
 step=          38     theta[rad]=           0.3979
  C        -1.18537          1.50196        -0.17393
  C         0.05765          1.52425         0.28784
  C         1.18161          0.67040        -0.08886
  C         1.18147         -0.67017        -0.08914
  C         0.05755         -1.52466         0.28833
  C        -1.18528         -1.50162        -0.17419
  H         0.29150          2.21535         1.09467
  H         2.14200          1.16538        -0.20144
  H         2.14221         -1.16449        -0.20161
  H         0.29013         -2.21693         1.09437
  H        -1.97735         -2.07341         0.29039
  H        -1.45704         -0.91348        -1.03578
  H        -1.97848          2.07307         0.28948
  H        -1.45498          0.91225        -1.03520
14
 step=          39     theta[rad]=           0.4084
  C        -1.18542          1.49511        -0.17765
  C         0.05529          1.53020         0.29918
  C         1.18507          0.67428        -0.09496
  C         1.18554         -0.67504        -0.09404
  C         0.05562         -1.52886         0.29756
  C        -1.18574         -1.49624        -0.17678
  H         0.26516          2.26161         1.07612
  H         2.15069          1.16297        -0.19208
  H         2.15001         -1.16587        -0.19156
  H         0.26964         -2.25645         1.07707
  H        -1.95449         -2.08656         0.30753
  H        -1.47875         -0.95889        -1.06525
  H        -1.95079          2.08766         0.31049
  H        -1.48550          0.96293        -1.06719
14
 step=          40     theta[rad]=           0.4189
  C        -1.18547          1.48899        -0.18097
  C         0.05319          1.53551         0.30931
  C         1.18816          0.67773        -0.10040
  C         1.18917         -0.67940        -0.09842
  C         0.05390         -1.53260         0.30581
  C        -1.18614         -1.49143        -0.17909
  H         0.24163          2.30293         1.05955
  H         2.15846          1.16083        -0.18372
  H         2.15698         -1.16710        -0.18258
  H         0.25134         -2.29176         1.06161
  H        -1.93406         -2.09830         0.32285
  H        -1.49815         -0.99944        -1.09157
  H        -1.92605          2.10070         0.32926
  H        -1.51277          1.00820        -1.09577
14
 step=          41     theta[rad]=           0.4294
  C        -1.18550          1.48477        -0.18326
  C         0.05174          1.53918         0.31630
  C         1.19029          0.68012        -0.10417
  C         1.19168         -0.68241        -0.10144
  C         0.05272         -1.53519         0.31150
  C        -1.18642         -1.48812        -0.18069
  H         0.22539          2.33146         1.04811
  H         2.16382          1.15934        -0.17795
  H         2.16179         -1.16795        -0.17638
  H         0.23871         -2.31613         1.05094
  H        -1.91996         -2.10641         0.33343
  H        -1.51154         -1.02745        -1.10974
  H        -1.90897          2.10970         0.34223
  H        -1.53159          1.03945        -1.11551
14
 step=          42     theta[rad]=           0.4398
  C        -1.18551          1.48338        -0.18401
  C         0.05126          1.54039         0.31860
  C         1.19099          0.68091        -0.10540
  C         1.19250         -0.68340        -0.10244
  C         0.05233         -1.53604         0.31338
  C        -1.18652         -1.48703        -0.18122
  H         0.22005          2.34084         1.04435
  H         2.16559          1.15886        -0.17605
  H         2.16337         -1.16823        -0.17434
  H         0.23455         -2.32415         1.04743
  H        -1.91532         -2.10908         0.33690
  H        -1.51595         -1.03665        -1.11572
  H        -1.90335          2.11266         0.34649
  H        -1.53778          1.04973        -1.12199
14
 step=          43     theta[rad]=           0.4503
  C        -1.18550          1.48531        -0.18297
  C         0.05192          1.53872         0.31541
  C         1.19002          0.67982        -0.10369
  C         1.19136         -0.68203        -0.10106
  C         0.05287         -1.53486         0.31078
  C        -1.18639         -1.48854        -0.18049
  H         0.22745          2.32784         1.04957
  H         2.16314          1.15953        -0.17868
  H         2.16118         -1.16785        -0.17716
  H         0.24031         -2.31304         1.05230
  H        -1.92175         -2.10539         0.33208
  H        -1.50984         -1.02389        -1.10744
  H        -1.91114          2.10856         0.34058
  H        -1.52920          1.03549        -1.11300
14
 step=          44     theta[rad]=           0.4608
  C        -1.18546          1.49038        -0.18022
  C         0.05367          1.53431         0.30702
  C         1.18746          0.67695        -0.09917
  C         1.18835         -0.67842        -0.09743
  C         0.05429         -1.53176         0.30395
  C        -1.18605         -1.49252        -0.17857
  H         0.24695          2.29360         1.06329
  H         2.15671          1.16131        -0.18561
  H         2.15540         -1.16683        -0.18460
  H         0.25548         -2.28378         1.06510
  H        -1.93867         -2.09565         0.31939
  H        -1.49377         -0.99028        -1.08562
  H        -1.93164          2.09775         0.32502
  H        -1.50661          0.99797        -1.08932
14
 step=          45     theta[rad]=           0.4712
  C        -1.18540          1.49771        -0.17624
  C         0.05619          1.52795         0.29489
  C         1.18376          0.67281        -0.09265
  C         1.18400         -0.67320        -0.09218
  C         0.05635         -1.52727         0.29407
  C        -1.18556         -1.49828        -0.17580
  H         0.27513          2.24410         1.08314
  H         2.14740          1.16388        -0.19563
  H         2.14706         -1.16535        -0.19536
  H         0.27740         -2.24149         1.08362
  H        -1.96314         -2.08158         0.30104
  H        -1.47054         -0.94170        -1.05409
  H        -1.96127          2.08214         0.30254
  H        -1.47395          0.94375        -1.05508
14
 step=          46     theta[rad]=           0.4817
  C        -1.18534          1.50578        -0.17186
  C         0.05896          1.52093         0.28151
  C         1.17969          0.66824        -0.08546
  C         1.17920         -0.66745        -0.08640
  C         0.05862         -1.52232         0.28318
  C        -1.18503         -1.50462        -0.17275
  H         0.30619          2.18955         1.10501
  H         2.13715          1.16672        -0.20666
  H         2.13786         -1.16372        -0.20721
  H         0.30156         -2.19488         1.10402
  H        -1.99011         -2.06607         0.28082
  H        -1.44493         -0.88816        -1.01934
  H        -1.99393          2.06493         0.27775
  H        -1.43795          0.88399        -1.01735
14
 step=          47     theta[rad]=           0.4922
  C        -1.18529          1.51275        -0.16808
  C         0.06136          1.51488         0.26998
  C         1.17617          0.66431        -0.07925
  C         1.17507         -0.66249        -0.08142
  C         0.06058         -1.51806         0.27379
  C        -1.18456         -1.51009        -0.17011
  H         0.33297          2.14251         1.12387
  H         2.12831          1.16916        -0.21618
  H         2.12992         -1.16232        -0.21744
  H         0.32240         -2.15468         1.12162
  H        -2.01337         -2.05270         0.26338
  H        -1.42284         -0.84198        -0.98937
  H        -2.02209          2.05009         0.25638
  H        -1.40691          0.83245        -0.98481
14
 step=          48     theta[rad]=           0.5027
  C        -1.18526          1.51682        -0.16587
  C         0.06276          1.51135         0.26324
  C         1.17412          0.66200        -0.07563
  C         1.17265         -0.65959        -0.07850
  C         0.06173         -1.51556         0.26830
  C        -1.18429         -1.51329        -0.16858
  H         0.34863          2.11501         1.13490
  H         2.12314          1.17059        -0.22175
  H         2.12528         -1.16150        -0.22341
  H         0.33458         -2.13119         1.13190
  H        -2.02696         -2.04488         0.25319
  H        -1.40994         -0.81499        -0.97186
  H        -2.03856          2.04141         0.24389
  H        -1.38876          0.80233        -0.96579
14
 step=          49     theta[rad]=           0.5131
  C        -1.18526          1.51678        -0.16590
  C         0.06274          1.51139         0.26332
  C         1.17414          0.66203        -0.07567
  C         1.17268         -0.65962        -0.07854
  C         0.06171         -1.51559         0.26836
  C        -1.18430         -1.51325        -0.16859
  H         0.34845          2.11532         1.13477
  H         2.12320          1.17057        -0.22169
  H         2.12534         -1.16151        -0.22335
  H         0.33444         -2.13145         1.13179
  H        -2.02681         -2.04497         0.25330
  H        -1.41008         -0.81529        -0.97205
  H        -2.03837          2.04151         0.24403
  H        -1.38896          0.80266        -0.96600
14
 step=          50     theta[rad]=           0.5236
  C        -1.18530          1.51238        -0.16828
  C         0.06123          1.51521         0.27060
  C         1.17636          0.66452        -0.07958
  C         1.17529         -0.66275        -0.08168
  C         0.06048         -1.51828         0.27429
  C        -1.18459         -1.50980        -0.17025
  H         0.33154          2.14502         1.12287
  H         2.12878          1.16903        -0.21568
  H         2.13034         -1.16240        -0.21689
  H         0.32129         -2.15683         1.12068
  H        -2.01213         -2.05341         0.26431
  H        -1.42402         -0.84444        -0.99097
  H        -2.02059          2.05088         0.25752
  H        -1.40856          0.83519        -0.98654
14
 step=          51     theta[rad]=           0.5341
  C        -1.18535          1.50459        -0.17251
  C         0.05855          1.52197         0.28349
  C         1.18029          0.66892        -0.08652
  C         1.17991         -0.66830        -0.08726
  C         0.05829         -1.52305         0.28479
  C        -1.18511         -1.50368        -0.17320
  H         0.30159          2.19762         1.10178
  H         2.13867          1.16630        -0.20503
  H         2.13922         -1.16396        -0.20546
  H         0.29799         -2.20177         1.10101
  H        -1.98612         -2.06837         0.28381
  H        -1.44871         -0.89607        -1.02448
  H        -1.98910          2.06747         0.28142
  H        -1.44327          0.89282        -1.02293
14
 step=          52     theta[rad]=           0.5445
  C        -1.18542          1.49545        -0.17746
  C         0.05541          1.52991         0.29862
  C         1.18490          0.67408        -0.09465
  C         1.18534         -0.67480        -0.09380
  C         0.05572         -1.52865         0.29710
  C        -1.18571         -1.49651        -0.17665
  H         0.26646          2.25932         1.07704
  H         2.15026          1.16309        -0.19255
  H         2.14962         -1.16580        -0.19205
  H         0.27066         -2.25449         1.07793
  H        -1.95562         -2.08591         0.30668
  H        -1.47768         -0.95663        -1.06379
  H        -1.95216          2.08694         0.30945
  H        -1.48399          0.96042        -1.06561
14
 step=          53     theta[rad]=           0.5550
  C        -1.18548          1.48762        -0.18171
  C         0.05272          1.53671         0.31158
  C         1.18885          0.67851        -0.10163
  C         1.18999         -0.68038        -0.09940
  C         0.05352         -1.53344         0.30766
  C        -1.18623         -1.49035        -0.17961
  H         0.23634          2.31223         1.05583
  H         2.16021          1.16034        -0.18184
  H         2.15855         -1.16738        -0.18056
  H         0.24723         -2.29970         1.05814
  H        -1.92947         -2.10095         0.32630
  H        -1.50251         -1.00856        -1.09749
  H        -1.92049          2.10363         0.33349
  H        -1.51890          1.01838        -1.10220
14
 step=          54     theta[rad]=           0.5655
  C        -1.18551          1.48358        -0.18390
  C         0.05133          1.54022         0.31827
  C         1.19089          0.68079        -0.10522
  C         1.19238         -0.68326        -0.10229
  C         0.05238         -1.53592         0.31311
  C        -1.18650         -1.48718        -0.18114
  H         0.22082          2.33949         1.04490
  H         2.16533          1.15893        -0.17632
  H         2.16314         -1.16819        -0.17463
  H         0.23515         -2.32299         1.04794
  H        -1.91599         -2.10870         0.33640
  H        -1.51531         -1.03532        -1.11486
  H        -1.90417          2.11223         0.34587
  H        -1.53689          1.04824        -1.12106
14
 step=          55     theta[rad]=           0.5760
  C        -1.18550          1.48484        -0.18322
  C         0.05176          1.53912         0.31618
  C         1.19025          0.68008        -0.10410
  C         1.19163         -0.68236        -0.10139
  C         0.05274         -1.53515         0.31141
  C        -1.18642         -1.48817        -0.18066
  H         0.22566          2.33098         1.04831
  H         2.16373          1.15937        -0.17805
  H         2.16171         -1.16794        -0.17648
  H         0.23892         -2.31572         1.05112
  H        -1.92020         -2.10628         0.33325
  H        -1.51132         -1.02697        -1.10944
  H        -1.90926          2.10955         0.34201
  H        -1.53127          1.03892        -1.11517
14
 step=          56     theta[rad]=           0.5864
  C        -1.18545          1.49126        -0.17974
  C         0.05397          1.53355         0.30556
  C         1.18701          0.67645        -0.09839
  C         1.18782         -0.67779        -0.09680
  C         0.05454         -1.53122         0.30276
  C        -1.18599         -1.49321        -0.17824
  H         0.25034          2.28764         1.06568
  H         2.15559          1.16162        -0.18682
  H         2.15440         -1.16665        -0.18590
  H         0.25812         -2.27869         1.06733
  H        -1.94162         -2.09396         0.31718
  H        -1.49097         -0.98443        -1.08183
  H        -1.93521          2.09587         0.32232
  H        -1.50267          0.99144        -1.08519
14
 step=          57     theta[rad]=           0.5969
  C        -1.18538          1.50090        -0.17451
  C         0.05728          1.52518         0.28960
  C         1.18215          0.67101        -0.08981
  C         1.18210         -0.67093        -0.08990
  C         0.05725         -1.52531         0.28977
  C        -1.18535         -1.50078        -0.17459
  H         0.28740          2.22255         1.09178
  H         2.14335          1.16500        -0.19999
  H         2.14342         -1.16471        -0.20004
  H         0.28695         -2.22307         1.09168
  H        -1.97380         -2.07545         0.29305
  H        -1.46042         -0.92054        -1.04036
  H        -1.97417          2.07534         0.29274
  H        -1.45972          0.92013        -1.04017
14
 step=          58     theta[rad]=           0.6074
  C        -1.18531          1.51050        -0.16930
  C         0.06058          1.51684         0.27372
  C         1.17731          0.66558        -0.08126
  C         1.17641         -0.66409        -0.08303
  C         0.05995         -1.51944         0.27683
  C        -1.18471         -1.50832        -0.17097
  H         0.32430          2.15774         1.11777
  H         2.13117          1.16837        -0.21310
  H         2.13249         -1.16278        -0.21413
  H         0.31565         -2.16770         1.11592
  H        -2.00584         -2.05703         0.26903
  H        -1.42999         -0.85693        -0.99907
  H        -2.01298          2.05489         0.26330
  H        -1.41696          0.84913        -0.99534
14
 step=          59     theta[rad]=           0.6178
  C        -1.18527          1.51652        -0.16603
  C         0.06266          1.51161         0.26374
  C         1.17427          0.66217        -0.07589
  C         1.17283         -0.65980        -0.07872
  C         0.06164         -1.51574         0.26870
  C        -1.18431         -1.51306        -0.16869
  H         0.34748          2.11702         1.13409
  H         2.12352          1.17048        -0.22134
  H         2.12562         -1.16156        -0.22298
  H         0.33369         -2.13291         1.13115
  H        -2.02596         -2.04546         0.25394
  H        -1.41088         -0.81697        -0.97314
  H        -2.03735          2.04205         0.24480
  H        -1.39009          0.80453        -0.96718
14
 step=          60     theta[rad]=           0.6283
  C        -1.18527          1.51652        -0.16603
  C         0.06266          1.51161         0.26374
  C         1.17427          0.66217        -0.07589
  C         1.17283         -0.65980        -0.07872
  C         0.06164         -1.51574         0.26870
  C        -1.18431         -1.51306        -0.16869
  H         0.34748          2.11702         1.13409
  H         2.12352          1.17048        -0.22134
  H         2.12562         -1.16156        -0.22298
  H         0.33369         -2.13291         1.13115
  H        -2.02596         -2.04546         0.25394
  H        -1.41088         -0.81697        -0.97314
  H        -2.03735          2.04205         0.24480
  H        -1.39009          0.80453        -0.96718
14
 step=          61     theta[rad]=           0.6388
  C        -1.18531          1.51021        -0.16946
  C         0.06048          1.51709         0.27419
  C         1.17746          0.66574        -0.08152
  C         1.17658         -0.66430        -0.08324
  C         0.05987         -1.51961         0.27722
  C        -1.18473         -1.50809        -0.17108
  H         0.32319          2.15968         1.11699
  H         2.13154          1.16827        -0.21271
  H         2.13282         -1.16283        -0.21371
  H         0.31479         -2.16936         1.11520
  H        -2.00488         -2.05758         0.26975
  H        -1.43091         -0.85884        -1.00031
  H        -2.01181          2.05551         0.26418
  H        -1.41824          0.85126        -0.99669
14
 step=          62     theta[rad]=           0.6493
  C        -1.18539          1.49983        -0.17509
  C         0.05692          1.52610         0.29137
  C         1.18269          0.67161        -0.09076
  C         1.18274         -0.67169        -0.09066
  C         0.05695         -1.52597         0.29120
  C        -1.18542         -1.49994        -0.17500
  H         0.28329          2.22976         1.08889
  H         2.14471          1.16463        -0.19853
  H         2.14464         -1.16492        -0.19848
  H         0.28375         -2.22923         1.08898
  H        -1.97023         -2.07750         0.29573
  H        -1.46380         -0.92762        -1.04495
  H        -1.96986          2.07761         0.29602
  H        -1.46448          0.92803        -1.04516
14
 step=          63     theta[rad]=           0.6597
  C        -1.18547          1.48953        -0.18067
  C         0.05338          1.53505         0.30841
  C         1.18789          0.67743        -0.09992
  C         1.18885         -0.67902        -0.09803
  C         0.05405         -1.53227         0.30508
  C        -1.18611         -1.49186        -0.17889
  H         0.24370          2.29929         1.06101
  H         2.15778          1.16102        -0.18446
  H         2.15636         -1.16700        -0.18337
  H         0.25295         -2.28865         1.06297
  H        -1.93586         -2.09727         0.32150
  H        -1.49644         -0.99587        -1.08925
  H        -1.92823          2.09955         0.32761
  H        -1.51036          1.00421        -1.09326
14
 step=          64     theta[rad]=           0.6702
  C        -1.18551          1.48374        -0.18381
  C         0.05139          1.54007         0.31800
  C         1.19081          0.68070        -0.10508
  C         1.19229         -0.68314        -0.10218
  C         0.05243         -1.53582         0.31289
  C        -1.18649         -1.48731        -0.18108
  H         0.22144          2.33839         1.04534
  H         2.16513          1.15898        -0.17655
  H         2.16296         -1.16816        -0.17487
  H         0.23564         -2.32205         1.04835
  H        -1.91653         -2.10838         0.33600
  H        -1.51479         -1.03425        -1.11416
  H        -1.90482          2.11189         0.34537
  H        -1.53616          1.04704        -1.12030
14
 step=          65     theta[rad]=           0.6807
  C        -1.18550          1.48522        -0.18301
  C         0.05189          1.53879         0.31555
  C         1.19006          0.67987        -0.10376
  C         1.19141         -0.68209        -0.10112
  C         0.05284         -1.53491         0.31089
  C        -1.18639         -1.48847        -0.18052
  H         0.22714          2.32839         1.04934
  H         2.16325          1.15950        -0.17857
  H         2.16127         -1.16786        -0.17704
  H         0.24007         -2.31351         1.05209
  H        -1.92147         -2.10554         0.33229
  H        -1.51010         -1.02443        -1.10779
  H        -1.91081          2.10873         0.34083
  H        -1.52957          1.03609        -1.11338
14
 step=          66     theta[rad]=           0.6912
  C        -1.18543          1.49362        -0.17846
  C         0.05478          1.53150         0.30166
  C         1.18583          0.67512        -0.09629
  C         1.18643         -0.67611        -0.09511
  C         0.05520         -1.52977         0.29958
  C        -1.18584         -1.49506        -0.17735
  H         0.25940          2.27172         1.07206
  H         2.15260          1.16245        -0.19004
  H         2.15171         -1.16617        -0.18936
  H         0.26517         -2.26509         1.07329
  H        -1.94949         -2.08943         0.31128
  H        -1.48350         -0.96881        -1.07169
  H        -1.94473          2.09085         0.31509
  H        -1.49217          0.97401        -1.07419
14
 step=          67     theta[rad]=           0.7016
  C        -1.18535          1.50528        -0.17214
  C         0.05879          1.52138         0.28236
  C         1.17994          0.66853        -0.08591
  C         1.17950         -0.66781        -0.08677
  C         0.05848         -1.52263         0.28387
  C        -1.18506         -1.50422        -0.17294
  H         0.30423          2.19299         1.10363
  H         2.13780          1.16654        -0.20597
  H         2.13844         -1.16383        -0.20647
  H         0.30004         -2.19782         1.10274
  H        -1.98841         -2.06705         0.28209
  H        -1.44654         -0.89153        -1.02153
  H        -1.99187          2.06601         0.27931
  H        -1.44022          0.88775        -1.01972
14
 step=          68     theta[rad]=           0.7121
  C        -1.18528          1.51471        -0.16702
  C         0.06203          1.51318         0.26674
  C         1.17518          0.66320        -0.07751
  C         1.17390         -0.66109        -0.08001
  C         0.06113         -1.51686         0.27115
  C        -1.18443         -1.51163        -0.16937
  H         0.34051          2.12927         1.12918
  H         2.12582          1.16985        -0.21886
  H         2.12769         -1.16193        -0.22031
  H         0.32826         -2.14337         1.12657
  H        -2.01991         -2.04894         0.25848
  H        -1.41663         -0.82899        -0.98094
  H        -2.03002          2.04591         0.25037
  H        -1.39817          0.81794        -0.97565
14
 step=          69     theta[rad]=           0.7226
  C        -1.18526          1.51715        -0.16570
  C         0.06287          1.51107         0.26271
  C         1.17395          0.66182        -0.07534
  C         1.17246         -0.65936        -0.07827
  C         0.06182         -1.51536         0.26786
  C        -1.18427         -1.51354        -0.16845
  H         0.34987          2.11282         1.13578
  H         2.12273          1.17070        -0.22219
  H         2.12491         -1.16144        -0.22389
  H         0.33555         -2.12932         1.13272
  H        -2.02804         -2.04426         0.25238
  H        -1.40891         -0.81284        -0.97046
  H        -2.03987          2.04072         0.24289
  H        -1.38732          0.79992        -0.96427
14
 step=          70     theta[rad]=           0.7330
  C        -1.18531          1.51106        -0.16900
  C         0.06078          1.51635         0.27279
  C         1.17703          0.66526        -0.08076
  C         1.17607         -0.66369        -0.08263
  C         0.06011         -1.51909         0.27607
  C        -1.18468         -1.50876        -0.17075
  H         0.32646          2.15394         1.11929
  H         2.13046          1.16857        -0.21387
  H         2.13185         -1.16266        -0.21495
  H         0.31733         -2.16445         1.11734
  H        -2.00771         -2.05595         0.26762
  H        -1.42821         -0.85320        -0.99666
  H        -2.01525          2.05369         0.26157
  H        -1.41445          0.84497        -0.99272
14
 step=          71     theta[rad]=           0.7435
  C        -1.18539          1.49930        -0.17538
  C         0.05673          1.52657         0.29225
  C         1.18296          0.67191        -0.09123
  C         1.18305         -0.67207        -0.09105
  C         0.05680         -1.52629         0.29192
  C        -1.18546         -1.49953        -0.17520
  H         0.28124          2.23336         1.08745
  H         2.14538          1.16444        -0.19780
  H         2.14524         -1.16503        -0.19770
  H         0.28216         -2.23231         1.08764
  H        -1.96845         -2.07853         0.29706
  H        -1.46549         -0.93115        -1.04725
  H        -1.96770          2.07875         0.29766
  H        -1.46686          0.93198        -1.04765
14
 step=          72     theta[rad]=           0.7540
  C        -1.18548          1.48798        -0.18152
  C         0.05284          1.53640         0.31099
  C         1.18867          0.67831        -0.10131
  C         1.18977         -0.68013        -0.09915
  C         0.05362         -1.53322         0.30718
  C        -1.18621         -1.49064        -0.17948
  H         0.23772          2.30980         1.05680
  H         2.15975          1.16047        -0.18233
  H         2.15814         -1.16731        -0.18108
  H         0.24830         -2.29762         1.05904
  H        -1.93067         -2.10026         0.32540
  H        -1.50137         -1.00618        -1.09594
  H        -1.92194          2.10286         0.33238
  H        -1.51730          1.01572        -1.10052
14
 step=          73     theta[rad]=           0.7645
  C        -1.18551          1.48337        -0.18401
  C         0.05126          1.54040         0.31861
  C         1.19099          0.68091        -0.10541
  C         1.19250         -0.68340        -0.10244
  C         0.05232         -1.53604         0.31339
  C        -1.18652         -1.48702        -0.18122
  H         0.22002          2.34089         1.04433
  H         2.16560          1.15885        -0.17604
  H         2.16338         -1.16824        -0.17433
  H         0.23453         -2.32419         1.04741
  H        -1.91530         -2.10910         0.33692
  H        -1.51597         -1.03670        -1.11575
  H        -1.90332          2.11267         0.34651
  H        -1.53781          1.04978        -1.12203
14
 step=          74     theta[rad]=           0.7749
  C        -1.18547          1.48835        -0.18132
  C         0.05297          1.53608         0.31037
  C         1.18848          0.67810        -0.10098
  C         1.18955         -0.67986        -0.09888
  C         0.05372         -1.53300         0.30668
  C        -1.18619         -1.49093        -0.17934
  H         0.23915          2.30729         1.05780
  H         2.15928          1.16060        -0.18284
  H         2.15771         -1.16723        -0.18163
  H         0.24941         -2.29548         1.05998
  H        -1.93191         -2.09954         0.32447
  H        -1.50020         -1.00372        -1.09435
  H        -1.92344          2.10207         0.33124
  H        -1.51564          1.01297        -1.09879
14
 step=          75     theta[rad]=           0.7854
  C        -1.18538          1.50036        -0.17480
  C         0.05710          1.52564         0.29049
  C         1.18242          0.67131        -0.09028
  C         1.18242         -0.67131        -0.09028
  C         0.05710         -1.52564         0.29049
  C        -1.18539         -1.50036        -0.17480
  H         0.28535          2.22615         1.09034
  H         2.14403          1.16481        -0.19926
  H         2.14403         -1.16481        -0.19926
  H         0.28535         -2.22615         1.09033
  H        -1.97202         -2.07648         0.29439
  H        -1.46211         -0.92408        -1.04266
  H        -1.97202          2.07648         0.29438
  H        -1.46210          0.92408        -1.04267
14
 step=          76     theta[rad]=           0.7959
  C        -1.18530          1.51250        -0.16821
  C         0.06127          1.51510         0.27039
  C         1.17630          0.66444        -0.07947
  C         1.17521         -0.66266        -0.08159
  C         0.06051         -1.51821         0.27412
  C        -1.18458         -1.50990        -0.17021
  H         0.33202          2.14417         1.12321
  H         2.12862          1.16907        -0.21585
  H         2.13020         -1.16237        -0.21708
  H         0.32166         -2.15611         1.12100
  H        -2.01254         -2.05317         0.26400
  H        -1.42363         -0.84361        -0.99043
  H        -2.02110          2.05061         0.25714
  H        -1.40800          0.83427        -0.98596
14
 step=          77     theta[rad]=           0.8063
  C        -1.18526          1.51735        -0.16559
  C         0.06294          1.51089         0.26237
  C         1.17385          0.66171        -0.07516
  C         1.17234         -0.65921        -0.07813
  C         0.06187         -1.51524         0.26759
  C        -1.18426         -1.51370        -0.16838
  H         0.35065          2.11146         1.13632
  H         2.12247          1.17077        -0.22247
  H         2.12469         -1.16140        -0.22418
  H         0.33615         -2.12816         1.13323
  H        -2.02871         -2.04388         0.25187
  H        -1.40827         -0.81151        -0.96960
  H        -2.04068          2.04029         0.24228
  H        -1.38642          0.79844        -0.96334
14
 step=          78     theta[rad]=           0.8168
  C        -1.18530          1.51160        -0.16870
  C         0.06096          1.51588         0.27189
  C         1.17675          0.66496        -0.08028
  C         1.17575         -0.66330        -0.08224
  C         0.06026         -1.51876         0.27534
  C        -1.18464         -1.50919        -0.17055
  H         0.32855          2.15027         1.12076
  H         2.12977          1.16876        -0.21461
  H         2.13123         -1.16255        -0.21575
  H         0.31896         -2.16132         1.11872
  H        -2.00953         -2.05491         0.26626
  H        -1.42649         -0.84960        -0.99432
  H        -2.01745          2.05254         0.25991
  H        -1.41203          0.84095        -0.99018
14
 step=          79     theta[rad]=           0.8273
  C        -1.18540          1.49859        -0.17576
  C         0.05649          1.52718         0.29343
  C         1.18332          0.67231        -0.09186
  C         1.18347         -0.67257        -0.09155
  C         0.05660         -1.52673         0.29288
  C        -1.18551         -1.49897        -0.17547
  H         0.27852          2.23815         1.08553
  H         2.14628          1.16419        -0.19683
  H         2.14605         -1.16517        -0.19665
  H         0.28004         -2.23640         1.08585
  H        -1.96609         -2.07989         0.29884
  H        -1.46774         -0.93585        -1.05030
  H        -1.96484          2.08026         0.29983
  H        -1.47002          0.93722        -1.05096
14
 step=          80     theta[rad]=           0.8378
  C        -1.18549          1.48662        -0.18225
  C         0.05237          1.53758         0.31324
  C         1.18936          0.67908        -0.10252
  C         1.19058         -0.68109        -0.10012
  C         0.05324         -1.53406         0.30901
  C        -1.18630         -1.48957        -0.17999
  H         0.23249          2.31898         1.05312
  H         2.16148          1.15999        -0.18047
  H         2.15969         -1.16758        -0.17909
  H         0.24423         -2.30547         1.05561
  H        -1.92613         -2.10287         0.32880
  H        -1.50569         -1.01520        -1.10180
  H        -1.91644          2.10576         0.33656
  H        -1.52336          1.02578        -1.10688
14
 step=          81     theta[rad]=           0.8482
  C        -1.18551          1.48378        -0.18379
  C         0.05140          1.54004         0.31794
  C         1.19079          0.68068        -0.10504
  C         1.19226         -0.68311        -0.10215
  C         0.05244         -1.53579         0.31284
  C        -1.18649         -1.48734        -0.18106
  H         0.22159          2.33814         1.04544
  H         2.16508          1.15900        -0.17660
  H         2.16292         -1.16815        -0.17493
  H         0.23575         -2.32183         1.04844
  H        -1.91666         -2.10831         0.33590
  H        -1.51467         -1.03400        -1.11400
  H        -1.90498          2.11180         0.34526
  H        -1.53599          1.04676        -1.12012
14
 step=          82     theta[rad]=           0.8587
  C        -1.18544          1.49233        -0.17915
  C         0.05434          1.53261         0.30378
  C         1.18647          0.67585        -0.09743
  C         1.18719         -0.67702        -0.09603
  C         0.05484         -1.53056         0.30131
  C        -1.18592         -1.49406        -0.17783
  H         0.25447          2.28038         1.06860
  H         2.15422          1.16200        -0.18829
  H         2.15317         -1.16643        -0.18748
  H         0.26133         -2.27248         1.07005
  H        -1.94521         -2.09189         0.31449
  H        -1.48756         -0.97730        -1.07720
  H        -1.93955          2.09358         0.31902
  H        -1.49788          0.98349        -1.08017
14
 step=          83     theta[rad]=           0.8692
  C        -1.18534          1.50662        -0.17141
  C         0.05925          1.52021         0.28013
  C         1.17927          0.66777        -0.08471
  C         1.17871         -0.66685        -0.08581
  C         0.05886         -1.52181         0.28205
  C        -1.18497         -1.50528        -0.17243
  H         0.30940          2.18391         1.10727
  H         2.13609          1.16701        -0.20781
  H         2.13690         -1.16356        -0.20844
  H         0.30406         -2.19006         1.10613
  H        -1.99290         -2.06447         0.27873
  H        -1.44228         -0.88262        -1.01575
  H        -1.99731          2.06315         0.27519
  H        -1.43423          0.87781        -1.01345
14
 step=          84     theta[rad]=           0.8796
  C        -1.18527          1.51652        -0.16603
  C         0.06266          1.51161         0.26374
  C         1.17427          0.66217        -0.07589
  C         1.17283         -0.65980        -0.07872
  C         0.06164         -1.51574         0.26870
  C        -1.18431         -1.51306        -0.16869
  H         0.34748          2.11702         1.13409
  H         2.12352          1.17048        -0.22134
  H         2.12562         -1.16156        -0.22298
  H         0.33369         -2.13291         1.13115
  H        -2.02596         -2.04546         0.25394
  H        -1.41088         -0.81697        -0.97314
  H        -2.03735          2.04205         0.24480
  H        -1.39009          0.80453        -0.96718
14
 step=          85     theta[rad]=           0.8901
  C        -1.18528          1.51461        -0.16707
  C         0.06200          1.51327         0.26690
  C         1.17523          0.66325        -0.07759
  C         1.17396         -0.66116        -0.08008
  C         0.06111         -1.51691         0.27128
  C        -1.18444         -1.51156        -0.16941
  H         0.34014          2.12992         1.12892
  H         2.12594          1.16981        -0.21873
  H         2.12780         -1.16195        -0.22017
  H         0.32797         -2.14393         1.12633
  H        -2.01959         -2.04912         0.25872
  H        -1.41694         -0.82963        -0.98135
  H        -2.02963          2.04612         0.25066
  H        -1.39860          0.81866        -0.97610
14
 step=          86     theta[rad]=           0.9006
  C        -1.18537          1.50196        -0.17393
  C         0.05765          1.52425         0.28784
  C         1.18161          0.67040        -0.08886
  C         1.18147         -0.67017        -0.08914
  C         0.05755         -1.52466         0.28833
  C        -1.18528         -1.50162        -0.17419
  H         0.29150          2.21535         1.09467
  H         2.14200          1.16538        -0.20144
  H         2.14221         -1.16449        -0.20161
  H         0.29013         -2.21693         1.09437
  H        -1.97735         -2.07341         0.29039
  H        -1.45704         -0.91348        -1.03578
  H        -1.97848          2.07307         0.28948
  H        -1.45498          0.91225        -1.03520
14
 step=          87     theta[rad]=           0.9111
  C        -1.18548          1.48798        -0.18152
  C         0.05284          1.53640         0.31099
  C         1.18867          0.67831        -0.10131
  C         1.18977         -0.68013        -0.09915
  C         0.05362         -1.53322         0.30718
  C        -1.18621         -1.49064        -0.17948
  H         0.23772          2.30980         1.05680
  H         2.15975          1.16047        -0.18233
  H         2.15814         -1.16731        -0.18108
  H         0.24830         -2.29762         1.05904
  H        -1.93067         -2.10026         0.32540
  H        -1.50137         -1.00618        -1.09594
  H        -1.92194          2.10286         0.33238
  H        -1.51730          1.01572        -1.10052
14
 step=          88     theta[rad]=           0.9215
  C        -1.18551          1.48361        -0.18389
  C         0.05134          1.54019         0.31822
  C         1.19087          0.68078        -0.10520
  C         1.19236         -0.68324        -0.10227
  C         0.05239         -1.53590         0.31307
  C        -1.18650         -1.48721        -0.18113
  H         0.22093          2.33929         1.04497
  H         2.16529          1.15894        -0.17636
  H         2.16311         -1.16819        -0.17468
  H         0.23524         -2.32282         1.04801
  H        -1.91609         -2.10864         0.33633
  H        -1.51522         -1.03513        -1.11473
  H        -1.90428          2.11217         0.34578
  H        -1.53676          1.04803        -1.12092
14
 step=          89     theta[rad]=           0.9320
  C        -1.18544          1.49265        -0.17898
  C         0.05445          1.53234         0.30326
  C         1.18631          0.67567        -0.09715
  C         1.18700         -0.67680        -0.09580
  C         0.05493         -1.53036         0.30088
  C        -1.18590         -1.49431        -0.17771
  H         0.25569          2.27825         1.06945
  H         2.15382          1.16211        -0.18872
  H         2.15281         -1.16637        -0.18794
  H         0.26228         -2.27066         1.07085
  H        -1.94626         -2.09129         0.31370
  H        -1.48656         -0.97521        -1.07584
  H        -1.94083          2.09291         0.31805
  H        -1.49648          0.98115        -1.07870
14
 step=          90     theta[rad]=           0.9425
  C        -1.18533          1.50808        -0.17062
  C         0.05975          1.51894         0.27772
  C         1.17853          0.66695        -0.08341
  C         1.17784         -0.66581        -0.08476
  C         0.05927         -1.52092         0.28009
  C        -1.18488         -1.50642        -0.17188
  H         0.31501          2.17406         1.11122
  H         2.13424          1.16752        -0.20980
  H         2.13524         -1.16326        -0.21058
  H         0.30842         -2.18164         1.10982
  H        -1.99777         -2.06167         0.27508
  H        -1.43766         -0.87295        -1.00947
  H        -2.00320          2.06004         0.27072
  H        -1.42773          0.86701        -1.00663
14
 step=          91     theta[rad]=           0.9529
  C        -1.18526          1.51717        -0.16568
  C         0.06288          1.51104         0.26266
  C         1.17394          0.66180        -0.07532
  C         1.17244         -0.65934        -0.07825
  C         0.06183         -1.51535         0.26783
  C        -1.18427         -1.51357        -0.16844
  H         0.34998          2.11264         1.13585
  H         2.12269          1.17071        -0.22223
  H         2.12488         -1.16143        -0.22393
  H         0.33563         -2.12916         1.13279
  H        -2.02813         -2.04421         0.25231
  H        -1.40882         -0.81266        -0.97034
  H        -2.03998          2.04066         0.24281
  H        -1.38720          0.79972        -0.96415
14
 step=          92     theta[rad]=           0.9634
  C        -1.18530          1.51200        -0.16849
  C         0.06110          1.51554         0.27123
  C         1.17655          0.66473        -0.07992
  C         1.17552         -0.66302        -0.08196
  C         0.06037         -1.51852         0.27481
  C        -1.18462         -1.50950        -0.17040
  H         0.33007          2.14760         1.12183
  H         2.12927          1.16890        -0.21515
  H         2.13078         -1.16247        -0.21633
  H         0.32014         -2.15904         1.11971
  H        -2.01085         -2.05415         0.26527
  H        -1.42524         -0.84698        -0.99262
  H        -2.01904          2.05170         0.25870
  H        -1.41027          0.83803        -0.98833
14
 step=          93     theta[rad]=           0.9739
  C        -1.18541          1.49666        -0.17681
  C         0.05583          1.52886         0.29662
  C         1.18429          0.67340        -0.09358
  C         1.18462         -0.67395        -0.09293
  C         0.05606         -1.52791         0.29548
  C        -1.18563         -1.49745        -0.17620
  H         0.27110          2.25118         1.08030
  H         2.14873          1.16351        -0.19419
  H         2.14825         -1.16556        -0.19382
  H         0.27426         -2.24754         1.08097
  H        -1.95964         -2.08359         0.30367
  H        -1.47386         -0.94865        -1.05860
  H        -1.95703          2.08437         0.30575
  H        -1.47862          0.95151        -1.05998
14
 step=          94     theta[rad]=           0.9844
  C        -1.18550          1.48450        -0.18340
  C         0.05165          1.53942         0.31674
  C         1.19042          0.68027        -0.10440
  C         1.19184         -0.68260        -0.10163
  C         0.05264         -1.53535         0.31187
  C        -1.18644         -1.48791        -0.18079
  H         0.22435          2.33328         1.04739
  H         2.16416          1.15925        -0.17758
  H         2.16210         -1.16801        -0.17598
  H         0.23790         -2.31768         1.05026
  H        -1.91906         -2.10693         0.33410
  H        -1.51239         -1.02923        -1.11090
  H        -1.90788          2.11027         0.34305
  H        -1.53279          1.04144        -1.11676
14
 step=          95     theta[rad]=           0.9948
  C        -1.18549          1.48662        -0.18225
  C         0.05237          1.53758         0.31324
  C         1.18936          0.67908        -0.10252
  C         1.19058         -0.68109        -0.10012
  C         0.05324         -1.53406         0.30901
  C        -1.18630         -1.48957        -0.17999
  H         0.23249          2.31898         1.05312
  H         2.16148          1.15999        -0.18047
  H         2.15969         -1.16758        -0.17909
  H         0.24423         -2.30547         1.05561
  H        -1.92613         -2.10287         0.32880
  H        -1.50569         -1.01520        -1.10180
  H        -1.91644          2.10576         0.33656
  H        -1.52336          1.02578        -1.10688
14
 step=          96     theta[rad]=           1.0053
  C        -1.18538          1.50143        -0.17422
  C         0.05747          1.52471         0.28872
  C         1.18188          0.67070        -0.08933
  C         1.18179         -0.67055        -0.08952
  C         0.05740         -1.52499         0.28905
  C        -1.18532         -1.50120        -0.17439
  H         0.28945          2.21895         1.09322
  H         2.14268          1.16519        -0.20072
  H         2.14281         -1.16460        -0.20083
  H         0.28854         -2.22000         1.09303
  H        -1.97558         -2.07443         0.29172
  H        -1.45873         -0.91701        -1.03807
  H        -1.97633          2.07420         0.29111
  H        -1.45735          0.91619        -1.03768
14
 step=          97     theta[rad]=           1.0158
  C        -1.18527          1.51534        -0.16668
  C         0.06225          1.51264         0.26570
  C         1.17487          0.66284        -0.07695
  C         1.17353         -0.66064        -0.07956
  C         0.06131         -1.51647         0.27030
  C        -1.18439         -1.51212        -0.16914
  H         0.34292          2.12503         1.13088
  H         2.12502          1.17007        -0.21972
  H         2.12697         -1.16180        -0.22124
  H         0.33014         -2.13975         1.12816
  H        -2.02201         -2.04773         0.25690
  H        -1.41464         -0.82482        -0.97824
  H        -2.03256          2.04457         0.24844
  H        -1.39537          0.81330        -0.97272
14
 step=          98     theta[rad]=           1.0263
  C        -1.18528          1.51499        -0.16687
  C         0.06213          1.51294         0.26628
  C         1.17504          0.66304        -0.07726
  C         1.17374         -0.66089        -0.07981
  C         0.06121         -1.51668         0.27077
  C        -1.18442         -1.51185        -0.16927
  H         0.34158          2.12739         1.12994
  H         2.12547          1.16995        -0.21924
  H         2.12737         -1.16187        -0.22072
  H         0.32910         -2.14177         1.12728
  H        -2.02084         -2.04840         0.25778
  H        -1.41575         -0.82714        -0.97974
  H        -2.03115          2.04532         0.24951
  H        -1.39693          0.81588        -0.97435
14
 step=          99     theta[rad]=           1.0367
  C        -1.18538          1.50036        -0.17480
  C         0.05710          1.52564         0.29049
  C         1.18242          0.67131        -0.09028
  C         1.18242         -0.67131        -0.09028
  C         0.05710         -1.52564         0.29048
  C        -1.18539         -1.50036        -0.17480
  H         0.28535          2.22615         1.09034
  H         2.14403          1.16481        -0.19926
  H         2.14403         -1.16481        -0.19926
  H         0.28535         -2.22615         1.09033
  H        -1.97202         -2.07648         0.29439
  H        -1.46211         -0.92408        -1.04266
  H        -1.97202          2.07648         0.29438
  H        -1.46210          0.92408        -1.04266
14
 step=         100     theta[rad]=           1.0472
  C        -1.18549          1.48565        -0.18278
  C         0.05204          1.53842         0.31484
  C         1.18985          0.67963        -0.10338
  C         1.19115         -0.68178        -0.10081
  C         0.05296         -1.53465         0.31032
  C        -1.18637         -1.48881        -0.18036
  H         0.22877          2.32553         1.05049
  H         2.16271          1.15965        -0.17915
  H         2.16079         -1.16778        -0.17767
  H         0.24134         -2.31106         1.05316
  H        -1.92289         -2.10473         0.33123
  H        -1.50876         -1.02162        -1.10596
  H        -1.91252          2.10783         0.33953
  H        -1.52767          1.03295        -1.11140
14
 step=         101     theta[rad]=           1.0577
  C        -1.18549          1.48574        -0.18273
  C         0.05207          1.53834         0.31470
  C         1.18980          0.67957        -0.10330
  C         1.19110         -0.68172        -0.10075
  C         0.05299         -1.53460         0.31020
  C        -1.18636         -1.48888        -0.18032
  H         0.22911          2.32492         1.05074
  H         2.16259          1.15968        -0.17927
  H         2.16069         -1.16776        -0.17780
  H         0.24160         -2.31054         1.05339
  H        -1.92319         -2.10455         0.33100
  H        -1.50847         -1.02102        -1.10558
  H        -1.91289          2.10764         0.33925
  H        -1.52727          1.03228        -1.11098
14
 step=         102     theta[rad]=           1.0681
  C        -1.18538          1.50090        -0.17451
  C         0.05728          1.52518         0.28960
  C         1.18215          0.67101        -0.08981
  C         1.18210         -0.67093        -0.08990
  C         0.05725         -1.52531         0.28977
  C        -1.18535         -1.50078        -0.17459
  H         0.28740          2.22255         1.09178
  H         2.14335          1.16500        -0.19999
  H         2.14342         -1.16471        -0.20004
  H         0.28695         -2.22307         1.09168
  H        -1.97380         -2.07545         0.29305
  H        -1.46042         -0.92054        -1.04036
  H        -1.97417          2.07534         0.29274
  H        -1.45972          0.92013        -1.04017
14
 step=         103     theta[rad]=           1.0786
  C        -1.18527          1.51558        -0.16654
  C         0.06233          1.51242         0.26529
  C         1.17474          0.66270        -0.07673
  C         1.17339         -0.66047        -0.07939
  C         0.06138         -1.51632         0.26997
  C        -1.18438         -1.51232        -0.16904
  H         0.34387          2.12337         1.13154
  H         2.12471          1.17015        -0.22006
  H         2.12669         -1.16175        -0.22160
  H         0.33087         -2.13834         1.12878
  H        -2.02282         -2.04726         0.25629
  H        -1.41386         -0.82320        -0.97718
  H        -2.03355          2.04405         0.24769
  H        -1.39428          0.81149        -0.97157
14
 step=         104     theta[rad]=           1.0891
  C        -1.18528          1.51411        -0.16734
  C         0.06183          1.51370         0.26773
  C         1.17549          0.66354        -0.07804
  C         1.17426         -0.66152        -0.08044
  C         0.06096         -1.51722         0.27196
  C        -1.18447         -1.51116        -0.16960
  H         0.33820          2.13332         1.12756
  H         2.12658          1.16964        -0.21804
  H         2.12837         -1.16205        -0.21943
  H         0.32647         -2.14684         1.12506
  H        -2.01791         -2.05009         0.25998
  H        -1.41853         -0.83297        -0.98352
  H        -2.02759          2.04719         0.25221
  H        -1.40084          0.82238        -0.97845
14
 step=         105     theta[rad]=           1.0996
  C        -1.18540          1.49771        -0.17624
  C         0.05619          1.52795         0.29489
  C         1.18376          0.67281        -0.09265
  C         1.18400         -0.67320        -0.09218
  C         0.05635         -1.52727         0.29407
  C        -1.18556         -1.49828        -0.17580
  H         0.27513          2.24410         1.08314
  H         2.14740          1.16388        -0.19563
  H         2.14706         -1.16535        -0.19536
  H         0.27740         -2.24149         1.08362
  H        -1.96314         -2.08158         0.30104
  H        -1.47054         -0.94170        -1.05409
  H        -1.96127          2.08214         0.30254
  H        -1.47395          0.94375        -1.05508
14
 step=         106     theta[rad]=           1.1100
  C        -1.18551          1.48415        -0.18359
  C         0.05153          1.53972         0.31733
  C         1.19060          0.68047        -0.10472
  C         1.19204         -0.68285        -0.10189
  C         0.05254         -1.53557         0.31234
  C        -1.18647         -1.48763        -0.18092
  H         0.22300          2.33565         1.04644
  H         2.16461          1.15913        -0.17710
  H         2.16250         -1.16808        -0.17547
  H         0.23685         -2.31971         1.04938
  H        -1.91789         -2.10760         0.33498
  H        -1.51351         -1.03155        -1.11241
  H        -1.90646          2.11102         0.34413
  H        -1.53435          1.04404        -1.11840
14
 step=         107     theta[rad]=           1.1205
  C        -1.18547          1.48873        -0.18111
  C         0.05310          1.53574         0.30974
  C         1.18829          0.67788        -0.10064
  C         1.18932         -0.67959        -0.09861
  C         0.05383         -1.53276         0.30616
  C        -1.18616         -1.49123        -0.17919
  H         0.24062          2.30470         1.05884
  H         2.15879          1.16073        -0.18336
  H         2.15728         -1.16716        -0.18219
  H         0.25056         -2.29327         1.06095
  H        -1.93319         -2.09881         0.32351
  H        -1.49898         -1.00118        -1.09270
  H        -1.92499          2.10126         0.33007
  H        -1.51393          1.01014        -1.09700
14
 step=         108     theta[rad]=           1.1310
  C        -1.18534          1.50662        -0.17141
  C         0.05925          1.52021         0.28013
  C         1.17927          0.66777        -0.08471
  C         1.17871         -0.66685        -0.08581
  C         0.05886         -1.52181         0.28205
  C        -1.18497         -1.50528        -0.17243
  H         0.30940          2.18391         1.10727
  H         2.13609          1.16701        -0.20781
  H         2.13690         -1.16356        -0.20844
  H         0.30406         -2.19006         1.10613
  H        -1.99290         -2.06447         0.27873
  H        -1.44228         -0.88262        -1.01575
  H        -1.99731          2.06315         0.27519
  H        -1.43423          0.87781        -1.01345
14
 step=         109     theta[rad]=           1.1414
  C        -1.18526          1.51733        -0.16560
  C         0.06293          1.51090         0.26240
  C         1.17386          0.66172        -0.07517
  C         1.17235         -0.65922        -0.07814
  C         0.06187         -1.51525         0.26761
  C        -1.18426         -1.51369        -0.16838
  H         0.35059          2.11156         1.13628
  H         2.12249          1.17077        -0.22245
  H         2.12470         -1.16140        -0.22416
  H         0.33610         -2.12825         1.13319
  H        -2.02866         -2.04390         0.25191
  H        -1.40832         -0.81161        -0.96966
  H        -2.04062          2.04033         0.24232
  H        -1.38649          0.79855        -0.96341
14
 step=         110     theta[rad]=           1.1519
  C        -1.18533          1.50808        -0.17062
  C         0.05975          1.51894         0.27772
  C         1.17853          0.66695        -0.08341
  C         1.17784         -0.66581        -0.08476
  C         0.05927         -1.52092         0.28009
  C        -1.18488         -1.50642        -0.17188
  H         0.31501          2.17406         1.11122
  H         2.13424          1.16752        -0.20980
  H         2.13524         -1.16326        -0.21058
  H         0.30842         -2.18164         1.10982
  H        -1.99777         -2.06167         0.27508
  H        -1.43766         -0.87295        -1.00947
  H        -2.00320          2.06004         0.27072
  H        -1.42773          0.86701        -1.00663
14
 step=         111     theta[rad]=           1.1624
  C        -1.18547          1.48953        -0.18067
  C         0.05338          1.53505         0.30841
  C         1.18789          0.67743        -0.09992
  C         1.18885         -0.67902        -0.09803
  C         0.05405         -1.53227         0.30508
  C        -1.18611         -1.49186        -0.17889
  H         0.24370          2.29929         1.06101
  H         2.15778          1.16102        -0.18446
  H         2.15636         -1.16700        -0.18337
  H         0.25295         -2.28865         1.06297
  H        -1.93586         -2.09727         0.32150
  H        -1.49644         -0.99587        -1.08925
  H        -1.92823          2.09955         0.32761
  H        -1.51036          1.00421        -1.09326
14
 step=         112     theta[rad]=           1.1729
  C        -1.18551          1.48410        -0.18362
  C         0.05151          1.53977         0.31741
  C         1.19063          0.68050        -0.10476
  C         1.19207         -0.68289        -0.10192
  C         0.05253         -1.53560         0.31241
  C        -1.18647         -1.48759        -0.18094
  H         0.22280          2.33600         1.04629
  H         2.16468          1.15911        -0.17703
  H         2.16256         -1.16809        -0.17539
  H         0.23670         -2.32001         1.04924
  H        -1.91771         -2.10770         0.33511
  H        -1.51367         -1.03190        -1.11264
  H        -1.90625          2.11113         0.34429
  H        -1.53459          1.04442        -1.11865
14
 step=         113     theta[rad]=           1.1833
  C        -1.18540          1.49876        -0.17567
  C         0.05655          1.52703         0.29313
  C         1.18323          0.67221        -0.09170
  C         1.18337         -0.67244        -0.09143
  C         0.05665         -1.52662         0.29264
  C        -1.18549         -1.49911        -0.17540
  H         0.27920          2.23695         1.08601
  H         2.14606          1.16425        -0.19707
  H         2.14585         -1.16514        -0.19691
  H         0.28057         -2.23538         1.08629
  H        -1.96668         -2.07955         0.29839
  H        -1.46718         -0.93468        -1.04954
  H        -1.96555          2.07988         0.29929
  H        -1.46923          0.93591        -1.05013
14
 step=         114     theta[rad]=           1.1938
  C        -1.18527          1.51550        -0.16659
  C         0.06231          1.51249         0.26542
  C         1.17478          0.66275        -0.07680
  C         1.17343         -0.66053        -0.07945
  C         0.06136         -1.51637         0.27008
  C        -1.18438         -1.51225        -0.16907
  H         0.34356          2.12391         1.13133
  H         2.12481          1.17013        -0.21995
  H         2.12679         -1.16177        -0.22148
  H         0.33063         -2.13880         1.12857
  H        -2.02256         -2.04741         0.25649
  H        -1.41412         -0.82373        -0.97753
  H        -2.03323          2.04422         0.24793
  H        -1.39464          0.81208        -0.97195
14
 step=         115     theta[rad]=           1.2043
  C        -1.18529          1.51299        -0.16795
  C         0.06144          1.51467         0.26958
  C         1.17605          0.66417        -0.07904
  C         1.17493         -0.66231        -0.08125
  C         0.06065         -1.51791         0.27347
  C        -1.18455         -1.51028        -0.17002
  H         0.33390          2.14088         1.12453
  H         2.12800          1.16924        -0.21651
  H         2.12965         -1.16227        -0.21779
  H         0.32312         -2.15329         1.12223
  H        -2.01417         -2.05224         0.26278
  H        -1.42208         -0.84038        -0.98834
  H        -2.02307          2.04957         0.25564
  H        -1.40583          0.83066        -0.98368
14
 step=         116     theta[rad]=           1.2147
  C        -1.18543          1.49411        -0.17819
  C         0.05495          1.53107         0.30084
  C         1.18558          0.67484        -0.09585
  C         1.18613         -0.67576        -0.09476
  C         0.05534         -1.52947         0.29892
  C        -1.18580         -1.49545        -0.17716
  H         0.26130          2.26839         1.07340
  H         2.15197          1.16262        -0.19071
  H         2.15115         -1.16607        -0.19008
  H         0.26664         -2.26225         1.07453
  H        -1.95113         -2.08849         0.31005
  H        -1.48194         -0.96554        -1.06957
  H        -1.94673          2.08980         0.31357
  H        -1.48997          0.97036        -1.07188
14
 step=         117     theta[rad]=           1.2252
  C        -1.18551          1.48338        -0.18401
  C         0.05126          1.54039         0.31860
  C         1.19099          0.68091        -0.10540
  C         1.19250         -0.68340        -0.10244
  C         0.05233         -1.53604         0.31338
  C        -1.18652         -1.48703        -0.18122
  H         0.22005          2.34084         1.04435
  H         2.16559          1.15886        -0.17605
  H         2.16337         -1.16823        -0.17434
  H         0.23455         -2.32415         1.04743
  H        -1.91532         -2.10908         0.33690
  H        -1.51595         -1.03665        -1.11572
  H        -1.90335          2.11266         0.34649
  H        -1.53778          1.04973        -1.12199
14
 step=         118     theta[rad]=           1.2357
  C        -1.18542          1.49528        -0.17755
  C         0.05535          1.53005         0.29890
  C         1.18498          0.67418        -0.09480
  C         1.18544         -0.67492        -0.09392
  C         0.05567         -1.52875         0.29733
  C        -1.18573         -1.49637        -0.17672
  H         0.26581          2.26047         1.07658
  H         2.15048          1.16303        -0.19231
  H         2.14982         -1.16584        -0.19180
  H         0.27015         -2.25547         1.07750
  H        -1.95505         -2.08623         0.30711
  H        -1.47822         -0.95776        -1.06452
  H        -1.95147          2.08730         0.30997
  H        -1.48474          0.96167        -1.06640
14
 step=         119     theta[rad]=           1.2462
  C        -1.18528          1.51411        -0.16734
  C         0.06183          1.51370         0.26773
  C         1.17549          0.66354        -0.07804
  C         1.17426         -0.66152        -0.08044
  C         0.06096         -1.51722         0.27196
  C        -1.18447         -1.51116        -0.16960
  H         0.33820          2.13332         1.12756
  H         2.12658          1.16964        -0.21804
  H         2.12837         -1.16205        -0.21943
  H         0.32647         -2.14684         1.12506
  H        -2.01791         -2.05009         0.25998
  H        -1.41853         -0.83297        -0.98352
  H        -2.02759          2.04719         0.25221
  H        -1.40084          0.82238        -0.97845
14
 step=         120     theta[rad]=           1.2566
  C        -1.18528          1.51411        -0.16734
  C         0.06183          1.51370         0.26773
  C         1.17549          0.66354        -0.07804
  C         1.17426         -0.66152        -0.08044
  C         0.06096         -1.51722         0.27196
  C        -1.18447         -1.51116        -0.16960
  H         0.33820          2.13332         1.12756
  H         2.12658          1.16964        -0.21804
  H         2.12837         -1.16205        -0.21943
  H         0.32647         -2.14684         1.12506
  H        -2.01791         -2.05009         0.25998
  H        -1.41853         -0.83297        -0.98352
  H        -2.02759          2.04719         0.25221
  H        -1.40084          0.82238        -0.97845
14
 step=         121     theta[rad]=           1.2671
  C        -1.18543          1.49494        -0.17774
  C         0.05524          1.53035         0.29946
  C         1.18516          0.67437        -0.09511
  C         1.18564         -0.67517        -0.09416
  C         0.05558         -1.52896         0.29779
  C        -1.18575         -1.49611        -0.17684
  H         0.26451          2.26275         1.07566
  H         2.15091          1.16291        -0.19185
  H         2.15020         -1.16591        -0.19131
  H         0.26914         -2.25743         1.07664
  H        -1.95392         -2.08688         0.30796
  H        -1.47929         -0.96001        -1.06597
  H        -1.95011          2.08802         0.31101
  H        -1.48625          0.96418        -1.06798
14
 step=         122     theta[rad]=           1.2776
  C        -1.18551          1.48338        -0.18401
  C         0.05126          1.54039         0.31860
  C         1.19099          0.68091        -0.10540
  C         1.19250         -0.68340        -0.10244
  C         0.05233         -1.53604         0.31338
  C        -1.18652         -1.48703        -0.18122
  H         0.22005          2.34084         1.04435
  H         2.16559          1.15886        -0.17605
  H         2.16337         -1.16823        -0.17434
  H         0.23455         -2.32415         1.04743
  H        -1.91532         -2.10908         0.33690
  H        -1.51595         -1.03665        -1.11572
  H        -1.90335          2.11266         0.34649
  H        -1.53778          1.04973        -1.12199
14
 step=         123     theta[rad]=           1.2881
  C        -1.18542          1.49614        -0.17709
  C         0.05565          1.52931         0.29748
  C         1.18455          0.67370        -0.09404
  C         1.18493         -0.67432        -0.09331
  C         0.05591         -1.52823         0.29618
  C        -1.18567         -1.49705        -0.17639
  H         0.26910          2.25469         1.07889
  H         2.14939          1.16333        -0.19348
  H         2.14884         -1.16567        -0.19306
  H         0.27271         -2.25054         1.07966
  H        -1.95791         -2.08459         0.30497
  H        -1.47550         -0.95209        -1.06084
  H        -1.95493          2.08548         0.30735
  H        -1.48093          0.95535        -1.06240
14
 step=         124     theta[rad]=           1.2985
  C        -1.18528          1.51508        -0.16682
  C         0.06216          1.51286         0.26613
  C         1.17500          0.66299        -0.07718
  C         1.17369         -0.66083        -0.07975
  C         0.06124         -1.51663         0.27065
  C        -1.18441         -1.51192        -0.16923
  H         0.34193          2.12678         1.13018
  H         2.12535          1.16998        -0.21937
  H         2.12727         -1.16185        -0.22086
  H         0.32936         -2.14125         1.12750
  H        -2.02114         -2.04823         0.25755
  H        -1.41546         -0.82654        -0.97935
  H        -2.03151          2.04513         0.24924
  H        -1.39653          0.81522        -0.97393
14
 step=         125     theta[rad]=           1.3090
  C        -1.18530          1.51238        -0.16828
  C         0.06123          1.51521         0.27060
  C         1.17636          0.66452        -0.07958
  C         1.17529         -0.66275        -0.08168
  C         0.06048         -1.51828         0.27429
  C        -1.18459         -1.50980        -0.17025
  H         0.33154          2.14502         1.12287
  H         2.12878          1.16903        -0.21568
  H         2.13034         -1.16240        -0.21689
  H         0.32129         -2.15683         1.12068
  H        -2.01213         -2.05341         0.26431
  H        -1.42402         -0.84444        -0.99097
  H        -2.02059          2.05088         0.25752
  H        -1.40856          0.83519        -0.98654
14
 step=         126     theta[rad]=           1.3195
  C        -1.18545          1.49171        -0.17949
  C         0.05413          1.53315         0.30480
  C         1.18678          0.67620        -0.09798
  C         1.18755         -0.67747        -0.09647
  C         0.05467         -1.53094         0.30214
  C        -1.18596         -1.49357        -0.17807
  H         0.25209          2.28456         1.06692
  H         2.15501          1.16178        -0.18744
  H         2.15388         -1.16656        -0.18657
  H         0.25948         -2.27606         1.06848
  H        -1.94314         -2.09308         0.31604
  H        -1.48953         -0.98141        -1.07987
  H        -1.93705          2.09490         0.32092
  H        -1.50064          0.98807        -1.08307
14
 step=         127     theta[rad]=           1.3299
  C        -1.18551          1.48410        -0.18362
  C         0.05151          1.53977         0.31741
  C         1.19063          0.68050        -0.10476
  C         1.19207         -0.68289        -0.10192
  C         0.05253         -1.53560         0.31241
  C        -1.18647         -1.48759        -0.18094
  H         0.22280          2.33600         1.04629
  H         2.16468          1.15911        -0.17703
  H         2.16256         -1.16809        -0.17539
  H         0.23670         -2.32001         1.04924
  H        -1.91771         -2.10770         0.33511
  H        -1.51367         -1.03190        -1.11264
  H        -1.90625          2.11113         0.34429
  H        -1.53459          1.04442        -1.11865
14
 step=         128     theta[rad]=           1.3404
  C        -1.18538          1.50143        -0.17422
  C         0.05747          1.52471         0.28872
  C         1.18188          0.67070        -0.08933
  C         1.18179         -0.67055        -0.08952
  C         0.05740         -1.52499         0.28905
  C        -1.18532         -1.50120        -0.17439
  H         0.28945          2.21895         1.09322
  H         2.14268          1.16519        -0.20072
  H         2.14281         -1.16460        -0.20083
  H         0.28854         -2.22000         1.09303
  H        -1.97558         -2.07443         0.29172
  H        -1.45873         -0.91701        -1.03807
  H        -1.97633          2.07420         0.29111
  H        -1.45735          0.91619        -1.03768
14
 step=         129     theta[rad]=           1.3509
  C        -1.18526          1.51715        -0.16570
  C         0.06287          1.51107         0.26271
  C         1.17395          0.66182        -0.07534
  C         1.17246         -0.65936        -0.07827
  C         0.06182         -1.51536         0.26786
  C        -1.18427         -1.51354        -0.16845
  H         0.34987          2.11282         1.13578
  H         2.12273          1.17070        -0.22219
  H         2.12491         -1.16144        -0.22389
  H         0.33555         -2.12932         1.13272
  H        -2.02804         -2.04426         0.25238
  H        -1.40891         -0.81284        -0.97046
  H        -2.03987          2.04072         0.24289
  H        -1.38732          0.79992        -0.96427
14
 step=         130     theta[rad]=           1.3614
  C        -1.18534          1.50645        -0.17150
  C         0.05919          1.52035         0.28041
  C         1.17935          0.66786        -0.08486
  C         1.17881         -0.66697        -0.08592
  C         0.05881         -1.52191         0.28228
  C        -1.18498         -1.50515        -0.17249
  H         0.30876          2.18503         1.10682
  H         2.13630          1.16695        -0.20758
  H         2.13709         -1.16359        -0.20820
  H         0.30356         -2.19102         1.10571
  H        -1.99234         -2.06479         0.27915
  H        -1.44281         -0.88372        -1.01646
  H        -1.99664          2.06350         0.27570
  H        -1.43497          0.87903        -1.01422
14
 step=         131     theta[rad]=           1.3718
  C        -1.18549          1.48602        -0.18258
  C         0.05217          1.53810         0.31423
  C         1.18966          0.67942        -0.10305
  C         1.19094         -0.68152        -0.10055
  C         0.05307         -1.53442         0.30982
  C        -1.18634         -1.48910        -0.18022
  H         0.23019          2.32304         1.05149
  H         2.16224          1.15978        -0.17965
  H         2.16037         -1.16770        -0.17821
  H         0.24244         -2.30893         1.05409
  H        -1.92412         -2.10402         0.33030
  H        -1.50759         -1.01918        -1.10438
  H        -1.91401          2.10704         0.33840
  H        -1.52603          1.03022        -1.10968
14
 step=         132     theta[rad]=           1.3823
  C        -1.18547          1.48873        -0.18111
  C         0.05310          1.53574         0.30974
  C         1.18829          0.67788        -0.10064
  C         1.18932         -0.67959        -0.09861
  C         0.05383         -1.53276         0.30616
  C        -1.18616         -1.49123        -0.17919
  H         0.24062          2.30470         1.05884
  H         2.15879          1.16073        -0.18336
  H         2.15728         -1.16716        -0.18219
  H         0.25056         -2.29327         1.06095
  H        -1.93319         -2.09881         0.32351
  H        -1.49898         -1.00118        -1.09270
  H        -1.92499          2.10126         0.33007
  H        -1.51393          1.01014        -1.09700
14
 step=         133     theta[rad]=           1.3928
  C        -1.18531          1.51050        -0.16930
  C         0.06058          1.51684         0.27372
  C         1.17731          0.66558        -0.08126
  C         1.17641         -0.66409        -0.08303
  C         0.05995         -1.51944         0.27683
  C        -1.18471         -1.50832        -0.17097
  H         0.32430          2.15774         1.11777
  H         2.13117          1.16837        -0.21310
  H         2.13249         -1.16278        -0.21413
  H         0.31565         -2.16770         1.11592
  H        -2.00584         -2.05703         0.26903
  H        -1.42999         -0.85693        -0.99907
  H        -2.01298          2.05489         0.26330
  H        -1.41696          0.84913        -0.99534
14
 step=         134     theta[rad]=           1.4032
  C        -1.18527          1.51550        -0.16659
  C         0.06231          1.51249         0.26542
  C         1.17478          0.66275        -0.07680
  C         1.17343         -0.66053        -0.07945
  C         0.06136         -1.51637         0.27008
  C        -1.18438         -1.51225        -0.16907
  H         0.34356          2.12391         1.13133
  H         2.12481          1.17013        -0.21995
  H         2.12679         -1.16177        -0.22148
  H         0.33063         -2.13880         1.12857
  H        -2.02256         -2.04741         0.25649
  H        -1.41412         -0.82373        -0.97753
  H        -2.03323          2.04422         0.24793
  H        -1.39464          0.81208        -0.97195
14
 step=         135     theta[rad]=           1.4137
  C        -1.18542          1.49511        -0.17765
  C         0.05529          1.53020         0.29918
  C         1.18507          0.67428        -0.09496
  C         1.18554         -0.67504        -0.09404
  C         0.05562         -1.52886         0.29756
  C        -1.18574         -1.49624        -0.17678
  H         0.26516          2.26161         1.07612
  H         2.15069          1.16297        -0.19208
  H         2.15001         -1.16587        -0.19156
  H         0.26964         -2.25645         1.07707
  H        -1.95449         -2.08656         0.30753
  H        -1.47875         -0.95889        -1.06525
  H        -1.95079          2.08766         0.31049
  H        -1.48550          0.96293        -1.06719
14
 step=         136     theta[rad]=           1.4242
  C        -1.18551          1.48361        -0.18389
  C         0.05134          1.54019         0.31822
  C         1.19087          0.68078        -0.10520
  C         1.19236         -0.68324        -0.10227
  C         0.05239         -1.53590         0.31307
  C        -1.18650         -1.48721        -0.18113
  H         0.22093          2.33929         1.04497
  H         2.16529          1.15894        -0.17636
  H         2.16311         -1.16819        -0.17468
  H         0.23524         -2.32282         1.04801
  H        -1.91609         -2.10864         0.33633
  H        -1.51522         -1.03513        -1.11473
  H        -1.90428          2.11217         0.34578
  H        -1.53676          1.04803        -1.12092
14
 step=         137     theta[rad]=           1.4347
  C        -1.18538          1.50090        -0.17451
  C         0.05728          1.52518         0.28960
  C         1.18215          0.67101        -0.08981
  C         1.18210         -0.67093        -0.08990
  C         0.05725         -1.52531         0.28977
  C        -1.18535         -1.50078        -0.17459
  H         0.28740          2.22255         1.09178
  H         2.14335          1.16500        -0.19999
  H         2.14342         -1.16471        -0.20004
  H         0.28695         -2.22307         1.09168
  H        -1.97380         -2.07545         0.29305
  H        -1.46042         -0.92054        -1.04036
  H        -1.97417          2.07534         0.29274
  H        -1.45972          0.92013        -1.04017
14
 step=         138     theta[rad]=           1.4451
  C        -1.18526          1.51728        -0.16562
  C         0.06292          1.51095         0.26248
  C         1.17389          0.66174        -0.07522
  C         1.17238         -0.65926        -0.07818
  C         0.06186         -1.51528         0.26768
  C        -1.18426         -1.51365        -0.16840
  H         0.35039          2.11192         1.13614
  H         2.12256          1.17075        -0.22237
  H         2.12476         -1.16141        -0.22408
  H         0.33595         -2.12855         1.13306
  H        -2.02849         -2.04400         0.25204
  H        -1.40849         -0.81196        -0.96988
  H        -2.04041          2.04044         0.24248
  H        -1.38672          0.79893        -0.96365
14
 step=         139     theta[rad]=           1.4556
  C        -1.18536          1.50390        -0.17288
  C         0.05831          1.52257         0.28464
  C         1.18064          0.66931        -0.08714
  C         1.18032         -0.66879        -0.08775
  C         0.05809         -1.52348         0.28572
  C        -1.18515         -1.50314        -0.17346
  H         0.29893          2.20230         1.09990
  H         2.13955          1.16605        -0.20409
  H         2.14001         -1.16410        -0.20445
  H         0.29592         -2.20577         1.09926
  H        -1.98381         -2.06970         0.28555
  H        -1.45091         -0.90067        -1.02746
  H        -1.98630          2.06895         0.28354
  H        -1.44636          0.89795        -1.02616
14
 step=         140     theta[rad]=           1.4661
  C        -1.18550          1.48420        -0.18356
  C         0.05154          1.53968         0.31724
  C         1.19057          0.68044        -0.10467
  C         1.19201         -0.68281        -0.10185
  C         0.05256         -1.53554         0.31227
  C        -1.18646         -1.48767        -0.18090
  H         0.22321          2.33528         1.04658
  H         2.16454          1.15915        -0.17718
  H         2.16243         -1.16807        -0.17555
  H         0.23701         -2.31940         1.04951
  H        -1.91807         -2.10750         0.33484
  H        -1.51334         -1.03120        -1.11218
  H        -1.90668          2.11090         0.34396
  H        -1.53411          1.04364        -1.11815
14
 step=         141     theta[rad]=           1.4765
  C        -1.18543          1.49362        -0.17846
  C         0.05478          1.53150         0.30166
  C         1.18583          0.67512        -0.09629
  C         1.18643         -0.67611        -0.09511
  C         0.05520         -1.52977         0.29958
  C        -1.18584         -1.49506        -0.17735
  H         0.25940          2.27172         1.07206
  H         2.15260          1.16245        -0.19004
  H         2.15171         -1.16617        -0.18936
  H         0.26517         -2.26509         1.07329
  H        -1.94949         -2.08943         0.31128
  H        -1.48350         -0.96881        -1.07169
  H        -1.94473          2.09085         0.31509
  H        -1.49217          0.97401        -1.07419
14
 step=         142     theta[rad]=           1.4870
  C        -1.18527          1.51534        -0.16668
  C         0.06225          1.51264         0.26570
  C         1.17487          0.66284        -0.07695
  C         1.17353         -0.66064        -0.07956
  C         0.06131         -1.51647         0.27030
  C        -1.18439         -1.51212        -0.16914
  H         0.34292          2.12503         1.13088
  H         2.12502          1.17007        -0.21972
  H         2.12697         -1.16180        -0.22124
  H         0.33014         -2.13975         1.12816
  H        -2.02201         -2.04773         0.25690
  H        -1.41464         -0.82482        -0.97824
  H        -2.03256          2.04457         0.24844
  H        -1.39537          0.81330        -0.97272
14
 step=         143     theta[rad]=           1.4975
  C        -1.18532          1.50947        -0.16986
  C         0.06023          1.51773         0.27541
  C         1.17783          0.66616        -0.08217
  C         1.17702         -0.66482        -0.08377
  C         0.05966         -1.52006         0.27821
  C        -1.18478         -1.50751        -0.17135
  H         0.32035          2.16467         1.11499
  H         2.13247          1.16801        -0.21170
  H         2.13366         -1.16298        -0.21262
  H         0.31258         -2.17362         1.11333
  H        -2.00241         -2.05900         0.27160
  H        -1.43325         -0.86373        -1.00349
  H        -2.00883          2.05708         0.26645
  H        -1.42153          0.85673        -1.00014
14
 step=         144     theta[rad]=           1.5080
  C        -1.18549          1.48662        -0.18225
  C         0.05237          1.53758         0.31324
  C         1.18936          0.67908        -0.10252
  C         1.19058         -0.68109        -0.10012
  C         0.05324         -1.53406         0.30901
  C        -1.18630         -1.48957        -0.17999
  H         0.23249          2.31898         1.05312
  H         2.16148          1.15999        -0.18047
  H         2.15969         -1.16758        -0.17909
  H         0.24423         -2.30547         1.05561
  H        -1.92613         -2.10287         0.32880
  H        -1.50569         -1.01520        -1.10180
  H        -1.91644          2.10576         0.33656
  H        -1.52336          1.02578        -1.10688
14
 step=         145     theta[rad]=           1.5184
  C        -1.18546          1.48967        -0.18060
  C         0.05342          1.53493         0.30819
  C         1.18782          0.67735        -0.09980
  C         1.18877         -0.67892        -0.09793
  C         0.05409         -1.53219         0.30490
  C        -1.18610         -1.49197        -0.17884
  H         0.24423          2.29837         1.06138
  H         2.15760          1.16106        -0.18465
  H         2.15621         -1.16697        -0.18357
  H         0.25337         -2.28785         1.06332
  H        -1.93632         -2.09701         0.32116
  H        -1.49601         -0.99496        -1.08866
  H        -1.92879          2.09926         0.32719
  H        -1.50975          1.00319        -1.09261
14
 step=         146     theta[rad]=           1.5289
  C        -1.18529          1.51311        -0.16789
  C         0.06148          1.51457         0.26939
  C         1.17599          0.66410        -0.07893
  C         1.17485         -0.66223        -0.08116
  C         0.06068         -1.51784         0.27331
  C        -1.18454         -1.51037        -0.16998
  H         0.33435          2.14008         1.12485
  H         2.12785          1.16929        -0.21667
  H         2.12951         -1.16225        -0.21796
  H         0.32347         -2.15261         1.12253
  H        -2.01457         -2.05201         0.26248
  H        -1.42171         -0.83960        -0.98783
  H        -2.02355          2.04932         0.25528
  H        -1.40530          0.82979        -0.98313
14
 step=         147     theta[rad]=           1.5394
  C        -1.18530          1.51200        -0.16849
  C         0.06110          1.51554         0.27123
  C         1.17655          0.66473        -0.07992
  C         1.17552         -0.66302        -0.08196
  C         0.06037         -1.51852         0.27481
  C        -1.18462         -1.50950        -0.17040
  H         0.33007          2.14760         1.12183
  H         2.12927          1.16890        -0.21515
  H         2.13078         -1.16247        -0.21633
  H         0.32014         -2.15904         1.11971
  H        -2.01085         -2.05415         0.26527
  H        -1.42524         -0.84698        -0.99262
  H        -2.01904          2.05170         0.25870
  H        -1.41027          0.83803        -0.98833
14
 step=         148     theta[rad]=           1.5499
  C        -1.18547          1.48822        -0.18138
  C         0.05293          1.53618         0.31058
  C         1.18855          0.67817        -0.10109
  C         1.18963         -0.67995        -0.09897
  C         0.05369         -1.53307         0.30685
  C        -1.18619         -1.49083        -0.17938
  H         0.23867          2.30814         1.05747
  H         2.15944          1.16056        -0.18267
  H         2.15786         -1.16726        -0.18145
  H         0.24904         -2.29620         1.05967
  H        -1.93149         -2.09978         0.32478
  H        -1.50059         -1.00455        -1.09488
  H        -1.92294          2.10234         0.33163
  H        -1.51620          1.01390        -1.09937
14
 step=         149     theta[rad]=           1.5603
  C        -1.18547          1.48835        -0.18132
  C         0.05297          1.53608         0.31037
  C         1.18848          0.67810        -0.10098
  C         1.18955         -0.67986        -0.09888
  C         0.05372         -1.53300         0.30668
  C        -1.18619         -1.49093        -0.17934
  H         0.23915          2.30729         1.05780
  H         2.15928          1.16060        -0.18284
  H         2.15771         -1.16723        -0.18163
  H         0.24941         -2.29548         1.05998
  H        -1.93191         -2.09954         0.32447
  H        -1.50020         -1.00372        -1.09435
  H        -1.92344          2.10207         0.33124
  H        -1.51564          1.01297        -1.09879
14
 step=         150     theta[rad]=           1.5708
  C        -1.18530          1.51238        -0.16828
  C         0.06123          1.51521         0.27060
  C         1.17636          0.66452        -0.07958
  C         1.17529         -0.66275        -0.08168
  C         0.06048         -1.51828         0.27429
  C        -1.18459         -1.50980        -0.17025
  H         0.33154          2.14502         1.12287
  H         2.12878          1.16903        -0.21568
  H         2.13034         -1.16240        -0.21689
  H         0.32129         -2.15683         1.12068
  H        -2.01213         -2.05341         0.26431
  H        -1.42402         -0.84444        -0.99097
  H        -2.02059          2.05088         0.25752
  H        -1.40856          0.83519        -0.98654
14
 step=         151     theta[rad]=           1.5813
  C        -1.18530          1.51225        -0.16835
  C         0.06119          1.51532         0.27081
  C         1.17642          0.66459        -0.07970
  C         1.17536         -0.66284        -0.08177
  C         0.06044         -1.51836         0.27446
  C        -1.18460         -1.50970        -0.17030
  H         0.33106          2.14587         1.12252
  H         2.12894          1.16899        -0.21550
  H         2.13049         -1.16242        -0.21671
  H         0.32091         -2.15756         1.12036
  H        -2.01170         -2.05366         0.26463
  H        -1.42442         -0.84528        -0.99151
  H        -2.02008          2.05115         0.25791
  H        -1.40912          0.83613        -0.98713
14
 step=         152     theta[rad]=           1.5917
  C        -1.18548          1.48798        -0.18152
  C         0.05284          1.53640         0.31099
  C         1.18867          0.67831        -0.10131
  C         1.18977         -0.68013        -0.09915
  C         0.05362         -1.53322         0.30718
  C        -1.18621         -1.49064        -0.17948
  H         0.23772          2.30980         1.05680
  H         2.15975          1.16047        -0.18233
  H         2.15814         -1.16731        -0.18108
  H         0.24830         -2.29762         1.05904
  H        -1.93067         -2.10026         0.32540
  H        -1.50137         -1.00618        -1.09594
  H        -1.92194          2.10286         0.33238
  H        -1.51730          1.01572        -1.10052
14
 step=         153     theta[rad]=           1.6022
  C        -1.18547          1.48913        -0.18089
  C         0.05324          1.53540         0.30909
  C         1.18809          0.67766        -0.10029
  C         1.18909         -0.67931        -0.09832
  C         0.05394         -1.53252         0.30563
  C        -1.18613         -1.49154        -0.17904
  H         0.24214          2.30204         1.05991
  H         2.15829          1.16087        -0.18390
  H         2.15683         -1.16708        -0.18277
  H         0.25174         -2.29099         1.06195
  H        -1.93450         -2.09805         0.32252
  H        -1.49773         -0.99856        -1.09100
  H        -1.92659          2.10042         0.32886
  H        -1.51217          1.00721        -1.09515
14
 step=         154     theta[rad]=           1.6127
  C        -1.18529          1.51357        -0.16764
  C         0.06164          1.51417         0.26863
  C         1.17576          0.66384        -0.07852
  C         1.17458         -0.66190        -0.08083
  C         0.06081         -1.51755         0.27269
  C        -1.18451         -1.51073        -0.16980
  H         0.33612          2.13698         1.12609
  H         2.12727          1.16945        -0.21730
  H         2.12899         -1.16216        -0.21864
  H         0.32485         -2.14996         1.12369
  H        -2.01610         -2.05113         0.26133
  H        -1.42025         -0.83655        -0.98585
  H        -2.02540          2.04834         0.25387
  H        -1.40326          0.82639        -0.98098
14
 step=         155     theta[rad]=           1.6232
  C        -1.18531          1.51035        -0.16938
  C         0.06053          1.51697         0.27395
  C         1.17738          0.66566        -0.08139
  C         1.17649         -0.66419        -0.08313
  C         0.05991         -1.51952         0.27702
  C        -1.18472         -1.50821        -0.17102
  H         0.32375          2.15871         1.11738
  H         2.13135          1.16832        -0.21291
  H         2.13265         -1.16280        -0.21392
  H         0.31522         -2.16853         1.11556
  H        -2.00536         -2.05731         0.26939
  H        -1.43045         -0.85788        -0.99969
  H        -2.01240          2.05520         0.26374
  H        -1.41760          0.85019        -0.99601
14
 step=         156     theta[rad]=           1.6336
  C        -1.18549          1.48602        -0.18258
  C         0.05217          1.53810         0.31423
  C         1.18966          0.67942        -0.10305
  C         1.19094         -0.68152        -0.10055
  C         0.05307         -1.53442         0.30982
  C        -1.18634         -1.48910        -0.18022
  H         0.23019          2.32304         1.05149
  H         2.16224          1.15978        -0.17965
  H         2.16037         -1.16770        -0.17821
  H         0.24244         -2.30893         1.05409
  H        -1.92412         -2.10402         0.33030
  H        -1.50759         -1.01918        -1.10438
  H        -1.91401          2.10704         0.33840
  H        -1.52603          1.03022        -1.10968
14
 step=         157     theta[rad]=           1.6441
  C        -1.18544          1.49233        -0.17915
  C         0.05434          1.53261         0.30378
  C         1.18647          0.67585        -0.09743
  C         1.18719         -0.67702        -0.09603
  C         0.05484         -1.53056         0.30131
  C        -1.18592         -1.49406        -0.17783
  H         0.25447          2.28038         1.06860
  H         2.15422          1.16200        -0.18829
  H         2.15317         -1.16643        -0.18748
  H         0.26133         -2.27248         1.07005
  H        -1.94521         -2.09189         0.31449
  H        -1.48756         -0.97730        -1.07720
  H        -1.93955          2.09358         0.31902
  H        -1.49788          0.98349        -1.08017
14
 step=         158     theta[rad]=           1.6546
  C        -1.18527          1.51596        -0.16634
  C         0.06246          1.51210         0.26467
  C         1.17455          0.66249        -0.07640
  C         1.17316         -0.66020        -0.07912
  C         0.06148         -1.51609         0.26947
  C        -1.18435         -1.51261        -0.16890
  H         0.34531          2.12084         1.13256
  H         2.12424          1.17029        -0.22057
  H         2.12627         -1.16168        -0.22214
  H         0.33199         -2.13618         1.12972
  H        -2.02407         -2.04654         0.25535
  H        -1.41268         -0.82072        -0.97557
  H        -2.03506          2.04325         0.24654
  H        -1.39261          0.80871        -0.96982
14
 step=         159     theta[rad]=           1.6650
  C        -1.18535          1.50561        -0.17195
  C         0.05891          1.52108         0.28179
  C         1.17977          0.66834        -0.08561
  C         1.17930         -0.66757        -0.08652
  C         0.05858         -1.52242         0.28341
  C        -1.18504         -1.50449        -0.17281
  H         0.30554          2.19069         1.10455
  H         2.13737          1.16666        -0.20643
  H         2.13805         -1.16376        -0.20697
  H         0.30106         -2.19586         1.10360
  H        -1.98954         -2.06640         0.28124
  H        -1.44546         -0.88928        -1.02007
  H        -1.99325          2.06529         0.27827
  H        -1.43870          0.88524        -1.01814
14
 step=         160     theta[rad]=           1.6755
  C        -1.18551          1.48374        -0.18381
  C         0.05139          1.54007         0.31800
  C         1.19081          0.68070        -0.10508
  C         1.19229         -0.68314        -0.10218
  C         0.05243         -1.53582         0.31289
  C        -1.18649         -1.48731        -0.18108
  H         0.22144          2.33839         1.04534
  H         2.16513          1.15898        -0.17655
  H         2.16296         -1.16816        -0.17487
  H         0.23564         -2.32205         1.04835
  H        -1.91653         -2.10838         0.33600
  H        -1.51479         -1.03425        -1.11416
  H        -1.90482          2.11189         0.34537
  H        -1.53616          1.04704        -1.12030
14
 step=         161     theta[rad]=           1.6860
  C        -1.18540          1.49876        -0.17567
  C         0.05655          1.52703         0.29313
  C         1.18323          0.67221        -0.09170
  C         1.18337         -0.67244        -0.09143
  C         0.05665         -1.52662         0.29264
  C        -1.18549         -1.49911        -0.17540
  H         0.27920          2.23695         1.08601
  H         2.14606          1.16425        -0.19707
  H         2.14585         -1.16514        -0.19691
  H         0.28057         -2.23538         1.08629
  H        -1.96668         -2.07955         0.29839
  H        -1.46718         -0.93468        -1.04954
  H        -1.96555          2.07988         0.29929
  H        -1.46923          0.93591        -1.05013
14
 step=         162     theta[rad]=           1.6965
  C        -1.18526          1.51735        -0.16559
  C         0.06294          1.51089         0.26237
  C         1.17385          0.66171        -0.07516
  C         1.17234         -0.65921        -0.07813
  C         0.06187         -1.51524         0.26759
  C        -1.18426         -1.51370        -0.16838
  H         0.35065          2.11146         1.13632
  H         2.12247          1.17077        -0.22247
  H         2.12469         -1.16140        -0.22418
  H         0.33615         -2.12816         1.13323
  H        -2.02871         -2.04388         0.25187
  H        -1.40827         -0.81151        -0.96960
  H        -2.04068          2.04029         0.24228
  H        -1.38642          0.79844        -0.96334
14
 step=         163     theta[rad]=           1.7069
  C        -1.18541          1.49753        -0.17634
  C         0.05613          1.52810         0.29518
  C         1.18385          0.67291        -0.09280
  C         1.18410         -0.67332        -0.09231
  C         0.05630         -1.52738         0.29430
  C        -1.18558         -1.49814        -0.17587
  H         0.27445          2.24529         1.08266
  H         2.14763          1.16382        -0.19539
  H         2.14726         -1.16539        -0.19510
  H         0.27687         -2.24250         1.08317
  H        -1.96256         -2.08192         0.30148
  H        -1.47109         -0.94286        -1.05485
  H        -1.96056          2.08251         0.30308
  H        -1.47473          0.94505        -1.05590
14
 step=         164     theta[rad]=           1.7174
  C        -1.18550          1.48420        -0.18356
  C         0.05154          1.53968         0.31724
  C         1.19057          0.68044        -0.10467
  C         1.19201         -0.68281        -0.10185
  C         0.05256         -1.53554         0.31227
  C        -1.18646         -1.48767        -0.18090
  H         0.22321          2.33528         1.04658
  H         2.16454          1.15915        -0.17718
  H         2.16243         -1.16807        -0.17555
  H         0.23701         -2.31940         1.04951
  H        -1.91807         -2.10750         0.33484
  H        -1.51334         -1.03120        -1.11218
  H        -1.90668          2.11090         0.34396
  H        -1.53411          1.04364        -1.11815
14
 step=         165     theta[rad]=           1.7279
  C        -1.18533          1.50808        -0.17062
  C         0.05975          1.51894         0.27772
  C         1.17853          0.66695        -0.08341
  C         1.17784         -0.66581        -0.08476
  C         0.05927         -1.52092         0.28009
  C        -1.18488         -1.50642        -0.17188
  H         0.31501          2.17406         1.11122
  H         2.13424          1.16752        -0.20980
  H         2.13524         -1.16326        -0.21058
  H         0.30842         -2.18164         1.10982
  H        -1.99777         -2.06167         0.27508
  H        -1.43766         -0.87295        -1.00947
  H        -2.00320          2.06004         0.27072
  H        -1.42773          0.86701        -1.00663
14
 step=         166     theta[rad]=           1.7383
  C        -1.18528          1.51401        -0.16740
  C         0.06179          1.51379         0.26791
  C         1.17554          0.66360        -0.07814
  C         1.17432         -0.66159        -0.08052
  C         0.06094         -1.51729         0.27210
  C        -1.18448         -1.51108        -0.16964
  H         0.33780          2.13403         1.12727
  H         2.12672          1.16960        -0.21790
  H         2.12849         -1.16207        -0.21928
  H         0.32615         -2.14744         1.12479
  H        -2.01755         -2.05029         0.26024
  H        -1.41887         -0.83366        -0.98397
  H        -2.02717          2.04741         0.25253
  H        -1.40131          0.82316        -0.97895
14
 step=         167     theta[rad]=           1.7488
  C        -1.18548          1.48798        -0.18152
  C         0.05284          1.53640         0.31099
  C         1.18867          0.67831        -0.10131
  C         1.18977         -0.68013        -0.09915
  C         0.05362         -1.53322         0.30718
  C        -1.18621         -1.49064        -0.17948
  H         0.23772          2.30980         1.05680
  H         2.15975          1.16047        -0.18233
  H         2.15814         -1.16731        -0.18108
  H         0.24830         -2.29762         1.05904
  H        -1.93067         -2.10026         0.32540
  H        -1.50137         -1.00618        -1.09594
  H        -1.92194          2.10286         0.33238
  H        -1.51730          1.01572        -1.10052
14
 step=         168     theta[rad]=           1.7593
  C        -1.18545          1.49126        -0.17974
  C         0.05397          1.53355         0.30556
  C         1.18701          0.67645        -0.09839
  C         1.18782         -0.67779        -0.09680
  C         0.05454         -1.53122         0.30276
  C        -1.18599         -1.49321        -0.17824
  H         0.25034          2.28764         1.06568
  H         2.15559          1.16162        -0.18682
  H         2.15440         -1.16665        -0.18590
  H         0.25812         -2.27869         1.06733
  H        -1.94162         -2.09396         0.31718
  H        -1.49097         -0.98443        -1.08183
  H        -1.93521          2.09587         0.32232
  H        -1.50267          0.99144        -1.08519
14
 step=         169     theta[rad]=           1.7698
  C        -1.18527          1.51623        -0.16620
  C         0.06255          1.51186         0.26423
  C         1.17442          0.66234        -0.07616
  C         1.17300         -0.66001        -0.07893
  C         0.06156         -1.51593         0.26910
  C        -1.18433         -1.51282        -0.16880
  H         0.34634          2.11903         1.13329
  H         2.12390          1.17038        -0.22093
  H         2.12596         -1.16162        -0.22254
  H         0.33280         -2.13462         1.13040
  H        -2.02497         -2.04603         0.25468
  H        -1.41182         -0.81894        -0.97441
  H        -2.03615          2.04268         0.24571
  H        -1.39141          0.80673        -0.96857
14
 step=         170     theta[rad]=           1.7802
  C        -1.18537          1.50302        -0.17336
  C         0.05801          1.52333         0.28609
  C         1.18108          0.66980        -0.08791
  C         1.18084         -0.66941        -0.08838
  C         0.05785         -1.52401         0.28690
  C        -1.18521         -1.50245        -0.17379
  H         0.29557          2.20820         1.09753
  H         2.14066          1.16575        -0.20289
  H         2.14100         -1.16428        -0.20316
  H         0.29330         -2.21082         1.09705
  H        -1.98089         -2.07138         0.28773
  H        -1.45368         -0.90646        -1.03122
  H        -1.98276          2.07081         0.28623
  H        -1.45026          0.90442        -1.03025
14
 step=         171     theta[rad]=           1.7907
  C        -1.18551          1.48341        -0.18400
  C         0.05127          1.54037         0.31856
  C         1.19098          0.68089        -0.10538
  C         1.19249         -0.68338        -0.10242
  C         0.05233         -1.53602         0.31334
  C        -1.18651         -1.48705        -0.18121
  H         0.22014          2.34067         1.04442
  H         2.16555          1.15887        -0.17608
  H         2.16334         -1.16823        -0.17438
  H         0.23463         -2.32400         1.04750
  H        -1.91540         -2.10903         0.33684
  H        -1.51587         -1.03649        -1.11561
  H        -1.90346          2.11261         0.34641
  H        -1.53767          1.04954        -1.12188
14
 step=         172     theta[rad]=           1.8012
  C        -1.18535          1.50528        -0.17214
  C         0.05879          1.52138         0.28236
  C         1.17994          0.66853        -0.08591
  C         1.17950         -0.66781        -0.08677
  C         0.05848         -1.52263         0.28387
  C        -1.18506         -1.50422        -0.17294
  H         0.30423          2.19299         1.10363
  H         2.13780          1.16654        -0.20597
  H         2.13844         -1.16383        -0.20647
  H         0.30004         -2.19782         1.10274
  H        -1.98841         -2.06705         0.28209
  H        -1.44654         -0.89153        -1.02153
  H        -1.99187          2.06601         0.27931
  H        -1.44022          0.88775        -1.01972
14
 step=         173     theta[rad]=           1.8117
  C        -1.18528          1.51499        -0.16687
  C         0.06213          1.51294         0.26628
  C         1.17504          0.66304        -0.07726
  C         1.17374         -0.66089        -0.07981
  C         0.06121         -1.51668         0.27077
  C        -1.18442         -1.51185        -0.16927
  H         0.34158          2.12739         1.12994
  H         2.12547          1.16995        -0.21924
  H         2.12737         -1.16187        -0.22072
  H         0.32910         -2.14177         1.12728
  H        -2.02084         -2.04840         0.25778
  H        -1.41575         -0.82714        -0.97974
  H        -2.03115          2.04532         0.24951
  H        -1.39693          0.81588        -0.97435
14
 step=         174     theta[rad]=           1.8221
  C        -1.18547          1.48835        -0.18132
  C         0.05297          1.53608         0.31037
  C         1.18848          0.67810        -0.10098
  C         1.18955         -0.67986        -0.09888
  C         0.05372         -1.53300         0.30668
  C        -1.18619         -1.49093        -0.17934
  H         0.23915          2.30729         1.05780
  H         2.15928          1.16060        -0.18284
  H         2.15771         -1.16723        -0.18163
  H         0.24941         -2.29548         1.05998
  H        -1.93191         -2.09954         0.32447
  H        -1.50020         -1.00372        -1.09435
  H        -1.92344          2.10207         0.33124
  H        -1.51564          1.01297        -1.09879
14
 step=         175     theta[rad]=           1.8326
  C        -1.18545          1.49187        -0.17941
  C         0.05418          1.53302         0.30455
  C         1.18671          0.67611        -0.09785
  C         1.18746         -0.67736        -0.09636
  C         0.05471         -1.53084         0.30194
  C        -1.18595         -1.49369        -0.17801
  H         0.25268          2.28353         1.06733
  H         2.15481          1.16183        -0.18765
  H         2.15371         -1.16653        -0.18679
  H         0.25994         -2.27517         1.06887
  H        -1.94365         -2.09279         0.31566
  H        -1.48904         -0.98040        -1.07921
  H        -1.93767          2.09458         0.32045
  H        -1.49996          0.98694        -1.08235
14
 step=         176     theta[rad]=           1.8431
  C        -1.18526          1.51682        -0.16587
  C         0.06276          1.51135         0.26324
  C         1.17412          0.66200        -0.07563
  C         1.17265         -0.65959        -0.07850
  C         0.06173         -1.51556         0.26830
  C        -1.18429         -1.51329        -0.16858
  H         0.34863          2.11501         1.13490
  H         2.12314          1.17059        -0.22175
  H         2.12528         -1.16150        -0.22341
  H         0.33458         -2.13119         1.13190
  H        -2.02696         -2.04488         0.25319
  H        -1.40994         -0.81499        -0.97186
  H        -2.03856          2.04141         0.24389
  H        -1.38876          0.80233        -0.96579
14
 step=         177     theta[rad]=           1.8535
  C        -1.18539          1.49983        -0.17509
  C         0.05692          1.52610         0.29137
  C         1.18269          0.67161        -0.09076
  C         1.18274         -0.67169        -0.09066
  C         0.05695         -1.52597         0.29120
  C        -1.18542         -1.49994        -0.17500
  H         0.28329          2.22976         1.08889
  H         2.14471          1.16463        -0.19853
  H         2.14464         -1.16492        -0.19848
  H         0.28375         -2.22923         1.08898
  H        -1.97023         -2.07750         0.29573
  H        -1.46380         -0.92762        -1.04495
  H        -1.96986          2.07761         0.29602
  H        -1.46448          0.92803        -1.04516
14
 step=         178     theta[rad]=           1.8640
  C        -1.18550          1.48426        -0.18353
  C         0.05156          1.53963         0.31714
  C         1.19055          0.68041        -0.10462
  C         1.19198         -0.68277        -0.10181
  C         0.05257         -1.53550         0.31219
  C        -1.18646         -1.48772        -0.18088
  H         0.22343          2.33491         1.04673
  H         2.16447          1.15917        -0.17725
  H         2.16237         -1.16806        -0.17563
  H         0.23718         -2.31908         1.04965
  H        -1.91825         -2.10739         0.33470
  H        -1.51316         -1.03083        -1.11194
  H        -1.90691          2.11079         0.34379
  H        -1.53386          1.04322        -1.11789
14
 step=         179     theta[rad]=           1.8745
  C        -1.18531          1.51035        -0.16938
  C         0.06053          1.51697         0.27395
  C         1.17738          0.66566        -0.08139
  C         1.17649         -0.66419        -0.08313
  C         0.05991         -1.51952         0.27702
  C        -1.18472         -1.50821        -0.17102
  H         0.32375          2.15871         1.11738
  H         2.13135          1.16832        -0.21291
  H         2.13265         -1.16280        -0.21392
  H         0.31522         -2.16853         1.11556
  H        -2.00536         -2.05731         0.26939
  H        -1.43045         -0.85788        -0.99969
  H        -2.01240          2.05520         0.26374
  H        -1.41760          0.85019        -0.99601
14
 step=         180     theta[rad]=           1.8850
  C        -1.18531          1.51035        -0.16938
  C         0.06053          1.51697         0.27395
  C         1.17738          0.66566        -0.08139
  C         1.17649         -0.66419        -0.08313
  C         0.05991         -1.51952         0.27702
  C        -1.18472         -1.50821        -0.17102
  H         0.32375          2.15871         1.11738
  H         2.13135          1.16832        -0.21291
  H         2.13265         -1.16280        -0.21392
  H         0.31522         -2.16853         1.11556
  H        -2.00536         -2.05731         0.26939
  H        -1.43045         -0.85788        -0.99969
  H        -2.01240          2.05520         0.26374
  H        -1.41760          0.85019        -0.99601
14
 step=         181     theta[rad]=           1.8954
  C        -1.18551          1.48415        -0.18359
  C         0.05153          1.53972         0.31733
  C         1.19060          0.68047        -0.10472
  C         1.19204         -0.68285        -0.10189
  C         0.05254         -1.53557         0.31234
  C        -1.18647         -1.48763        -0.18092
  H         0.22300          2.33565         1.04644
  H         2.16461          1.15913        -0.17710
  H         2.16250         -1.16808        -0.17547
  H         0.23685         -2.31971         1.04938
  H        -1.91789         -2.10760         0.33498
  H        -1.51351         -1.03155        -1.11241
  H        -1.90646          2.11102         0.34413
  H        -1.53435          1.04404        -1.11840
14
 step=         182     theta[rad]=           1.9059
  C        -1.18538          1.50090        -0.17451
  C         0.05728          1.52518         0.28960
  C         1.18215          0.67101        -0.08981
  C         1.18210         -0.67093        -0.08990
  C         0.05725         -1.52531         0.28977
  C        -1.18535         -1.50078        -0.17459
  H         0.28740          2.22255         1.09178
  H         2.14335          1.16500        -0.19999
  H         2.14342         -1.16471        -0.20004
  H         0.28695         -2.22307         1.09168
  H        -1.97380         -2.07545         0.29305
  H        -1.46042         -0.92054        -1.04036
  H        -1.97417          2.07534         0.29274
  H        -1.45972          0.92013        -1.04017
14
 step=         183     theta[rad]=           1.9164
  C        -1.18527          1.51616        -0.16623
  C         0.06253          1.51192         0.26433
  C         1.17445          0.66238        -0.07622
  C         1.17304         -0.66006        -0.07898
  C         0.06154         -1.51597         0.26919
  C        -1.18434         -1.51277        -0.16882
  H         0.34609          2.11946         1.13311
  H         2.12398          1.17036        -0.22085
  H         2.12604         -1.16163        -0.22244
  H         0.33260         -2.13500         1.13024
  H        -2.02476         -2.04615         0.25484
  H        -1.41203         -0.81936        -0.97469
  H        -2.03589          2.04282         0.24591
  H        -1.39170          0.80720        -0.96887
14
 step=         184     theta[rad]=           1.9268
  C        -1.18547          1.48899        -0.18097
  C         0.05319          1.53551         0.30931
  C         1.18816          0.67773        -0.10040
  C         1.18917         -0.67940        -0.09842
  C         0.05390         -1.53260         0.30581
  C        -1.18614         -1.49143        -0.17909
  H         0.24163          2.30293         1.05955
  H         2.15846          1.16083        -0.18372
  H         2.15698         -1.16710        -0.18258
  H         0.25134         -2.29176         1.06161
  H        -1.93406         -2.09830         0.32285
  H        -1.49815         -0.99944        -1.09157
  H        -1.92605          2.10070         0.32926
  H        -1.51277          1.00820        -1.09577
14
 step=         185     theta[rad]=           1.9373
  C        -1.18544          1.49265        -0.17898
  C         0.05445          1.53234         0.30326
  C         1.18631          0.67567        -0.09715
  C         1.18700         -0.67680        -0.09580
  C         0.05493         -1.53036         0.30088
  C        -1.18590         -1.49431        -0.17771
  H         0.25569          2.27825         1.06945
  H         2.15382          1.16211        -0.18872
  H         2.15281         -1.16637        -0.18794
  H         0.26228         -2.27066         1.07085
  H        -1.94626         -2.09129         0.31370
  H        -1.48656         -0.97521        -1.07584
  H        -1.94083          2.09291         0.31805
  H        -1.49648          0.98115        -1.07870
14
 step=         186     theta[rad]=           1.9478
  C        -1.18526          1.51728        -0.16562
  C         0.06292          1.51095         0.26248
  C         1.17389          0.66174        -0.07522
  C         1.17238         -0.65926        -0.07818
  C         0.06186         -1.51528         0.26768
  C        -1.18426         -1.51365        -0.16840
  H         0.35039          2.11192         1.13614
  H         2.12256          1.17075        -0.22237
  H         2.12476         -1.16141        -0.22408
  H         0.33595         -2.12855         1.13306
  H        -2.02849         -2.04400         0.25204
  H        -1.40849         -0.81196        -0.96988
  H        -2.04041          2.04044         0.24248
  H        -1.38672          0.79893        -0.96365
14
 step=         187     theta[rad]=           1.9583
  C        -1.18542          1.49545        -0.17746
  C         0.05541          1.52991         0.29862
  C         1.18490          0.67408        -0.09465
  C         1.18534         -0.67480        -0.09380
  C         0.05572         -1.52865         0.29710
  C        -1.18571         -1.49651        -0.17665
  H         0.26646          2.25932         1.07704
  H         2.15026          1.16309        -0.19255
  H         2.14962         -1.16580        -0.19205
  H         0.27066         -2.25449         1.07793
  H        -1.95562         -2.08591         0.30668
  H        -1.47768         -0.95663        -1.06379
  H        -1.95216          2.08694         0.30945
  H        -1.48399          0.96042        -1.06561
14
 step=         188     theta[rad]=           1.9687
  C        -1.18548          1.48727        -0.18190
  C         0.05260          1.53701         0.31216
  C         1.18903          0.67871        -0.10194
  C         1.19019         -0.68063        -0.09965
  C         0.05342         -1.53366         0.30813
  C        -1.18626         -1.49008        -0.17974
  H         0.23501          2.31457         1.05489
  H         2.16065          1.16022        -0.18137
  H         2.15894         -1.16745        -0.18005
  H         0.24619         -2.30170         1.05726
  H        -1.92831         -2.10161         0.32716
  H        -1.50361         -1.01086        -1.09898
  H        -1.91909          2.10437         0.33455
  H        -1.52044          1.02094        -1.10382
14
 step=         189     theta[rad]=           1.9792
  C        -1.18527          1.51550        -0.16659
  C         0.06231          1.51249         0.26542
  C         1.17478          0.66275        -0.07680
  C         1.17343         -0.66053        -0.07945
  C         0.06136         -1.51637         0.27008
  C        -1.18438         -1.51225        -0.16907
  H         0.34356          2.12391         1.13133
  H         2.12481          1.17013        -0.21995
  H         2.12679         -1.16177        -0.22148
  H         0.33063         -2.13880         1.12857
  H        -2.02256         -2.04741         0.25649
  H        -1.41412         -0.82373        -0.97753
  H        -2.03323          2.04422         0.24793
  H        -1.39464          0.81208        -0.97195
14
 step=         190     theta[rad]=           1.9897
  C        -1.18538          1.50125        -0.17432
  C         0.05741          1.52487         0.28901
  C         1.18197          0.67080        -0.08949
  C         1.18189         -0.67067        -0.08965
  C         0.05735         -1.52510         0.28929
  C        -1.18533         -1.50106        -0.17446
  H         0.28877          2.22015         1.09274
  H         2.14290          1.16513        -0.20047
  H         2.14302         -1.16464        -0.20057
  H         0.28801         -2.22102         1.09258
  H        -1.97498         -2.07477         0.29216
  H        -1.45929         -0.91819        -1.03883
  H        -1.97561          2.07458         0.29165
  H        -1.45814          0.91750        -1.03851
14
 step=         191     theta[rad]=           2.0001
  C        -1.18550          1.48456        -0.18337
  C         0.05167          1.53936         0.31664
  C         1.19039          0.68024        -0.10435
  C         1.19180         -0.68256        -0.10159
  C         0.05266         -1.53531         0.31178
  C        -1.18644         -1.48796        -0.18077
  H         0.22460          2.33284         1.04756
  H         2.16408          1.15927        -0.17767
  H         2.16202         -1.16800        -0.17608
  H         0.23810         -2.31731         1.05043
  H        -1.91928         -2.10681         0.33394
  H        -1.51219         -1.02880        -1.11062
  H        -1.90814          2.11013         0.34285
  H        -1.53250          1.04096        -1.11646
14
 step=         192     theta[rad]=           2.0106
  C        -1.18529          1.51275        -0.16808
  C         0.06136          1.51488         0.26998
  C         1.17617          0.66431        -0.07925
  C         1.17507         -0.66249        -0.08142
  C         0.06058         -1.51806         0.27379
  C        -1.18456         -1.51009        -0.17011
  H         0.33297          2.14251         1.12387
  H         2.12831          1.16916        -0.21618
  H         2.12992         -1.16232        -0.21744
  H         0.32240         -2.15468         1.12162
  H        -2.01337         -2.05270         0.26338
  H        -1.42284         -0.84198        -0.98937
  H        -2.02209          2.05009         0.25638
  H        -1.40691          0.83245        -0.98481
14
 step=         193     theta[rad]=           2.0211
  C        -1.18535          1.50545        -0.17204
  C         0.05885          1.52123         0.28207
  C         1.17986          0.66843        -0.08576
  C         1.17940         -0.66769        -0.08665
  C         0.05853         -1.52253         0.28364
  C        -1.18505         -1.50435        -0.17288
  H         0.30488          2.19184         1.10409
  H         2.13758          1.16660        -0.20620
  H         2.13824         -1.16379        -0.20672
  H         0.30055         -2.19684         1.10317
  H        -1.98898         -2.06672         0.28167
  H        -1.44600         -0.89040        -1.02080
  H        -1.99256          2.06565         0.27879
  H        -1.43946          0.88649        -1.01893
14
 step=         194     theta[rad]=           2.0316
  C        -1.18551          1.48358        -0.18390
  C         0.05133          1.54022         0.31827
  C         1.19089          0.68079        -0.10522
  C         1.19238         -0.68326        -0.10229
  C         0.05238         -1.53592         0.31311
  C        -1.18650         -1.48718        -0.18114
  H         0.22082          2.33949         1.04490
  H         2.16533          1.15893        -0.17632
  H         2.16314         -1.16819        -0.17463
  H         0.23515         -2.32299         1.04794
  H        -1.91599         -2.10870         0.33640
  H        -1.51531         -1.03532        -1.11486
  H        -1.90417          2.11223         0.34587
  H        -1.53689          1.04824        -1.12106
14
 step=         195     theta[rad]=           2.0420
  C        -1.18531          1.51035        -0.16938
  C         0.06053          1.51697         0.27395
  C         1.17738          0.66566        -0.08139
  C         1.17649         -0.66419        -0.08313
  C         0.05991         -1.51952         0.27702
  C        -1.18472         -1.50821        -0.17102
  H         0.32375          2.15871         1.11738
  H         2.13135          1.16832        -0.21291
  H         2.13265         -1.16280        -0.21392
  H         0.31522         -2.16853         1.11556
  H        -2.00536         -2.05731         0.26939
  H        -1.43045         -0.85788        -0.99969
  H        -2.01240          2.05520         0.26374
  H        -1.41760          0.85019        -0.99601
14
 step=         196     theta[rad]=           2.0525
  C        -1.18533          1.50792        -0.17070
  C         0.05970          1.51908         0.27798
  C         1.17861          0.66704        -0.08355
  C         1.17794         -0.66593        -0.08488
  C         0.05922         -1.52101         0.28030
  C        -1.18489         -1.50630        -0.17194
  H         0.31440          2.17513         1.11079
  H         2.13444          1.16747        -0.20958
  H         2.13542         -1.16329        -0.21035
  H         0.30795         -2.18256         1.10942
  H        -1.99724         -2.06197         0.27548
  H        -1.43816         -0.87400        -1.01016
  H        -2.00256          2.06038         0.27120
  H        -1.42843          0.86819        -1.00737
14
 step=         197     theta[rad]=           2.0630
  C        -1.18551          1.48338        -0.18401
  C         0.05126          1.54039         0.31860
  C         1.19099          0.68091        -0.10540
  C         1.19250         -0.68340        -0.10244
  C         0.05233         -1.53604         0.31338
  C        -1.18652         -1.48703        -0.18122
  H         0.22005          2.34084         1.04435
  H         2.16559          1.15886        -0.17605
  H         2.16337         -1.16823        -0.17434
  H         0.23455         -2.32415         1.04743
  H        -1.91532         -2.10908         0.33690
  H        -1.51595         -1.03665        -1.11572
  H        -1.90335          2.11266         0.34649
  H        -1.53778          1.04973        -1.12199
14
 step=         198     theta[rad]=           2.0735
  C        -1.18532          1.50901        -0.17011
  C         0.06007          1.51813         0.27617
  C         1.17806          0.66642        -0.08258
  C         1.17729         -0.66515        -0.08409
  C         0.05953         -1.52034         0.27883
  C        -1.18481         -1.50716        -0.17153
  H         0.31860          2.16774         1.11376
  H         2.13305          1.16785        -0.21108
  H         2.13418         -1.16307        -0.21195
  H         0.31122         -2.17625         1.11218
  H        -2.00089         -2.05987         0.27274
  H        -1.43469         -0.86675        -1.00545
  H        -2.00699          2.05805         0.26785
  H        -1.42356          0.86009        -1.00226
14
 step=         199     theta[rad]=           2.0839
  C        -1.18532          1.50886        -0.17019
  C         0.06002          1.51826         0.27642
  C         1.17813          0.66650        -0.08272
  C         1.17738         -0.66526        -0.08420
  C         0.05949         -1.52044         0.27903
  C        -1.18482         -1.50704        -0.17158
  H         0.31801          2.16878         1.11334
  H         2.13325          1.16780        -0.21087
  H         2.13435         -1.16310        -0.21173
  H         0.31076         -2.17713         1.11179
  H        -2.00038         -2.06017         0.27312
  H        -1.43518         -0.86777        -1.00611
  H        -2.00637          2.05838         0.26832
  H        -1.42424          0.86123        -1.00298
14
 step=         200     theta[rad]=           2.0944
  C        -1.18551          1.48337        -0.18401
  C         0.05126          1.54040         0.31861
  C         1.19099          0.68091        -0.10541
  C         1.19251         -0.68341        -0.10244
  C         0.05232         -1.53604         0.31339
  C        -1.18652         -1.48702        -0.18122
  H         0.22002          2.34090         1.04433
  H         2.16560          1.15885        -0.17604
  H         2.16338         -1.16824        -0.17433
  H         0.23453         -2.32420         1.04741
  H        -1.91529         -2.10910         0.33692
  H        -1.51597         -1.03671        -1.11576
  H        -1.90332          2.11268         0.34651
  H        -1.53782          1.04979        -1.12203
14
 step=         201     theta[rad]=           2.1049
  C        -1.18532          1.50901        -0.17011
  C         0.06007          1.51813         0.27617
  C         1.17806          0.66642        -0.08258
  C         1.17729         -0.66515        -0.08409
  C         0.05953         -1.52034         0.27883
  C        -1.18481         -1.50716        -0.17153
  H         0.31860          2.16774         1.11376
  H         2.13305          1.16785        -0.21108
  H         2.13418         -1.16307        -0.21195
  H         0.31122         -2.17625         1.11218
  H        -2.00089         -2.05987         0.27274
  H        -1.43469         -0.86675        -1.00545
  H        -2.00699          2.05805         0.26785
  H        -1.42356          0.86009        -1.00226
14
 step=         202     theta[rad]=           2.1153
  C        -1.18533          1.50839        -0.17044
  C         0.05986          1.51867         0.27719
  C         1.17837          0.66677        -0.08313
  C         1.17765         -0.66559        -0.08454
  C         0.05936         -1.52072         0.27966
  C        -1.18485         -1.50667        -0.17176
  H         0.31622          2.17193         1.11208
  H         2.13384          1.16763        -0.21023
  H         2.13488         -1.16320        -0.21104
  H         0.30937         -2.17982         1.11061
  H        -1.99882         -2.06106         0.27429
  H        -1.43666         -0.87086        -1.00812
  H        -2.00448          2.05937         0.26975
  H        -1.42632          0.86468        -1.00516
14
 step=         203     theta[rad]=           2.1258
  C        -1.18551          1.48341        -0.18400
  C         0.05127          1.54037         0.31856
  C         1.19098          0.68089        -0.10538
  C         1.19249         -0.68338        -0.10242
  C         0.05233         -1.53602         0.31334
  C        -1.18651         -1.48705        -0.18121
  H         0.22014          2.34067         1.04442
  H         2.16555          1.15887        -0.17608
  H         2.16334         -1.16823        -0.17438
  H         0.23463         -2.32400         1.04750
  H        -1.91540         -2.10903         0.33684
  H        -1.51587         -1.03649        -1.11561
  H        -1.90346          2.11261         0.34641
  H        -1.53767          1.04954        -1.12188
14
 step=         204     theta[rad]=           2.1363
  C        -1.18531          1.51035        -0.16938
  C         0.06053          1.51697         0.27395
  C         1.17738          0.66566        -0.08139
  C         1.17649         -0.66419        -0.08313
  C         0.05991         -1.51952         0.27702
  C        -1.18472         -1.50821        -0.17102
  H         0.32375          2.15871         1.11738
  H         2.13135          1.16832        -0.21291
  H         2.13265         -1.16280        -0.21392
  H         0.31522         -2.16853         1.11556
  H        -2.00536         -2.05731         0.26939
  H        -1.43045         -0.85788        -0.99969
  H        -2.01240          2.05520         0.26374
  H        -1.41760          0.85019        -0.99601
14
 step=         205     theta[rad]=           2.1468
  C        -1.18534          1.50645        -0.17150
  C         0.05919          1.52035         0.28041
  C         1.17935          0.66786        -0.08486
  C         1.17881         -0.66697        -0.08592
  C         0.05881         -1.52191         0.28228
  C        -1.18498         -1.50515        -0.17249
  H         0.30876          2.18503         1.10682
  H         2.13630          1.16695        -0.20758
  H         2.13709         -1.16359        -0.20820
  H         0.30356         -2.19102         1.10571
  H        -1.99234         -2.06479         0.27915
  H        -1.44281         -0.88372        -1.01646
  H        -1.99664          2.06350         0.27570
  H        -1.43497          0.87903        -1.01422
14
 step=         206     theta[rad]=           2.1572
  C        -1.18551          1.48378        -0.18379
  C         0.05140          1.54004         0.31794
  C         1.19079          0.68068        -0.10504
  C         1.19226         -0.68311        -0.10215
  C         0.05244         -1.53579         0.31284
  C        -1.18649         -1.48734        -0.18106
  H         0.22159          2.33814         1.04544
  H         2.16508          1.15900        -0.17660
  H         2.16292         -1.16815        -0.17493
  H         0.23575         -2.32183         1.04844
  H        -1.91666         -2.10831         0.33590
  H        -1.51467         -1.03400        -1.11400
  H        -1.90498          2.11180         0.34526
  H        -1.53599          1.04676        -1.12012
14
 step=         207     theta[rad]=           2.1677
  C        -1.18529          1.51275        -0.16808
  C         0.06136          1.51488         0.26998
  C         1.17617          0.66431        -0.07925
  C         1.17507         -0.66249        -0.08142
  C         0.06058         -1.51806         0.27379
  C        -1.18456         -1.51009        -0.17011
  H         0.33297          2.14251         1.12387
  H         2.12831          1.16916        -0.21618
  H         2.12992         -1.16232        -0.21744
  H         0.32240         -2.15468         1.12162
  H        -2.01337         -2.05270         0.26338
  H        -1.42284         -0.84198        -0.98937
  H        -2.02209          2.05009         0.25638
  H        -1.40691          0.83245        -0.98481
14
 step=         208     theta[rad]=           2.1782
  C        -1.18537          1.50285        -0.17345
  C         0.05795          1.52349         0.28638
  C         1.18117          0.66990        -0.08807
  C         1.18095         -0.66954        -0.08851
  C         0.05780         -1.52412         0.28714
  C        -1.18522         -1.50231        -0.17386
  H         0.29489          2.20939         1.09706
  H         2.14088          1.16569        -0.20265
  H         2.14120         -1.16432        -0.20290
  H         0.29277         -2.21183         1.09660
  H        -1.98030         -2.07171         0.28818
  H        -1.45424         -0.90763        -1.03198
  H        -1.98205          2.07119         0.28677
  H        -1.45104          0.90572        -1.03107
14
 step=         209     theta[rad]=           2.1886
  C        -1.18550          1.48522        -0.18301
  C         0.05189          1.53879         0.31555
  C         1.19006          0.67987        -0.10376
  C         1.19141         -0.68209        -0.10112
  C         0.05284         -1.53491         0.31089
  C        -1.18639         -1.48847        -0.18052
  H         0.22714          2.32839         1.04934
  H         2.16325          1.15950        -0.17857
  H         2.16127         -1.16786        -0.17704
  H         0.24007         -2.31351         1.05209
  H        -1.92147         -2.10554         0.33229
  H        -1.51010         -1.02443        -1.10779
  H        -1.91081          2.10873         0.34083
  H        -1.52957          1.03609        -1.11338
14
 step=         210     theta[rad]=           2.1991
  C        -1.18527          1.51550        -0.16659
  C         0.06231          1.51249         0.26542
  C         1.17478          0.66275        -0.07680
  C         1.17343         -0.66053        -0.07945
  C         0.06136         -1.51637         0.27008
  C        -1.18438         -1.51225        -0.16907
  H         0.34356          2.12391         1.13133
  H         2.12481          1.17013        -0.21995
  H         2.12679         -1.16177        -0.22148
  H         0.33063         -2.13880         1.12857
  H        -2.02256         -2.04741         0.25649
  H        -1.41412         -0.82373        -0.97753
  H        -2.03323          2.04422         0.24793
  H        -1.39464          0.81208        -0.97195
14
 step=         211     theta[rad]=           2.2096
  C        -1.18541          1.49753        -0.17634
  C         0.05613          1.52810         0.29518
  C         1.18385          0.67291        -0.09280
  C         1.18410         -0.67332        -0.09231
  C         0.05630         -1.52738         0.29430
  C        -1.18558         -1.49814        -0.17587
  H         0.27445          2.24529         1.08266
  H         2.14763          1.16382        -0.19539
  H         2.14726         -1.16539        -0.19510
  H         0.27687         -2.24250         1.08317
  H        -1.96256         -2.08192         0.30148
  H        -1.47109         -0.94286        -1.05485
  H        -1.96056          2.08251         0.30308
  H        -1.47473          0.94505        -1.05590
14
 step=         212     theta[rad]=           2.2201
  C        -1.18547          1.48873        -0.18111
  C         0.05310          1.53574         0.30974
  C         1.18829          0.67788        -0.10064
  C         1.18932         -0.67959        -0.09861
  C         0.05383         -1.53276         0.30616
  C        -1.18616         -1.49123        -0.17919
  H         0.24062          2.30470         1.05884
  H         2.15879          1.16073        -0.18336
  H         2.15728         -1.16716        -0.18219
  H         0.25056         -2.29327         1.06095
  H        -1.93319         -2.09881         0.32351
  H        -1.49898         -1.00118        -1.09270
  H        -1.92499          2.10126         0.33007
  H        -1.51393          1.01014        -1.09700
14
 step=         213     theta[rad]=           2.2305
  C        -1.18526          1.51728        -0.16562
  C         0.06292          1.51095         0.26248
  C         1.17389          0.66174        -0.07522
  C         1.17238         -0.65926        -0.07818
  C         0.06186         -1.51528         0.26768
  C        -1.18426         -1.51365        -0.16840
  H         0.35039          2.11192         1.13614
  H         2.12256          1.17075        -0.22237
  H         2.12476         -1.16141        -0.22408
  H         0.33595         -2.12855         1.13306
  H        -2.02849         -2.04400         0.25204
  H        -1.40849         -0.81196        -0.96988
  H        -2.04041          2.04044         0.24248
  H        -1.38672          0.79893        -0.96365
14
 step=         214     theta[rad]=           2.2410
  C        -1.18545          1.49111        -0.17982
  C         0.05392          1.53368         0.30581
  C         1.18709          0.67654        -0.09852
  C         1.18791         -0.67790        -0.09691
  C         0.05450         -1.53131         0.30296
  C        -1.18600         -1.49310        -0.17829
  H         0.24976          2.28865         1.06528
  H         2.15578          1.16157        -0.18661
  H         2.15457         -1.16668        -0.18568
  H         0.25767         -2.27955         1.06696
  H        -1.94112         -2.09424         0.31756
  H        -1.49144         -0.98542        -1.08247
  H        -1.93460          2.09619         0.32277
  H        -1.50334          0.99255        -1.08589
14
 step=         215     theta[rad]=           2.2515
  C        -1.18542          1.49511        -0.17765
  C         0.05529          1.53020         0.29918
  C         1.18507          0.67428        -0.09496
  C         1.18554         -0.67504        -0.09404
  C         0.05562         -1.52886         0.29756
  C        -1.18574         -1.49624        -0.17678
  H         0.26516          2.26161         1.07612
  H         2.15069          1.16297        -0.19208
  H         2.15001         -1.16587        -0.19156
  H         0.26964         -2.25645         1.07707
  H        -1.95449         -2.08656         0.30753
  H        -1.47875         -0.95889        -1.06525
  H        -1.95079          2.08766         0.31049
  H        -1.48550          0.96293        -1.06719
14
 step=         216     theta[rad]=           2.2619
  C        -1.18527          1.51616        -0.16623
  C         0.06253          1.51192         0.26433
  C         1.17445          0.66238        -0.07622
  C         1.17304         -0.66006        -0.07898
  C         0.06154         -1.51597         0.26919
  C        -1.18434         -1.51277        -0.16882
  H         0.34609          2.11946         1.13311
  H         2.12398          1.17036        -0.22085
  H         2.12604         -1.16163        -0.22244
  H         0.33260         -2.13500         1.13024
  H        -2.02476         -2.04615         0.25484
  H        -1.41203         -0.81936        -0.97469
  H        -2.03589          2.04282         0.24591
  H        -1.39170          0.80720        -0.96887
14
 step=         217     theta[rad]=           2.2724
  C        -1.18550          1.48539        -0.18292
  C         0.05195          1.53865         0.31527
  C         1.18998          0.67977        -0.10361
  C         1.19131         -0.68197        -0.10100
  C         0.05289         -1.53481         0.31067
  C        -1.18638         -1.48860        -0.18046
  H         0.22777          2.32728         1.04979
  H         2.16304          1.15956        -0.17880
  H         2.16108         -1.16783        -0.17729
  H         0.24056         -2.31256         1.05251
  H        -1.92202         -2.10523         0.33188
  H        -1.50958         -1.02334        -1.10708
  H        -1.91147          2.10838         0.34033
  H        -1.52883          1.03487        -1.11261
14
 step=         218     theta[rad]=           2.2829
  C        -1.18536          1.50407        -0.17279
  C         0.05837          1.52242         0.28435
  C         1.18055          0.66921        -0.08698
  C         1.18022         -0.66867        -0.08763
  C         0.05814         -1.52337         0.28549
  C        -1.18514         -1.50328        -0.17339
  H         0.29960          2.20112         1.10037
  H         2.13933          1.16612        -0.20432
  H         2.13981         -1.16407        -0.20470
  H         0.29644         -2.20477         1.09969
  H        -1.98439         -2.06936         0.28511
  H        -1.45036         -0.89951        -1.02671
  H        -1.98700          2.06858         0.28301
  H        -1.44558          0.89666        -1.02535
14
 step=         219     theta[rad]=           2.2934
  C        -1.18531          1.51035        -0.16938
  C         0.06053          1.51697         0.27395
  C         1.17738          0.66566        -0.08139
  C         1.17649         -0.66419        -0.08313
  C         0.05991         -1.51952         0.27702
  C        -1.18472         -1.50821        -0.17102
  H         0.32375          2.15871         1.11738
  H         2.13135          1.16832        -0.21291
  H         2.13265         -1.16280        -0.21392
  H         0.31522         -2.16853         1.11556
  H        -2.00536         -2.05731         0.26939
  H        -1.43045         -0.85788        -0.99969
  H        -2.01240          2.05520         0.26374
  H        -1.41760          0.85019        -0.99601
14
 step=         220     theta[rad]=           2.3038
  C        -1.18551          1.48346        -0.18396
  C         0.05129          1.54032         0.31846
  C         1.19095          0.68086        -0.10533
  C         1.19245         -0.68334        -0.10238
  C         0.05235         -1.53599         0.31326
  C        -1.18651         -1.48709        -0.18118
  H         0.22037          2.34027         1.04458
  H         2.16548          1.15889        -0.17617
  H         2.16328         -1.16822        -0.17446
  H         0.23481         -2.32366         1.04765
  H        -1.91560         -2.10892         0.33669
  H        -1.51568         -1.03609        -1.11536
  H        -1.90370          2.11248         0.34623
  H        -1.53740          1.04910        -1.12160
14
 step=         221     theta[rad]=           2.3143
  C        -1.18529          1.51311        -0.16789
  C         0.06148          1.51457         0.26939
  C         1.17599          0.66410        -0.07893
  C         1.17485         -0.66223        -0.08116
  C         0.06068         -1.51784         0.27331
  C        -1.18454         -1.51037        -0.16998
  H         0.33435          2.14008         1.12485
  H         2.12785          1.16929        -0.21667
  H         2.12951         -1.16225        -0.21796
  H         0.32347         -2.15261         1.12253
  H        -2.01457         -2.05201         0.26248
  H        -1.42171         -0.83960        -0.98783
  H        -2.02355          2.04932         0.25528
  H        -1.40530          0.82979        -0.98313
14
 step=         222     theta[rad]=           2.3248
  C        -1.18539          1.49983        -0.17509
  C         0.05692          1.52610         0.29137
  C         1.18269          0.67161        -0.09076
  C         1.18274         -0.67169        -0.09066
  C         0.05695         -1.52597         0.29120
  C        -1.18542         -1.49994        -0.17500
  H         0.28329          2.22976         1.08889
  H         2.14471          1.16463        -0.19853
  H         2.14464         -1.16492        -0.19848
  H         0.28375         -2.22923         1.08898
  H        -1.97023         -2.07750         0.29573
  H        -1.46380         -0.92762        -1.04495
  H        -1.96986          2.07761         0.29602
  H        -1.46448          0.92803        -1.04516
14
 step=         223     theta[rad]=           2.3353
  C        -1.18547          1.48848        -0.18125
  C         0.05301          1.53597         0.31017
  C         1.18842          0.67803        -0.10087
  C         1.18948         -0.67977        -0.09879
  C         0.05376         -1.53292         0.30651
  C        -1.18618         -1.49103        -0.17929
  H         0.23964          2.30644         1.05815
  H         2.15912          1.16064        -0.18301
  H         2.15757         -1.16721        -0.18182
  H         0.24979         -2.29475         1.06030
  H        -1.93233         -2.09930         0.32415
  H        -1.49979         -1.00288        -1.09380
  H        -1.92395          2.10180         0.33086
  H        -1.51508          1.01204        -1.09820
14
 step=         224     theta[rad]=           2.3457
  C        -1.18526          1.51736        -0.16558
  C         0.06294          1.51088         0.26236
  C         1.17385          0.66170        -0.07515
  C         1.17233         -0.65921        -0.07812
  C         0.06188         -1.51524         0.26758
  C        -1.18426         -1.51371        -0.16837
  H         0.35068          2.11141         1.13634
  H         2.12246          1.17078        -0.22248
  H         2.12468         -1.16139        -0.22420
  H         0.33617         -2.12811         1.13325
  H        -2.02874         -2.04386         0.25185
  H        -1.40825         -0.81146        -0.96956
  H        -2.04071          2.04028         0.24225
  H        -1.38638          0.79838        -0.96330
14
 step=         225     theta[rad]=           2.3562
  C        -1.18547          1.48835        -0.18132
  C         0.05297          1.53608         0.31037
  C         1.18848          0.67810        -0.10098
  C         1.18955         -0.67986        -0.09888
  C         0.05372         -1.53300         0.30668
  C        -1.18619         -1.49093        -0.17934
  H         0.23915          2.30729         1.05780
  H         2.15928          1.16060        -0.18284
  H         2.15771         -1.16723        -0.18163
  H         0.24941         -2.29548         1.05998
  H        -1.93191         -2.09954         0.32447
  H        -1.50020         -1.00372        -1.09435
  H        -1.92344          2.10207         0.33124
  H        -1.51564          1.01297        -1.09879
14
 step=         226     theta[rad]=           2.3667
  C        -1.18538          1.50054        -0.17470
  C         0.05716          1.52549         0.29019
  C         1.18233          0.67121        -0.09012
  C         1.18231         -0.67118        -0.09015
  C         0.05715         -1.52553         0.29025
  C        -1.18538         -1.50050        -0.17473
  H         0.28603          2.22495         1.09082
  H         2.14380          1.16488        -0.19950
  H         2.14383         -1.16478        -0.19952
  H         0.28588         -2.22513         1.09078
  H        -1.97261         -2.07614         0.29394
  H        -1.46154         -0.92290        -1.04189
  H        -1.97274          2.07610         0.29384
  H        -1.46131          0.92277        -1.04183
14
 step=         227     theta[rad]=           2.3771
  C        -1.18530          1.51200        -0.16849
  C         0.06110          1.51554         0.27123
  C         1.17655          0.66473        -0.07992
  C         1.17552         -0.66302        -0.08196
  C         0.06037         -1.51852         0.27481
  C        -1.18462         -1.50950        -0.17040
  H         0.33007          2.14760         1.12183
  H         2.12927          1.16890        -0.21515
  H         2.13078         -1.16247        -0.21633
  H         0.32014         -2.15904         1.11971
  H        -2.01085         -2.05415         0.26527
  H        -1.42524         -0.84698        -0.99262
  H        -2.01904          2.05170         0.25870
  H        -1.41027          0.83803        -0.98833
14
 step=         228     theta[rad]=           2.3876
  C        -1.18551          1.48341        -0.18400
  C         0.05127          1.54037         0.31856
  C         1.19098          0.68089        -0.10538
  C         1.19249         -0.68338        -0.10242
  C         0.05233         -1.53602         0.31334
  C        -1.18651         -1.48705        -0.18121
  H         0.22014          2.34067         1.04442
  H         2.16555          1.15887        -0.17608
  H         2.16334         -1.16823        -0.17438
  H         0.23463         -2.32400         1.04750
  H        -1.91540         -2.10903         0.33684
  H        -1.51587         -1.03649        -1.11561
  H        -1.90346          2.11261         0.34641
  H        -1.53767          1.04954        -1.12188
14
 step=         229     theta[rad]=           2.3981
  C        -1.18529          1.51357        -0.16764
  C         0.06164          1.51417         0.26863
  C         1.17576          0.66384        -0.07852
  C         1.17458         -0.66190        -0.08083
  C         0.06081         -1.51755         0.27269
  C        -1.18451         -1.51073        -0.16980
  H         0.33612          2.13698         1.12609
  H         2.12727          1.16945        -0.21730
  H         2.12899         -1.16216        -0.21864
  H         0.32485         -2.14996         1.12369
  H        -2.01610         -2.05113         0.26133
  H        -1.42025         -0.83655        -0.98585
  H        -2.02540          2.04834         0.25387
  H        -1.40326          0.82639        -0.98098
14
 step=         230     theta[rad]=           2.4086
  C        -1.18540          1.49771        -0.17624
  C         0.05619          1.52795         0.29489
  C         1.18376          0.67281        -0.09265
  C         1.18400         -0.67320        -0.09218
  C         0.05635         -1.52727         0.29407
  C        -1.18556         -1.49828        -0.17580
  H         0.27513          2.24410         1.08314
  H         2.14740          1.16388        -0.19563
  H         2.14706         -1.16535        -0.19536
  H         0.27740         -2.24149         1.08362
  H        -1.96314         -2.08158         0.30104
  H        -1.47054         -0.94170        -1.05409
  H        -1.96127          2.08214         0.30254
  H        -1.47395          0.94375        -1.05508
14
 step=         231     theta[rad]=           2.4190
  C        -1.18545          1.49126        -0.17974
  C         0.05397          1.53355         0.30556
  C         1.18701          0.67645        -0.09839
  C         1.18782         -0.67779        -0.09680
  C         0.05454         -1.53122         0.30276
  C        -1.18599         -1.49321        -0.17824
  H         0.25034          2.28764         1.06568
  H         2.15559          1.16162        -0.18682
  H         2.15440         -1.16665        -0.18590
  H         0.25812         -2.27869         1.06733
  H        -1.94162         -2.09396         0.31718
  H        -1.49097         -0.98443        -1.08183
  H        -1.93521          2.09587         0.32232
  H        -1.50267          0.99144        -1.08519
14
 step=         232     theta[rad]=           2.4295
  C        -1.18526          1.51663        -0.16598
  C         0.06269          1.51151         0.26356
  C         1.17421          0.66211        -0.07580
  C         1.17277         -0.65972        -0.07864
  C         0.06167         -1.51568         0.26856
  C        -1.18431         -1.51314        -0.16865
  H         0.34789          2.11630         1.13438
  H         2.12338          1.17052        -0.22149
  H         2.12550         -1.16154        -0.22313
  H         0.33400         -2.13230         1.13142
  H        -2.02632         -2.04525         0.25367
  H        -1.41054         -0.81626        -0.97268
  H        -2.03778          2.04182         0.24448
  H        -1.38962          0.80374        -0.96668
14
 step=         233     theta[rad]=           2.4400
  C        -1.18550          1.48477        -0.18326
  C         0.05174          1.53918         0.31630
  C         1.19029          0.68012        -0.10417
  C         1.19168         -0.68241        -0.10144
  C         0.05272         -1.53519         0.31150
  C        -1.18642         -1.48812        -0.18069
  H         0.22539          2.33146         1.04811
  H         2.16382          1.15934        -0.17795
  H         2.16179         -1.16795        -0.17638
  H         0.23871         -2.31613         1.05094
  H        -1.91996         -2.10641         0.33343
  H        -1.51154         -1.02745        -1.10974
  H        -1.90897          2.10970         0.34223
  H        -1.53159          1.03945        -1.11551
14
 step=         234     theta[rad]=           2.4504
  C        -1.18533          1.50808        -0.17062
  C         0.05975          1.51894         0.27772
  C         1.17853          0.66695        -0.08341
  C         1.17784         -0.66581        -0.08476
  C         0.05927         -1.52092         0.28009
  C        -1.18488         -1.50642        -0.17188
  H         0.31501          2.17406         1.11122
  H         2.13424          1.16752        -0.20980
  H         2.13524         -1.16326        -0.21058
  H         0.30842         -2.18164         1.10982
  H        -1.99777         -2.06167         0.27508
  H        -1.43766         -0.87295        -1.00947
  H        -2.00320          2.06004         0.27072
  H        -1.42773          0.86701        -1.00663
14
 step=         235     theta[rad]=           2.4609
  C        -1.18536          1.50390        -0.17288
  C         0.05831          1.52257         0.28464
  C         1.18064          0.66931        -0.08714
  C         1.18032         -0.66879        -0.08775
  C         0.05809         -1.52348         0.28572
  C        -1.18515         -1.50314        -0.17346
  H         0.29893          2.20230         1.09990
  H         2.13955          1.16605        -0.20409
  H         2.14001         -1.16410        -0.20445
  H         0.29592         -2.20577         1.09926
  H        -1.98381         -2.06970         0.28555
  H        -1.45091         -0.90067        -1.02746
  H        -1.98630          2.06895         0.28354
  H        -1.44636          0.89795        -1.02616
14
 step=         236     theta[rad]=           2.4714
  C        -1.18548          1.48727        -0.18190
  C         0.05260          1.53701         0.31216
  C         1.18903          0.67871        -0.10194
  C         1.19019         -0.68063        -0.09965
  C         0.05342         -1.53366         0.30813
  C        -1.18626         -1.49008        -0.17974
  H         0.23501          2.31457         1.05489
  H         2.16065          1.16022        -0.18137
  H         2.15894         -1.16745        -0.18005
  H         0.24619         -2.30170         1.05726
  H        -1.92831         -2.10161         0.32716
  H        -1.50361         -1.01086        -1.09898
  H        -1.91909          2.10437         0.33455
  H        -1.52044          1.02094        -1.10382
14
 step=         237     theta[rad]=           2.4819
  C        -1.18526          1.51735        -0.16559
  C         0.06294          1.51089         0.26237
  C         1.17385          0.66171        -0.07516
  C         1.17234         -0.65921        -0.07813
  C         0.06187         -1.51524         0.26759
  C        -1.18426         -1.51370        -0.16838
  H         0.35065          2.11146         1.13632
  H         2.12247          1.17077        -0.22247
  H         2.12469         -1.16140        -0.22418
  H         0.33615         -2.12816         1.13323
  H        -2.02871         -2.04388         0.25187
  H        -1.40827         -0.81151        -0.96960
  H        -2.04068          2.04029         0.24228
  H        -1.38642          0.79844        -0.96334
14
 step=         238     theta[rad]=           2.4923
  C        -1.18549          1.48651        -0.18231
  C         0.05234          1.53767         0.31341
  C         1.18941          0.67914        -0.10261
  C         1.19064         -0.68117        -0.10019
  C         0.05321         -1.53412         0.30915
  C        -1.18631         -1.48949        -0.18003
  H         0.23209          2.31969         1.05284
  H         2.16161          1.15996        -0.18033
  H         2.15980         -1.16760        -0.17894
  H         0.24392         -2.30607         1.05535
  H        -1.92578         -2.10307         0.32906
  H        -1.50601         -1.01589        -1.10224
  H        -1.91602          2.10598         0.33688
  H        -1.52382          1.02655        -1.10736
14
 step=         239     theta[rad]=           2.5028
  C        -1.18535          1.50561        -0.17195
  C         0.05891          1.52108         0.28179
  C         1.17977          0.66834        -0.08561
  C         1.17930         -0.66757        -0.08652
  C         0.05858         -1.52242         0.28341
  C        -1.18504         -1.50449        -0.17281
  H         0.30554          2.19069         1.10455
  H         2.13737          1.16666        -0.20643
  H         2.13805         -1.16376        -0.20697
  H         0.30106         -2.19586         1.10360
  H        -1.98954         -2.06640         0.28124
  H        -1.44546         -0.88928        -1.02007
  H        -1.99325          2.06529         0.27827
  H        -1.43870          0.88524        -1.01814
14
 step=         240     theta[rad]=           2.5133
  C        -1.18535          1.50561        -0.17195
  C         0.05891          1.52108         0.28179
  C         1.17977          0.66834        -0.08561
  C         1.17930         -0.66757        -0.08652
  C         0.05858         -1.52242         0.28341
  C        -1.18504         -1.50449        -0.17281
  H         0.30554          2.19069         1.10455
  H         2.13737          1.16666        -0.20643
  H         2.13805         -1.16376        -0.20697
  H         0.30106         -2.19586         1.10360
  H        -1.98954         -2.06640         0.28124
  H        -1.44546         -0.88928        -1.02007
  H        -1.99325          2.06529         0.27827
  H        -1.43870          0.88524        -1.01814
14
 step=         241     theta[rad]=           2.5237
  C        -1.18549          1.48672        -0.18220
  C         0.05241          1.53749         0.31307
  C         1.18930          0.67902        -0.10243
  C         1.19052         -0.68102        -0.10004
  C         0.05326         -1.53399         0.30887
  C        -1.18629         -1.48965        -0.17995
  H         0.23290          2.31827         1.05340
  H         2.16134          1.16003        -0.18062
  H         2.15957         -1.16756        -0.17924
  H         0.24455         -2.30486         1.05587
  H        -1.92648         -2.10267         0.32854
  H        -1.50535         -1.01450        -1.10134
  H        -1.91687          2.10554         0.33623
  H        -1.52289          1.02500        -1.10638
14
 step=         242     theta[rad]=           2.5342
  C        -1.18526          1.51735        -0.16559
  C         0.06294          1.51089         0.26237
  C         1.17385          0.66171        -0.07516
  C         1.17234         -0.65921        -0.07813
  C         0.06187         -1.51524         0.26759
  C        -1.18426         -1.51370        -0.16838
  H         0.35065          2.11146         1.13632
  H         2.12247          1.17077        -0.22247
  H         2.12469         -1.16140        -0.22418
  H         0.33615         -2.12816         1.13323
  H        -2.02871         -2.04388         0.25187
  H        -1.40827         -0.81151        -0.96960
  H        -2.04068          2.04029         0.24228
  H        -1.38642          0.79844        -0.96334
14
 step=         243     theta[rad]=           2.5447
  C        -1.18549          1.48602        -0.18258
  C         0.05217          1.53810         0.31423
  C         1.18966          0.67942        -0.10305
  C         1.19094         -0.68152        -0.10055
  C         0.05307         -1.53442         0.30982
  C        -1.18634         -1.48910        -0.18022
  H         0.23019          2.32304         1.05149
  H         2.16224          1.15978        -0.17965
  H         2.16037         -1.16770        -0.17821
  H         0.24244         -2.30893         1.05409
  H        -1.92412         -2.10402         0.33030
  H        -1.50759         -1.01918        -1.10438
  H        -1.91401          2.10704         0.33840
  H        -1.52603          1.03022        -1.10968
14
 step=         244     theta[rad]=           2.5552
  C        -1.18533          1.50728        -0.17105
  C         0.05948          1.51964         0.27905
  C         1.17893          0.66740        -0.08413
  C         1.17832         -0.66638        -0.08534
  C         0.05904         -1.52141         0.28117
  C        -1.18493         -1.50579        -0.17218
  H         0.31192          2.17948         1.10905
  H         2.13526          1.16724        -0.20870
  H         2.13616         -1.16342        -0.20940
  H         0.30602         -2.18628         1.10779
  H        -1.99509         -2.06321         0.27709
  H        -1.44020         -0.87827        -1.01293
  H        -1.99996          2.06175         0.27318
  H        -1.43130          0.87295        -1.01038
14
 step=         245     theta[rad]=           2.5656
  C        -1.18537          1.50302        -0.17336
  C         0.05801          1.52333         0.28609
  C         1.18108          0.66980        -0.08791
  C         1.18084         -0.66941        -0.08838
  C         0.05785         -1.52401         0.28690
  C        -1.18521         -1.50245        -0.17379
  H         0.29557          2.20820         1.09753
  H         2.14066          1.16575        -0.20289
  H         2.14100         -1.16428        -0.20316
  H         0.29330         -2.21082         1.09705
  H        -1.98089         -2.07138         0.28773
  H        -1.45368         -0.90646        -1.03122
  H        -1.98276          2.07081         0.28623
  H        -1.45026          0.90442        -1.03025
14
 step=         246     theta[rad]=           2.5761
  C        -1.18547          1.48913        -0.18089
  C         0.05324          1.53540         0.30909
  C         1.18809          0.67766        -0.10029
  C         1.18909         -0.67931        -0.09832
  C         0.05394         -1.53252         0.30563
  C        -1.18613         -1.49154        -0.17904
  H         0.24214          2.30204         1.05991
  H         2.15829          1.16087        -0.18390
  H         2.15683         -1.16708        -0.18277
  H         0.25174         -2.29099         1.06195
  H        -1.93450         -2.09805         0.32252
  H        -1.49773         -0.99856        -1.09100
  H        -1.92659          2.10042         0.32886
  H        -1.51217          1.00721        -1.09515
14
 step=         247     theta[rad]=           2.5866
  C        -1.18526          1.51663        -0.16598
  C         0.06269          1.51151         0.26356
  C         1.17421          0.66211        -0.07580
  C         1.17277         -0.65972        -0.07864
  C         0.06167         -1.51568         0.26856
  C        -1.18431         -1.51314        -0.16865
  H         0.34789          2.11630         1.13438
  H         2.12338          1.17052        -0.22149
  H         2.12550         -1.16154        -0.22313
  H         0.33400         -2.13230         1.13142
  H        -2.02632         -2.04525         0.25367
  H        -1.41054         -0.81626        -0.97268
  H        -2.03778          2.04182         0.24448
  H        -1.38962          0.80374        -0.96668
14
 step=         248     theta[rad]=           2.5970
  C        -1.18551          1.48391        -0.18373
  C         0.05144          1.53993         0.31773
  C         1.19072          0.68061        -0.10493
  C         1.19219         -0.68303        -0.10206
  C         0.05247         -1.53572         0.31267
  C        -1.18648         -1.48744        -0.18102
  H         0.22207          2.33729         1.04578
  H         2.16492          1.15904        -0.17677
  H         2.16277         -1.16813        -0.17511
  H         0.23612         -2.32112         1.04876
  H        -1.91707         -2.10807         0.33559
  H        -1.51428         -1.03317        -1.11346
  H        -1.90548          2.11154         0.34488
  H        -1.53544          1.04584        -1.11954
14
 step=         249     theta[rad]=           2.6075
  C        -1.18530          1.51238        -0.16828
  C         0.06123          1.51521         0.27060
  C         1.17636          0.66452        -0.07958
  C         1.17529         -0.66275        -0.08168
  C         0.06048         -1.51828         0.27429
  C        -1.18459         -1.50980        -0.17025
  H         0.33154          2.14502         1.12287
  H         2.12878          1.16903        -0.21568
  H         2.13034         -1.16240        -0.21689
  H         0.32129         -2.15683         1.12068
  H        -2.01213         -2.05341         0.26431
  H        -1.42402         -0.84444        -0.99097
  H        -2.02059          2.05088         0.25752
  H        -1.40856          0.83519        -0.98654
14
 step=         250     theta[rad]=           2.6180
  C        -1.18542          1.49597        -0.17718
  C         0.05559          1.52946         0.29777
  C         1.18464          0.67379        -0.09420
  C         1.18503         -0.67444        -0.09343
  C         0.05586         -1.52833         0.29641
  C        -1.18568         -1.49691        -0.17646
  H         0.26844          2.25585         1.07843
  H         2.14961          1.16327        -0.19325
  H         2.14904         -1.16570        -0.19281
  H         0.27220         -2.25153         1.07922
  H        -1.95733         -2.08492         0.30540
  H        -1.47605         -0.95323        -1.06158
  H        -1.95424          2.08585         0.30787
  H        -1.48170          0.95662        -1.06321
14
 step=         251     theta[rad]=           2.6285
  C        -1.18542          1.49614        -0.17709
  C         0.05565          1.52931         0.29748
  C         1.18455          0.67370        -0.09404
  C         1.18493         -0.67432        -0.09331
  C         0.05591         -1.52823         0.29618
  C        -1.18567         -1.49705        -0.17639
  H         0.26910          2.25469         1.07889
  H         2.14939          1.16333        -0.19348
  H         2.14884         -1.16567        -0.19306
  H         0.27271         -2.25054         1.07966
  H        -1.95791         -2.08459         0.30497
  H        -1.47550         -0.95209        -1.06084
  H        -1.95493          2.08548         0.30735
  H        -1.48093          0.95535        -1.06240
14
 step=         252     theta[rad]=           2.6389
  C        -1.18530          1.51200        -0.16849
  C         0.06110          1.51554         0.27123
  C         1.17655          0.66473        -0.07992
  C         1.17552         -0.66302        -0.08196
  C         0.06037         -1.51852         0.27481
  C        -1.18462         -1.50950        -0.17040
  H         0.33007          2.14760         1.12183
  H         2.12927          1.16890        -0.21515
  H         2.13078         -1.16247        -0.21633
  H         0.32014         -2.15904         1.11971
  H        -2.01085         -2.05415         0.26527
  H        -1.42524         -0.84698        -0.99262
  H        -2.01904          2.05170         0.25870
  H        -1.41027          0.83803        -0.98833
14
 step=         253     theta[rad]=           2.6494
  C        -1.18550          1.48426        -0.18353
  C         0.05156          1.53963         0.31714
  C         1.19055          0.68041        -0.10462
  C         1.19198         -0.68277        -0.10181
  C         0.05257         -1.53550         0.31219
  C        -1.18646         -1.48772        -0.18088
  H         0.22343          2.33491         1.04673
  H         2.16447          1.15917        -0.17725
  H         2.16237         -1.16806        -0.17563
  H         0.23718         -2.31908         1.04965
  H        -1.91825         -2.10739         0.33470
  H        -1.51316         -1.03083        -1.11194
  H        -1.90691          2.11079         0.34379
  H        -1.53386          1.04322        -1.11789
14
 step=         254     theta[rad]=           2.6599
  C        -1.18526          1.51715        -0.16570
  C         0.06287          1.51107         0.26271
  C         1.17395          0.66182        -0.07534
  C         1.17246         -0.65936        -0.07827
  C         0.06182         -1.51536         0.26786
  C        -1.18427         -1.51354        -0.16845
  H         0.34987          2.11282         1.13578
  H         2.12273          1.17070        -0.22219
  H         2.12491         -1.16144        -0.22389
  H         0.33555         -2.12932         1.13272
  H        -2.02804         -2.04426         0.25238
  H        -1.40891         -0.81284        -0.97046
  H        -2.03987          2.04072         0.24289
  H        -1.38732          0.79992        -0.96427
14
 step=         255     theta[rad]=           2.6704
  C        -1.18549          1.48662        -0.18225
  C         0.05237          1.53758         0.31324
  C         1.18936          0.67908        -0.10252
  C         1.19058         -0.68109        -0.10012
  C         0.05324         -1.53406         0.30901
  C        -1.18630         -1.48957        -0.17999
  H         0.23249          2.31898         1.05312
  H         2.16148          1.15999        -0.18047
  H         2.15969         -1.16758        -0.17909
  H         0.24423         -2.30547         1.05561
  H        -1.92613         -2.10287         0.32880
  H        -1.50569         -1.01520        -1.10180
  H        -1.91644          2.10576         0.33656
  H        -1.52336          1.02578        -1.10688
14
 step=         256     theta[rad]=           2.6808
  C        -1.18533          1.50824        -0.17053
  C         0.05981          1.51880         0.27745
  C         1.17845          0.66686        -0.08327
  C         1.17775         -0.66570        -0.08465
  C         0.05931         -1.52082         0.27987
  C        -1.18486         -1.50655        -0.17182
  H         0.31561          2.17299         1.11165
  H         2.13404          1.16758        -0.21002
  H         2.13506         -1.16323        -0.21081
  H         0.30890         -2.18073         1.11022
  H        -1.99830         -2.06137         0.27468
  H        -1.43715         -0.87190        -1.00879
  H        -2.00384          2.05970         0.27023
  H        -1.42702          0.86584        -1.00589
14
 step=         257     theta[rad]=           2.6913
  C        -1.18539          1.49983        -0.17509
  C         0.05692          1.52610         0.29137
  C         1.18269          0.67161        -0.09076
  C         1.18274         -0.67169        -0.09066
  C         0.05695         -1.52597         0.29120
  C        -1.18542         -1.49994        -0.17500
  H         0.28329          2.22976         1.08889
  H         2.14471          1.16463        -0.19853
  H         2.14464         -1.16492        -0.19848
  H         0.28375         -2.22923         1.08898
  H        -1.97023         -2.07750         0.29573
  H        -1.46380         -0.92762        -1.04495
  H        -1.96986          2.07761         0.29602
  H        -1.46448          0.92803        -1.04516
14
 step=         258     theta[rad]=           2.7018
  C        -1.18543          1.49362        -0.17846
  C         0.05478          1.53150         0.30166
  C         1.18583          0.67512        -0.09629
  C         1.18643         -0.67611        -0.09511
  C         0.05520         -1.52977         0.29958
  C        -1.18584         -1.49506        -0.17735
  H         0.25940          2.27172         1.07206
  H         2.15260          1.16245        -0.19004
  H         2.15171         -1.16617        -0.18936
  H         0.26517         -2.26509         1.07329
  H        -1.94949         -2.08943         0.31128
  H        -1.48350         -0.96881        -1.07169
  H        -1.94473          2.09085         0.31509
  H        -1.49217          0.97401        -1.07419
14
 step=         259     theta[rad]=           2.7122
  C        -1.18529          1.51299        -0.16795
  C         0.06144          1.51467         0.26958
  C         1.17605          0.66417        -0.07904
  C         1.17493         -0.66231        -0.08125
  C         0.06065         -1.51791         0.27347
  C        -1.18455         -1.51028        -0.17002
  H         0.33390          2.14088         1.12453
  H         2.12800          1.16924        -0.21651
  H         2.12965         -1.16227        -0.21779
  H         0.32312         -2.15329         1.12223
  H        -2.01417         -2.05224         0.26278
  H        -1.42208         -0.84038        -0.98834
  H        -2.02307          2.04957         0.25564
  H        -1.40583          0.83066        -0.98368
14
 step=         260     theta[rad]=           2.7227
  C        -1.18550          1.48420        -0.18356
  C         0.05154          1.53968         0.31724
  C         1.19057          0.68044        -0.10467
  C         1.19201         -0.68281        -0.10185
  C         0.05256         -1.53554         0.31227
  C        -1.18646         -1.48767        -0.18090
  H         0.22321          2.33528         1.04658
  H         2.16454          1.15915        -0.17718
  H         2.16243         -1.16807        -0.17555
  H         0.23701         -2.31940         1.04951
  H        -1.91807         -2.10750         0.33484
  H        -1.51334         -1.03120        -1.11218
  H        -1.90668          2.11090         0.34396
  H        -1.53411          1.04364        -1.11815
14
 step=         261     theta[rad]=           2.7332
  C        -1.18526          1.51728        -0.16562
  C         0.06292          1.51095         0.26248
  C         1.17389          0.66174        -0.07522
  C         1.17238         -0.65926        -0.07818
  C         0.06186         -1.51528         0.26768
  C        -1.18426         -1.51365        -0.16840
  H         0.35039          2.11192         1.13614
  H         2.12256          1.17075        -0.22237
  H         2.12476         -1.16141        -0.22408
  H         0.33595         -2.12855         1.13306
  H        -2.02849         -2.04400         0.25204
  H        -1.40849         -0.81196        -0.96988
  H        -2.04041          2.04044         0.24248
  H        -1.38672          0.79893        -0.96365
14
 step=         262     theta[rad]=           2.7437
  C        -1.18550          1.48539        -0.18292
  C         0.05195          1.53865         0.31527
  C         1.18998          0.67977        -0.10361
  C         1.19131         -0.68197        -0.10100
  C         0.05289         -1.53481         0.31067
  C        -1.18638         -1.48860        -0.18046
  H         0.22777          2.32728         1.04979
  H         2.16304          1.15956        -0.17880
  H         2.16108         -1.16783        -0.17729
  H         0.24056         -2.31256         1.05251
  H        -1.92202         -2.10523         0.33188
  H        -1.50958         -1.02334        -1.10708
  H        -1.91147          2.10838         0.34033
  H        -1.52883          1.03487        -1.11261
14
 step=         263     theta[rad]=           2.7541
  C        -1.18530          1.51120        -0.16892
  C         0.06082          1.51623         0.27256
  C         1.17696          0.66518        -0.08064
  C         1.17599         -0.66359        -0.08253
  C         0.06015         -1.51901         0.27589
  C        -1.18467         -1.50887        -0.17070
  H         0.32699          2.15301         1.11966
  H         2.13028          1.16861        -0.21406
  H         2.13169         -1.16263        -0.21515
  H         0.31775         -2.16366         1.11769
  H        -2.00817         -2.05569         0.26728
  H        -1.42778         -0.85229        -0.99606
  H        -2.01581          2.05340         0.26115
  H        -1.41384          0.84395        -0.99207
14
 step=         264     theta[rad]=           2.7646
  C        -1.18542          1.49511        -0.17765
  C         0.05529          1.53020         0.29918
  C         1.18507          0.67428        -0.09496
  C         1.18554         -0.67504        -0.09404
  C         0.05562         -1.52886         0.29756
  C        -1.18574         -1.49624        -0.17678
  H         0.26516          2.26161         1.07612
  H         2.15069          1.16297        -0.19208
  H         2.15001         -1.16587        -0.19156
  H         0.26964         -2.25645         1.07707
  H        -1.95449         -2.08656         0.30753
  H        -1.47875         -0.95889        -1.06525
  H        -1.95079          2.08766         0.31049
  H        -1.48550          0.96293        -1.06719
14
 step=         265     theta[rad]=           2.7751
  C        -1.18539          1.49947        -0.17528
  C         0.05679          1.52641         0.29196
  C         1.18287          0.67181        -0.09107
  C         1.18295         -0.67194        -0.09092
  C         0.05685         -1.52618         0.29168
  C        -1.18545         -1.49967        -0.17513
  H         0.28193          2.23216         1.08793
  H         2.14516          1.16450        -0.19804
  H         2.14504         -1.16499        -0.19796
  H         0.28269         -2.23129         1.08809
  H        -1.96905         -2.07819         0.29662
  H        -1.46493         -0.92998        -1.04648
  H        -1.96842          2.07837         0.29711
  H        -1.46606          0.93066        -1.04682
14
 step=         266     theta[rad]=           2.7855
  C        -1.18534          1.50711        -0.17114
  C         0.05942          1.51978         0.27932
  C         1.17902          0.66749        -0.08427
  C         1.17841         -0.66650        -0.08545
  C         0.05900         -1.52151         0.28139
  C        -1.18494         -1.50566        -0.17225
  H         0.31129          2.18058         1.10861
  H         2.13546          1.16718        -0.20848
  H         2.13634         -1.16346        -0.20916
  H         0.30553         -2.18722         1.10738
  H        -1.99454         -2.06352         0.27750
  H        -1.44072         -0.87935        -1.01363
  H        -1.99930          2.06210         0.27368
  H        -1.43203          0.87416        -1.01114
14
 step=         267     theta[rad]=           2.7960
  C        -1.18547          1.48873        -0.18111
  C         0.05310          1.53574         0.30974
  C         1.18829          0.67788        -0.10064
  C         1.18932         -0.67959        -0.09861
  C         0.05383         -1.53276         0.30616
  C        -1.18616         -1.49123        -0.17919
  H         0.24062          2.30470         1.05884
  H         2.15879          1.16073        -0.18336
  H         2.15728         -1.16716        -0.18219
  H         0.25056         -2.29327         1.06095
  H        -1.93319         -2.09881         0.32351
  H        -1.49898         -1.00118        -1.09270
  H        -1.92499          2.10126         0.33007
  H        -1.51393          1.01014        -1.09700
14
 step=         268     theta[rad]=           2.8065
  C        -1.18527          1.51542        -0.16663
  C         0.06228          1.51256         0.26556
  C         1.17482          0.66279        -0.07687
  C         1.17348         -0.66058        -0.07951
  C         0.06133         -1.51642         0.27019
  C        -1.18439         -1.51219        -0.16910
  H         0.34324          2.12446         1.13111
  H         2.12492          1.17010        -0.21983
  H         2.12688         -1.16178        -0.22136
  H         0.33039         -2.13927         1.12837
  H        -2.02228         -2.04757         0.25669
  H        -1.41438         -0.82427        -0.97788
  H        -2.03290          2.04440         0.24818
  H        -1.39500          0.81268        -0.97233
14
 step=         269     theta[rad]=           2.8170
  C        -1.18551          1.48358        -0.18390
  C         0.05133          1.54022         0.31827
  C         1.19089          0.68079        -0.10522
  C         1.19238         -0.68326        -0.10229
  C         0.05238         -1.53592         0.31311
  C        -1.18650         -1.48718        -0.18114
  H         0.22082          2.33949         1.04490
  H         2.16533          1.15893        -0.17632
  H         2.16314         -1.16819        -0.17463
  H         0.23515         -2.32299         1.04794
  H        -1.91599         -2.10870         0.33640
  H        -1.51531         -1.03532        -1.11486
  H        -1.90417          2.11223         0.34587
  H        -1.53689          1.04824        -1.12106
14
 step=         270     theta[rad]=           2.8274
  C        -1.18526          1.51715        -0.16570
  C         0.06287          1.51107         0.26271
  C         1.17395          0.66182        -0.07534
  C         1.17246         -0.65936        -0.07827
  C         0.06182         -1.51536         0.26786
  C        -1.18427         -1.51354        -0.16845
  H         0.34987          2.11282         1.13578
  H         2.12273          1.17070        -0.22219
  H         2.12491         -1.16144        -0.22389
  H         0.33555         -2.12932         1.13272
  H        -2.02804         -2.04426         0.25238
  H        -1.40891         -0.81284        -0.97046
  H        -2.03987          2.04072         0.24289
  H        -1.38732          0.79992        -0.96427
14
 step=         271     theta[rad]=           2.8379
  C        -1.18550          1.48514        -0.18305
  C         0.05187          1.53886         0.31568
  C         1.19010          0.67991        -0.10383
  C         1.19145         -0.68214        -0.10117
  C         0.05282         -1.53496         0.31100
  C        -1.18640         -1.48841        -0.18055
  H         0.22683          2.32893         1.04913
  H         2.16335          1.15948        -0.17846
  H         2.16136         -1.16788        -0.17693
  H         0.23983         -2.31397         1.05189
  H        -1.92121         -2.10570         0.33249
  H        -1.51035         -1.02496        -1.10813
  H        -1.91048          2.10890         0.34108
  H        -1.52992          1.03668        -1.11376
14
 step=         272     theta[rad]=           2.8484
  C        -1.18529          1.51275        -0.16808
  C         0.06136          1.51488         0.26998
  C         1.17617          0.66431        -0.07925
  C         1.17507         -0.66249        -0.08142
  C         0.06058         -1.51806         0.27379
  C        -1.18456         -1.51009        -0.17011
  H         0.33297          2.14251         1.12387
  H         2.12831          1.16916        -0.21618
  H         2.12992         -1.16232        -0.21744
  H         0.32240         -2.15468         1.12162
  H        -2.01337         -2.05270         0.26338
  H        -1.42284         -0.84198        -0.98937
  H        -2.02209          2.05009         0.25638
  H        -1.40691          0.83245        -0.98481
14
 step=         273     theta[rad]=           2.8588
  C        -1.18545          1.49171        -0.17949
  C         0.05413          1.53315         0.30480
  C         1.18678          0.67620        -0.09798
  C         1.18755         -0.67747        -0.09647
  C         0.05467         -1.53094         0.30214
  C        -1.18596         -1.49357        -0.17807
  H         0.25209          2.28456         1.06692
  H         2.15501          1.16178        -0.18744
  H         2.15388         -1.16656        -0.18657
  H         0.25948         -2.27606         1.06848
  H        -1.94314         -2.09308         0.31604
  H        -1.48953         -0.98141        -1.07987
  H        -1.93705          2.09490         0.32092
  H        -1.50064          0.98807        -1.08307
14
 step=         274     theta[rad]=           2.8693
  C        -1.18535          1.50476        -0.17241
  C         0.05861          1.52182         0.28321
  C         1.18020          0.66882        -0.08637
  C         1.17981         -0.66817        -0.08713
  C         0.05834         -1.52295         0.28456
  C        -1.18510         -1.50382        -0.17313
  H         0.30226          2.19645         1.10224
  H         2.13845          1.16636        -0.20527
  H         2.13902         -1.16393        -0.20571
  H         0.29850         -2.20078         1.10144
  H        -1.98670         -2.06804         0.28338
  H        -1.44817         -0.89493        -1.02374
  H        -1.98980          2.06711         0.28089
  H        -1.44250          0.89155        -1.02212
14
 step=         275     theta[rad]=           2.8798
  C        -1.18538          1.50036        -0.17480
  C         0.05710          1.52564         0.29049
  C         1.18242          0.67131        -0.09028
  C         1.18242         -0.67131        -0.09028
  C         0.05710         -1.52564         0.29048
  C        -1.18539         -1.50036        -0.17480
  H         0.28535          2.22615         1.09034
  H         2.14403          1.16481        -0.19926
  H         2.14403         -1.16481        -0.19926
  H         0.28535         -2.22615         1.09033
  H        -1.97202         -2.07648         0.29439
  H        -1.46211         -0.92408        -1.04266
  H        -1.97202          2.07648         0.29438
  H        -1.46210          0.92408        -1.04266
14
 step=         276     theta[rad]=           2.8903
  C        -1.18542          1.49614        -0.17709
  C         0.05565          1.52931         0.29748
  C         1.18455          0.67370        -0.09404
  C         1.18493         -0.67432        -0.09331
  C         0.05591         -1.52823         0.29618
  C        -1.18567         -1.49705        -0.17639
  H         0.26910          2.25469         1.07889
  H         2.14939          1.16333        -0.19348
  H         2.14884         -1.16567        -0.19306
  H         0.27271         -2.25054         1.07966
  H        -1.95791         -2.08459         0.30497
  H        -1.47550         -0.95209        -1.06084
  H        -1.95493          2.08548         0.30735
  H        -1.48093          0.95535        -1.06240
14
 step=         277     theta[rad]=           2.9007
  C        -1.18533          1.50839        -0.17044
  C         0.05986          1.51867         0.27719
  C         1.17837          0.66677        -0.08313
  C         1.17765         -0.66559        -0.08454
  C         0.05936         -1.52072         0.27966
  C        -1.18485         -1.50667        -0.17176
  H         0.31622          2.17193         1.11208
  H         2.13384          1.16763        -0.21023
  H         2.13488         -1.16320        -0.21104
  H         0.30937         -2.17982         1.11061
  H        -1.99882         -2.06106         0.27429
  H        -1.43666         -0.87086        -1.00812
  H        -2.00448          2.05937         0.26975
  H        -1.42632          0.86468        -1.00516
14
 step=         278     theta[rad]=           2.9112
  C        -1.18547          1.48913        -0.18089
  C         0.05324          1.53540         0.30909
  C         1.18809          0.67766        -0.10029
  C         1.18909         -0.67931        -0.09832
  C         0.05394         -1.53252         0.30563
  C        -1.18613         -1.49154        -0.17904
  H         0.24214          2.30204         1.05991
  H         2.15829          1.16087        -0.18390
  H         2.15683         -1.16708        -0.18277
  H         0.25174         -2.29099         1.06195
  H        -1.93450         -2.09805         0.32252
  H        -1.49773         -0.99856        -1.09100
  H        -1.92659          2.10042         0.32886
  H        -1.51217          1.00721        -1.09515
14
 step=         279     theta[rad]=           2.9217
  C        -1.18528          1.51411        -0.16734
  C         0.06183          1.51370         0.26773
  C         1.17549          0.66354        -0.07804
  C         1.17426         -0.66152        -0.08044
  C         0.06096         -1.51722         0.27196
  C        -1.18447         -1.51116        -0.16960
  H         0.33820          2.13332         1.12756
  H         2.12658          1.16964        -0.21804
  H         2.12837         -1.16205        -0.21943
  H         0.32647         -2.14684         1.12506
  H        -2.01791         -2.05009         0.25998
  H        -1.41853         -0.83297        -0.98352
  H        -2.02759          2.04719         0.25221
  H        -1.40084          0.82238        -0.97845
14
 step=         280     theta[rad]=           2.9322
  C        -1.18550          1.48484        -0.18322
  C         0.05176          1.53912         0.31618
  C         1.19025          0.68008        -0.10410
  C         1.19163         -0.68236        -0.10139
  C         0.05274         -1.53515         0.31141
  C        -1.18642         -1.48817        -0.18066
  H         0.22566          2.33098         1.04831
  H         2.16373          1.15937        -0.17805
  H         2.16171         -1.16794        -0.17648
  H         0.23892         -2.31572         1.05112
  H        -1.92020         -2.10628         0.33325
  H        -1.51132         -1.02697        -1.10944
  H        -1.90926          2.10955         0.34201
  H        -1.53127          1.03892        -1.11517
14
 step=         281     theta[rad]=           2.9426
  C        -1.18526          1.51695        -0.16581
  C         0.06280          1.51124         0.26304
  C         1.17405          0.66193        -0.07552
  C         1.17258         -0.65950        -0.07841
  C         0.06176         -1.51549         0.26813
  C        -1.18429         -1.51339        -0.16853
  H         0.34911          2.11417         1.13523
  H         2.12298          1.17063        -0.22192
  H         2.12514         -1.16148        -0.22360
  H         0.33495         -2.13047         1.13222
  H        -2.02737         -2.04464         0.25288
  H        -1.40954         -0.81417        -0.97132
  H        -2.03906          2.04115         0.24351
  H        -1.38821          0.80140        -0.96521
14
 step=         282     theta[rad]=           2.9531
  C        -1.18551          1.48338        -0.18401
  C         0.05126          1.54039         0.31860
  C         1.19099          0.68091        -0.10540
  C         1.19250         -0.68340        -0.10244
  C         0.05233         -1.53604         0.31338
  C        -1.18652         -1.48703        -0.18122
  H         0.22005          2.34084         1.04435
  H         2.16559          1.15886        -0.17605
  H         2.16337         -1.16823        -0.17434
  H         0.23455         -2.32415         1.04743
  H        -1.91532         -2.10908         0.33690
  H        -1.51595         -1.03665        -1.11572
  H        -1.90335          2.11266         0.34649
  H        -1.53778          1.04973        -1.12199
14
 step=         283     theta[rad]=           2.9636
  C        -1.18526          1.51717        -0.16568
  C         0.06288          1.51104         0.26266
  C         1.17394          0.66180        -0.07532
  C         1.17244         -0.65934        -0.07825
  C         0.06183         -1.51535         0.26783
  C        -1.18427         -1.51357        -0.16844
  H         0.34998          2.11264         1.13585
  H         2.12269          1.17071        -0.22223
  H         2.12488         -1.16143        -0.22393
  H         0.33563         -2.12916         1.13279
  H        -2.02813         -2.04421         0.25231
  H        -1.40882         -0.81266        -0.97034
  H        -2.03998          2.04066         0.24281
  H        -1.38720          0.79972        -0.96415
14
 step=         284     theta[rad]=           2.9740
  C        -1.18550          1.48420        -0.18356
  C         0.05154          1.53968         0.31724
  C         1.19057          0.68044        -0.10467
  C         1.19201         -0.68281        -0.10185
  C         0.05256         -1.53554         0.31227
  C        -1.18646         -1.48767        -0.18090
  H         0.22321          2.33528         1.04658
  H         2.16454          1.15915        -0.17718
  H         2.16243         -1.16807        -0.17555
  H         0.23701         -2.31940         1.04951
  H        -1.91807         -2.10750         0.33484
  H        -1.51334         -1.03120        -1.11218
  H        -1.90668          2.11090         0.34396
  H        -1.53411          1.04364        -1.11815
14
 step=         285     theta[rad]=           2.9845
  C        -1.18527          1.51550        -0.16659
  C         0.06231          1.51249         0.26542
  C         1.17478          0.66275        -0.07680
  C         1.17343         -0.66053        -0.07945
  C         0.06136         -1.51637         0.27008
  C        -1.18438         -1.51225        -0.16907
  H         0.34356          2.12391         1.13133
  H         2.12481          1.17013        -0.21995
  H         2.12679         -1.16177        -0.22148
  H         0.33063         -2.13880         1.12857
  H        -2.02256         -2.04741         0.25649
  H        -1.41412         -0.82373        -0.97753
  H        -2.03323          2.04422         0.24793
  H        -1.39464          0.81208        -0.97195
14
 step=         286     theta[rad]=           2.9950
  C        -1.18549          1.48651        -0.18231
  C         0.05234          1.53767         0.31341
  C         1.18941          0.67914        -0.10261
  C         1.19064         -0.68117        -0.10019
  C         0.05321         -1.53412         0.30915
  C        -1.18631         -1.48949        -0.18003
  H         0.23209          2.31969         1.05284
  H         2.16161          1.15996        -0.18033
  H         2.15980         -1.16760        -0.17894
  H         0.24392         -2.30607         1.05535
  H        -1.92578         -2.10307         0.32906
  H        -1.50601         -1.01589        -1.10224
  H        -1.91602          2.10598         0.33688
  H        -1.52382          1.02655        -1.10736
14
 step=         287     theta[rad]=           3.0055
  C        -1.18529          1.51275        -0.16808
  C         0.06136          1.51488         0.26998
  C         1.17617          0.66431        -0.07925
  C         1.17507         -0.66249        -0.08142
  C         0.06058         -1.51806         0.27379
  C        -1.18456         -1.51009        -0.17011
  H         0.33297          2.14251         1.12387
  H         2.12831          1.16916        -0.21618
  H         2.12992         -1.16232        -0.21744
  H         0.32240         -2.15468         1.12162
  H        -2.01337         -2.05270         0.26338
  H        -1.42284         -0.84198        -0.98937
  H        -2.02209          2.05009         0.25638
  H        -1.40691          0.83245        -0.98481
14
 step=         288     theta[rad]=           3.0159
  C        -1.18547          1.48953        -0.18067
  C         0.05338          1.53505         0.30841
  C         1.18789          0.67743        -0.09992
  C         1.18885         -0.67902        -0.09803
  C         0.05405         -1.53227         0.30508
  C        -1.18611         -1.49186        -0.17889
  H         0.24370          2.29929         1.06101
  H         2.15778          1.16102        -0.18446
  H         2.15636         -1.16700        -0.18337
  H         0.25295         -2.28865         1.06297
  H        -1.93586         -2.09727         0.32150
  H        -1.49644         -0.99587        -1.08925
  H        -1.92823          2.09955         0.32761
  H        -1.51036          1.00421        -1.09326
14
 step=         289     theta[rad]=           3.0264
  C        -1.18532          1.50962        -0.16978
  C         0.06028          1.51760         0.27517
  C         1.17775          0.66608        -0.08204
  C         1.17693         -0.66472        -0.08366
  C         0.05970         -1.51997         0.27801
  C        -1.18477         -1.50763        -0.17130
  H         0.32093          2.16366         1.11539
  H         2.13228          1.16806        -0.21190
  H         2.13349         -1.16295        -0.21284
  H         0.31303         -2.17276         1.11371
  H        -2.00291         -2.05871         0.27122
  H        -1.43277         -0.86274        -1.00285
  H        -2.00943          2.05676         0.26599
  H        -1.42086          0.85562        -0.99944
14
 step=         290     theta[rad]=           3.0369
  C        -1.18544          1.49265        -0.17898
  C         0.05445          1.53234         0.30326
  C         1.18631          0.67567        -0.09715
  C         1.18700         -0.67680        -0.09580
  C         0.05493         -1.53036         0.30088
  C        -1.18590         -1.49431        -0.17771
  H         0.25569          2.27825         1.06945
  H         2.15382          1.16211        -0.18872
  H         2.15281         -1.16637        -0.18794
  H         0.26228         -2.27066         1.07085
  H        -1.94626         -2.09129         0.31370
  H        -1.48656         -0.97521        -1.07584
  H        -1.94083          2.09291         0.31805
  H        -1.49648          0.98115        -1.07870
14
 step=         291     theta[rad]=           3.0473
  C        -1.18534          1.50662        -0.17141
  C         0.05925          1.52021         0.28013
  C         1.17927          0.66777        -0.08471
  C         1.17871         -0.66685        -0.08581
  C         0.05886         -1.52181         0.28205
  C        -1.18497         -1.50528        -0.17243
  H         0.30940          2.18391         1.10727
  H         2.13609          1.16701        -0.20781
  H         2.13690         -1.16356        -0.20844
  H         0.30406         -2.19006         1.10613
  H        -1.99290         -2.06447         0.27873
  H        -1.44228         -0.88262        -1.01575
  H        -1.99731          2.06315         0.27519
  H        -1.43423          0.87781        -1.01345
14
 step=         292     theta[rad]=           3.0578
  C        -1.18542          1.49545        -0.17746
  C         0.05541          1.52991         0.29862
  C         1.18490          0.67408        -0.09465
  C         1.18534         -0.67480        -0.09380
  C         0.05572         -1.52865         0.29710
  C        -1.18571         -1.49651        -0.17665
  H         0.26646          2.25932         1.07704
  H         2.15026          1.16309        -0.19255
  H         2.14962         -1.16580        -0.19205
  H         0.27066         -2.25449         1.07793
  H        -1.95562         -2.08591         0.30668
  H        -1.47768         -0.95663        -1.06379
  H        -1.95216          2.08694         0.30945
  H        -1.48399          0.96042        -1.06561
14
 step=         293     theta[rad]=           3.0683
  C        -1.18536          1.50407        -0.17279
  C         0.05837          1.52242         0.28435
  C         1.18055          0.66921        -0.08698
  C         1.18022         -0.66867        -0.08763
  C         0.05814         -1.52337         0.28549
  C        -1.18514         -1.50328        -0.17339
  H         0.29960          2.20112         1.10037
  H         2.13933          1.16612        -0.20432
  H         2.13981         -1.16407        -0.20470
  H         0.29644         -2.20477         1.09969
  H        -1.98439         -2.06936         0.28511
  H        -1.45036         -0.89951        -1.02671
  H        -1.98700          2.06858         0.28301
  H        -1.44558          0.89666        -1.02535
14
 step=         294     theta[rad]=           3.0788
  C        -1.18540          1.49771        -0.17624
  C         0.05619          1.52795         0.29489
  C         1.18376          0.67281        -0.09265
  C         1.18400         -0.67320        -0.09218
  C         0.05635         -1.52727         0.29407
  C        -1.18556         -1.49828        -0.17580
  H         0.27513          2.24410         1.08314
  H         2.14740          1.16388        -0.19563
  H         2.14706         -1.16535        -0.19536
  H         0.27740         -2.24149         1.08362
  H        -1.96314         -2.08158         0.30104
  H        -1.47054         -0.94170        -1.05409
  H        -1.96127          2.08214         0.30254
  H        -1.47395          0.94375        -1.05508
14
 step=         295     theta[rad]=           3.0892
  C        -1.18537          1.50214        -0.17384
  C         0.05771          1.52410         0.28755
  C         1.18152          0.67030        -0.08870
  C         1.18137         -0.67004        -0.08901
  C         0.05760         -1.52455         0.28809
  C        -1.18527         -1.50176        -0.17412
  H         0.29218          2.21416         1.09514
  H         2.14178          1.16544        -0.20169
  H         2.14201         -1.16446        -0.20187
  H         0.29066         -2.21591         1.09482
  H        -1.97795         -2.07307         0.28994
  H        -1.45648         -0.91231        -1.03502
  H        -1.97920          2.07269         0.28893
  H        -1.45419          0.91094        -1.03437
14
 step=         296     theta[rad]=           3.0997
  C        -1.18539          1.49930        -0.17538
  C         0.05673          1.52657         0.29225
  C         1.18296          0.67191        -0.09123
  C         1.18305         -0.67207        -0.09105
  C         0.05680         -1.52629         0.29192
  C        -1.18546         -1.49953        -0.17520
  H         0.28124          2.23336         1.08745
  H         2.14538          1.16444        -0.19780
  H         2.14524         -1.16503        -0.19770
  H         0.28216         -2.23231         1.08764
  H        -1.96845         -2.07853         0.29706
  H        -1.46549         -0.93115        -1.04725
  H        -1.96770          2.07875         0.29766
  H        -1.46686          0.93198        -1.04765
14
 step=         297     theta[rad]=           3.1102
  C        -1.18538          1.50090        -0.17451
  C         0.05728          1.52518         0.28960
  C         1.18215          0.67101        -0.08981
  C         1.18210         -0.67093        -0.08990
  C         0.05725         -1.52531         0.28977
  C        -1.18535         -1.50078        -0.17459
  H         0.28740          2.22255         1.09178
  H         2.14335          1.16500        -0.19999
  H         2.14342         -1.16471        -0.20004
  H         0.28695         -2.22307         1.09168
  H        -1.97380         -2.07545         0.29305
  H        -1.46042         -0.92054        -1.04036
  H        -1.97417          2.07534         0.29274
  H        -1.45972          0.92013        -1.04017
14
 step=         298     theta[rad]=           3.1206
  C        -1.18539          1.50019        -0.17490
  C         0.05704          1.52580         0.29078
  C         1.18251          0.67141        -0.09044
  C         1.18253         -0.67143        -0.09041
  C         0.05705         -1.52575         0.29072
  C        -1.18540         -1.50022        -0.17486
  H         0.28466          2.22735         1.08985
  H         2.14426          1.16475        -0.19901
  H         2.14423         -1.16485        -0.19900
  H         0.28482         -2.22718         1.08988
  H        -1.97142         -2.07682         0.29483
  H        -1.46267         -0.92526        -1.04342
  H        -1.97130          2.07686         0.29493
  H        -1.46289          0.92540        -1.04350
14
 step=         299     theta[rad]=           3.1311
  C        -1.18538          1.50036        -0.17480
  C         0.05710          1.52564         0.29049
  C         1.18242          0.67131        -0.09028
  C         1.18242         -0.67131        -0.09028
  C         0.05710         -1.52564         0.29048
  C        -1.18539         -1.50036        -0.17480
  H         0.28535          2.22615         1.09034
  H         2.14403          1.16482        -0.19926
  H         2.14403         -1.16481        -0.19926
  H         0.28535         -2.22615         1.09033
  H        -1.97202         -2.07648         0.29439
  H        -1.46211         -0.92408        -1.04266
  H        -1.97202          2.07648         0.29438
  H        -1.46210          0.92408        -1.04266
14
 step=         300     theta[rad]=           3.1416
  C        -1.18538          1.50036        -0.17480
  C         0.05710          1.52564         0.29049
  C         1.18242          0.67131        -0.09028
  C         1.18242         -0.67131        -0.09028
  C         0.05710         -1.52564         0.29049
  C        -1.18539         -1.50036        -0.17480
  H         0.28535          2.22615         1.09034
  H         2.14403          1.16481        -0.19926
  H         2.14403         -1.16481        -0.19926
  H         0.28535         -2.22615         1.09033
  H        -1.97202         -2.07648         0.29439
  H        -1.46211         -0.92408        -1.04266
  H        -1.97202          2.07648         0.29438
  H        -1.46210          0.92408        -1.04267
14
 step=         301     theta[rad]=           3.1521
  C        -1.18538          1.50054        -0.17470
  C         0.05716          1.52549         0.29019
  C         1.18233          0.67121        -0.09012
  C         1.18231         -0.67118        -0.09015
  C         0.05715         -1.52553         0.29025
  C        -1.18538         -1.50050        -0.17473
  H         0.28603          2.22495         1.09082
  H         2.14380          1.16488        -0.19950
  H         2.14383         -1.16478        -0.19952
  H         0.28588         -2.22513         1.09078
  H        -1.97261         -2.07614         0.29394
  H        -1.46154         -0.92290        -1.04189
  H        -1.97274          2.07610         0.29384
  H        -1.46131          0.92277        -1.04183
14
 step=         302     theta[rad]=           3.1625
  C        -1.18539          1.49983        -0.17509
  C         0.05692          1.52610         0.29137
  C         1.18269          0.67161        -0.09076
  C         1.18274         -0.67169        -0.09066
  C         0.05695         -1.52597         0.29120
  C        -1.18542         -1.49994        -0.17500
  H         0.28329          2.22976         1.08889
  H         2.14471          1.16463        -0.19853
  H         2.14464         -1.16492        -0.19848
  H         0.28375         -2.22923         1.08898
  H        -1.97023         -2.07750         0.29573
  H        -1.46380         -0.92762        -1.04495
  H        -1.96986          2.07761         0.29602
  H        -1.46448          0.92803        -1.04516
14
 step=         303     theta[rad]=           3.1730
  C        -1.18538          1.50143        -0.17422
  C         0.05747          1.52471         0.28872
  C         1.18188          0.67070        -0.08933
  C         1.18179         -0.67055        -0.08952
  C         0.05740         -1.52499         0.28905
  C        -1.18532         -1.50120        -0.17439
  H         0.28945          2.21895         1.09322
  H         2.14268          1.16519        -0.20072
  H         2.14281         -1.16460        -0.20083
  H         0.28854         -2.22000         1.09303
  H        -1.97558         -2.07443         0.29172
  H        -1.45873         -0.91701        -1.03807
  H        -1.97633          2.07420         0.29111
  H        -1.45735          0.91619        -1.03768
14
 step=         304     theta[rad]=           3.1835
  C        -1.18540          1.49859        -0.17576
  C         0.05649          1.52718         0.29343
  C         1.18332          0.67231        -0.09186
  C         1.18347         -0.67257        -0.09155
  C         0.05660         -1.52673         0.29288
  C        -1.18551         -1.49897        -0.17547
  H         0.27852          2.23815         1.08553
  H         2.14628          1.16419        -0.19683
  H         2.14605         -1.16517        -0.19665
  H         0.28004         -2.23640         1.08585
  H        -1.96609         -2.07989         0.29884
  H        -1.46774         -0.93585        -1.05030
  H        -1.96484          2.08026         0.29983
  H        -1.47002          0.93722        -1.05096
14
 step=         305     theta[rad]=           3.1940
  C        -1.18537          1.50302        -0.17336
  C         0.05801          1.52333         0.28609
  C         1.18108          0.66980        -0.08791
  C         1.18084         -0.66941        -0.08838
  C         0.05785         -1.52401         0.28690
  C        -1.18521         -1.50245        -0.17379
  H         0.29557          2.20820         1.09753
  H         2.14066          1.16575        -0.20289
  H         2.14100         -1.16428        -0.20316
  H         0.29330         -2.21082         1.09705
  H        -1.98089         -2.07138         0.28773
  H        -1.45368         -0.90646        -1.03122
  H        -1.98276          2.07081         0.28623
  H        -1.45026          0.90442        -1.03025
14
 step=         306     theta[rad]=           3.2044
  C        -1.18541          1.49666        -0.17681
  C         0.05583          1.52886         0.29662
  C         1.18429          0.67340        -0.09358
  C         1.18462         -0.67395        -0.09293
  C         0.05606         -1.52791         0.29548
  C        -1.18563         -1.49745        -0.17620
  H         0.27110          2.25118         1.08030
  H         2.14873          1.16351        -0.19419
  H         2.14825         -1.16556        -0.19382
  H         0.27426         -2.24754         1.08097
  H        -1.95964         -2.08359         0.30367
  H        -1.47386         -0.94865        -1.05860
  H        -1.95703          2.08437         0.30575
  H        -1.47862          0.95151        -1.05998
14
 step=         307     theta[rad]=           3.2149
  C        -1.18535          1.50528        -0.17214
  C         0.05879          1.52138         0.28236
  C         1.17994          0.66853        -0.08591
  C         1.17950         -0.66781        -0.08677
  C         0.05848         -1.52263         0.28387
  C        -1.18506         -1.50422        -0.17294
  H         0.30423          2.19299         1.10363
  H         2.13780          1.16654        -0.20597
  H         2.13844         -1.16383        -0.20647
  H         0.30004         -2.19782         1.10274
  H        -1.98841         -2.06705         0.28209
  H        -1.44654         -0.89153        -1.02153
  H        -1.99187          2.06601         0.27931
  H        -1.44022          0.88775        -1.01972
14
 step=         308     theta[rad]=           3.2254
  C        -1.18543          1.49411        -0.17819
  C         0.05495          1.53107         0.30084
  C         1.18558          0.67484        -0.09585
  C         1.18613         -0.67576        -0.09476
  C         0.05534         -1.52947         0.29892
  C        -1.18580         -1.49545        -0.17716
  H         0.26130          2.26839         1.07340
  H         2.15197          1.16262        -0.19071
  H         2.15115         -1.16607        -0.19008
  H         0.26664         -2.26225         1.07453
  H        -1.95113         -2.08849         0.31005
  H        -1.48194         -0.96554        -1.06957
  H        -1.94673          2.08980         0.31357
  H        -1.48997          0.97036        -1.07188
14
 step=         309     theta[rad]=           3.2358
  C        -1.18533          1.50808        -0.17062
  C         0.05975          1.51894         0.27772
  C         1.17853          0.66695        -0.08341
  C         1.17784         -0.66581        -0.08476
  C         0.05927         -1.52092         0.28009
  C        -1.18488         -1.50642        -0.17188
  H         0.31501          2.17406         1.11122
  H         2.13424          1.16752        -0.20980
  H         2.13524         -1.16326        -0.21058
  H         0.30842         -2.18164         1.10982
  H        -1.99777         -2.06167         0.27508
  H        -1.43766         -0.87295        -1.00947
  H        -2.00320          2.06004         0.27072
  H        -1.42773          0.86701        -1.00663
14
 step=         310     theta[rad]=           3.2463
  C        -1.18545          1.49111        -0.17982
  C         0.05392          1.53368         0.30581
  C         1.18709          0.67654        -0.09852
  C         1.18791         -0.67790        -0.09691
  C         0.05450         -1.53131         0.30296
  C        -1.18600         -1.49310        -0.17829
  H         0.24976          2.28865         1.06528
  H         2.15578          1.16157        -0.18661
  H         2.15457         -1.16668        -0.18568
  H         0.25767         -2.27955         1.06696
  H        -1.94112         -2.09424         0.31756
  H        -1.49144         -0.98542        -1.08247
  H        -1.93460          2.09619         0.32277
  H        -1.50334          0.99255        -1.08589
14
 step=         311     theta[rad]=           3.2568
  C        -1.18530          1.51120        -0.16892
  C         0.06082          1.51623         0.27256
  C         1.17696          0.66518        -0.08064
  C         1.17599         -0.66359        -0.08253
  C         0.06015         -1.51901         0.27589
  C        -1.18467         -1.50887        -0.17070
  H         0.32699          2.15301         1.11966
  H         2.13028          1.16861        -0.21406
  H         2.13169         -1.16263        -0.21515
  H         0.31775         -2.16366         1.11769
  H        -2.00817         -2.05569         0.26728
  H        -1.42778         -0.85229        -0.99606
  H        -2.01581          2.05340         0.26115
  H        -1.41384          0.84395        -0.99207
14
 step=         312     theta[rad]=           3.2673
  C        -1.18548          1.48798        -0.18152
  C         0.05284          1.53640         0.31099
  C         1.18867          0.67831        -0.10131
  C         1.18977         -0.68013        -0.09915
  C         0.05362         -1.53322         0.30718
  C        -1.18621         -1.49064        -0.17948
  H         0.23772          2.30980         1.05680
  H         2.15975          1.16047        -0.18233
  H         2.15814         -1.16731        -0.18108
  H         0.24830         -2.29762         1.05904
  H        -1.93067         -2.10026         0.32540
  H        -1.50137         -1.00618        -1.09594
  H        -1.92194          2.10286         0.33238
  H        -1.51730          1.01572        -1.10052
14
 step=         313     theta[rad]=           3.2777
  C        -1.18528          1.51421        -0.16729
  C         0.06186          1.51361         0.26756
  C         1.17543          0.66348        -0.07795
  C         1.17420         -0.66144        -0.08037
  C         0.06099         -1.51716         0.27182
  C        -1.18447         -1.51124        -0.16956
  H         0.33860          2.13262         1.12784
  H         2.12645          1.16967        -0.21818
  H         2.12825         -1.16203        -0.21959
  H         0.32678         -2.14624         1.12532
  H        -2.01825         -2.04989         0.25972
  H        -1.41820         -0.83228        -0.98307
  H        -2.02801          2.04697         0.25189
  H        -1.40038          0.82162        -0.97797
14
 step=         314     theta[rad]=           3.2882
  C        -1.18550          1.48522        -0.18301
  C         0.05189          1.53879         0.31555
  C         1.19006          0.67987        -0.10376
  C         1.19141         -0.68209        -0.10112
  C         0.05284         -1.53491         0.31089
  C        -1.18639         -1.48847        -0.18052
  H         0.22714          2.32839         1.04934
  H         2.16325          1.15950        -0.17857
  H         2.16127         -1.16786        -0.17704
  H         0.24007         -2.31351         1.05209
  H        -1.92147         -2.10554         0.33229
  H        -1.51010         -1.02443        -1.10779
  H        -1.91081          2.10873         0.34083
  H        -1.52957          1.03609        -1.11338
14
 step=         315     theta[rad]=           3.2987
  C        -1.18527          1.51652        -0.16603
  C         0.06266          1.51161         0.26374
  C         1.17427          0.66217        -0.07589
  C         1.17283         -0.65980        -0.07872
  C         0.06164         -1.51574         0.26870
  C        -1.18431         -1.51306        -0.16869
  H         0.34748          2.11702         1.13409
  H         2.12352          1.17048        -0.22134
  H         2.12562         -1.16156        -0.22298
  H         0.33369         -2.13291         1.13115
  H        -2.02596         -2.04546         0.25394
  H        -1.41088         -0.81697        -0.97314
  H        -2.03735          2.04205         0.24480
  H        -1.39009          0.80453        -0.96718
14
 step=         316     theta[rad]=           3.3091
  C        -1.18551          1.48355        -0.18392
  C         0.05132          1.54024         0.31831
  C         1.19090          0.68081        -0.10525
  C         1.19240         -0.68328        -0.10231
  C         0.05237         -1.53593         0.31314
  C        -1.18650         -1.48716        -0.18115
  H         0.22072          2.33967         1.04482
  H         2.16537          1.15892        -0.17629
  H         2.16317         -1.16820        -0.17459
  H         0.23507         -2.32314         1.04787
  H        -1.91590         -2.10875         0.33647
  H        -1.51539         -1.03550        -1.11497
  H        -1.90406          2.11229         0.34595
  H        -1.53701          1.04844        -1.12118
14
 step=         317     theta[rad]=           3.3196
  C        -1.18526          1.51735        -0.16559
  C         0.06294          1.51089         0.26237
  C         1.17385          0.66171        -0.07516
  C         1.17234         -0.65921        -0.07813
  C         0.06187         -1.51524         0.26759
  C        -1.18426         -1.51370        -0.16838
  H         0.35065          2.11146         1.13632
  H         2.12247          1.17077        -0.22247
  H         2.12469         -1.16140        -0.22418
  H         0.33615         -2.12816         1.13323
  H        -2.02871         -2.04388         0.25187
  H        -1.40827         -0.81151        -0.96960
  H        -2.04068          2.04029         0.24228
  H        -1.38642          0.79844        -0.96334
14
 step=         318     theta[rad]=           3.3301
  C        -1.18551          1.48378        -0.18379
  C         0.05140          1.54004         0.31794
  C         1.19079          0.68068        -0.10504
  C         1.19226         -0.68311        -0.10215
  C         0.05244         -1.53579         0.31284
  C        -1.18649         -1.48734        -0.18106
  H         0.22159          2.33814         1.04544
  H         2.16508          1.15900        -0.17660
  H         2.16292         -1.16815        -0.17493
  H         0.23575         -2.32183         1.04844
  H        -1.91666         -2.10831         0.33590
  H        -1.51467         -1.03400        -1.11400
  H        -1.90498          2.11180         0.34526
  H        -1.53599          1.04676        -1.12012
14
 step=         319     theta[rad]=           3.3406
  C        -1.18527          1.51589        -0.16638
  C         0.06244          1.51216         0.26479
  C         1.17459          0.66253        -0.07646
  C         1.17321         -0.66025        -0.07917
  C         0.06146         -1.51613         0.26956
  C        -1.18436         -1.51255        -0.16893
  H         0.34503          2.12133         1.13236
  H         2.12433          1.17026        -0.22047
  H         2.12635         -1.16169        -0.22204
  H         0.33178         -2.13659         1.12954
  H        -2.02384         -2.04668         0.25553
  H        -1.41290         -0.82119        -0.97588
  H        -2.03477          2.04341         0.24676
  H        -1.39293          0.80924        -0.97016
14
 step=         320     theta[rad]=           3.3510
  C        -1.18549          1.48662        -0.18225
  C         0.05237          1.53758         0.31324
  C         1.18936          0.67908        -0.10252
  C         1.19058         -0.68109        -0.10012
  C         0.05324         -1.53406         0.30901
  C        -1.18630         -1.48957        -0.17999
  H         0.23249          2.31898         1.05312
  H         2.16148          1.15999        -0.18047
  H         2.15969         -1.16758        -0.17909
  H         0.24423         -2.30547         1.05561
  H        -1.92613         -2.10287         0.32880
  H        -1.50569         -1.01520        -1.10180
  H        -1.91644          2.10576         0.33656
  H        -1.52336          1.02578        -1.10688
14
 step=         321     theta[rad]=           3.3615
  C        -1.18530          1.51160        -0.16870
  C         0.06096          1.51588         0.27189
  C         1.17675          0.66496        -0.08028
  C         1.17575         -0.66330        -0.08224
  C         0.06026         -1.51876         0.27534
  C        -1.18464         -1.50919        -0.17055
  H         0.32855          2.15027         1.12076
  H         2.12977          1.16876        -0.21461
  H         2.13123         -1.16255        -0.21575
  H         0.31896         -2.16132         1.11872
  H        -2.00953         -2.05491         0.26626
  H        -1.42649         -0.84960        -0.99432
  H        -2.01745          2.05254         0.25991
  H        -1.41203          0.84095        -0.99018
14
 step=         322     theta[rad]=           3.3720
  C        -1.18544          1.49233        -0.17915
  C         0.05434          1.53261         0.30378
  C         1.18647          0.67585        -0.09743
  C         1.18719         -0.67702        -0.09603
  C         0.05484         -1.53056         0.30131
  C        -1.18592         -1.49406        -0.17783
  H         0.25447          2.28038         1.06860
  H         2.15422          1.16200        -0.18829
  H         2.15317         -1.16643        -0.18748
  H         0.26133         -2.27248         1.07005
  H        -1.94521         -2.09189         0.31449
  H        -1.48756         -0.97730        -1.07720
  H        -1.93955          2.09358         0.31902
  H        -1.49788          0.98349        -1.08017
14
 step=         323     theta[rad]=           3.3824
  C        -1.18535          1.50459        -0.17251
  C         0.05855          1.52197         0.28349
  C         1.18029          0.66892        -0.08652
  C         1.17991         -0.66830        -0.08726
  C         0.05829         -1.52305         0.28479
  C        -1.18511         -1.50368        -0.17320
  H         0.30159          2.19762         1.10178
  H         2.13867          1.16630        -0.20503
  H         2.13922         -1.16396        -0.20546
  H         0.29799         -2.20177         1.10101
  H        -1.98612         -2.06837         0.28381
  H        -1.44871         -0.89607        -1.02448
  H        -1.98910          2.06747         0.28142
  H        -1.44327          0.89282        -1.02293
14
 step=         324     theta[rad]=           3.3929
  C        -1.18538          1.50036        -0.17480
  C         0.05710          1.52564         0.29049
  C         1.18242          0.67131        -0.09028
  C         1.18242         -0.67131        -0.09028
  C         0.05710         -1.52564         0.29049
  C        -1.18539         -1.50036        -0.17480
  H         0.28535          2.22615         1.09034
  H         2.14403          1.16481        -0.19926
  H         2.14403         -1.16481        -0.19926
  H         0.28535         -2.22615         1.09033
  H        -1.97202         -2.07648         0.29439
  H        -1.46211         -0.92408        -1.04266
  H        -1.97202          2.07648         0.29438
  H        -1.46210          0.92408        -1.04267
14
 step=         325     theta[rad]=           3.4034
  C        -1.18542          1.49597        -0.17718
  C         0.05559          1.52946         0.29777
  C         1.18464          0.67379        -0.09420
  C         1.18503         -0.67444        -0.09343
  C         0.05586         -1.52833         0.29641
  C        -1.18568         -1.49691        -0.17646
  H         0.26844          2.25585         1.07843
  H         2.14961          1.16327        -0.19325
  H         2.14904         -1.16570        -0.19281
  H         0.27220         -2.25153         1.07922
  H        -1.95733         -2.08492         0.30540
  H        -1.47605         -0.95323        -1.06158
  H        -1.95424          2.08585         0.30787
  H        -1.48170          0.95662        -1.06321
14
 step=         326     theta[rad]=           3.4139
  C        -1.18532          1.50901        -0.17011
  C         0.06007          1.51813         0.27617
  C         1.17806          0.66642        -0.08258
  C         1.17729         -0.66515        -0.08409
  C         0.05953         -1.52034         0.27883
  C        -1.18481         -1.50716        -0.17153
  H         0.31860          2.16774         1.11376
  H         2.13305          1.16785        -0.21108
  H         2.13418         -1.16307        -0.21195
  H         0.31122         -2.17625         1.11218
  H        -2.00089         -2.05987         0.27274
  H        -1.43469         -0.86675        -1.00545
  H        -2.00699          2.05805         0.26785
  H        -1.42356          0.86009        -1.00226
14
 step=         327     theta[rad]=           3.4243
  C        -1.18548          1.48798        -0.18152
  C         0.05284          1.53640         0.31099
  C         1.18867          0.67831        -0.10131
  C         1.18977         -0.68013        -0.09915
  C         0.05362         -1.53322         0.30718
  C        -1.18621         -1.49064        -0.17948
  H         0.23772          2.30980         1.05680
  H         2.15975          1.16047        -0.18233
  H         2.15814         -1.16731        -0.18108
  H         0.24830         -2.29762         1.05904
  H        -1.93067         -2.10026         0.32540
  H        -1.50137         -1.00618        -1.09594
  H        -1.92194          2.10286         0.33238
  H        -1.51730          1.01572        -1.10052
14
 step=         328     theta[rad]=           3.4348
  C        -1.18527          1.51558        -0.16654
  C         0.06233          1.51242         0.26529
  C         1.17474          0.66270        -0.07673
  C         1.17339         -0.66047        -0.07939
  C         0.06138         -1.51632         0.26997
  C        -1.18438         -1.51232        -0.16904
  H         0.34387          2.12337         1.13154
  H         2.12471          1.17015        -0.22006
  H         2.12669         -1.16175        -0.22160
  H         0.33087         -2.13834         1.12878
  H        -2.02282         -2.04726         0.25629
  H        -1.41386         -0.82320        -0.97718
  H        -2.03355          2.04405         0.24769
  H        -1.39428          0.81149        -0.97157
14
 step=         329     theta[rad]=           3.4453
  C        -1.18551          1.48358        -0.18390
  C         0.05133          1.54022         0.31827
  C         1.19089          0.68079        -0.10522
  C         1.19238         -0.68326        -0.10229
  C         0.05238         -1.53592         0.31311
  C        -1.18650         -1.48718        -0.18114
  H         0.22082          2.33949         1.04490
  H         2.16533          1.15893        -0.17632
  H         2.16314         -1.16819        -0.17463
  H         0.23515         -2.32299         1.04794
  H        -1.91599         -2.10870         0.33640
  H        -1.51531         -1.03532        -1.11486
  H        -1.90417          2.11223         0.34587
  H        -1.53689          1.04824        -1.12106
14
 step=         330     theta[rad]=           3.4558
  C        -1.18526          1.51715        -0.16570
  C         0.06287          1.51107         0.26271
  C         1.17395          0.66182        -0.07534
  C         1.17246         -0.65936        -0.07827
  C         0.06182         -1.51536         0.26786
  C        -1.18427         -1.51354        -0.16845
  H         0.34987          2.11282         1.13578
  H         2.12273          1.17070        -0.22219
  H         2.12491         -1.16144        -0.22389
  H         0.33555         -2.12932         1.13272
  H        -2.02804         -2.04426         0.25238
  H        -1.40891         -0.81284        -0.97046
  H        -2.03987          2.04072         0.24289
  H        -1.38732          0.79992        -0.96427
14
 step=         331     theta[rad]=           3.4662
  C        -1.18550          1.48531        -0.18297
  C         0.05192          1.53872         0.31541
  C         1.19002          0.67982        -0.10369
  C         1.19136         -0.68203        -0.10106
  C         0.05287         -1.53486         0.31078
  C        -1.18639         -1.48854        -0.18049
  H         0.22745          2.32784         1.04957
  H         2.16314          1.15953        -0.17868
  H         2.16118         -1.16785        -0.17716
  H         0.24031         -2.31304         1.05230
  H        -1.92175         -2.10539         0.33208
  H        -1.50984         -1.02389        -1.10744
  H        -1.91114          2.10856         0.34058
  H        -1.52920          1.03549        -1.11300
14
 step=         332     theta[rad]=           3.4767
  C        -1.18530          1.51200        -0.16849
  C         0.06110          1.51554         0.27123
  C         1.17655          0.66473        -0.07992
  C         1.17552         -0.66302        -0.08196
  C         0.06037         -1.51852         0.27481
  C        -1.18462         -1.50950        -0.17040
  H         0.33007          2.14760         1.12183
  H         2.12927          1.16890        -0.21515
  H         2.13078         -1.16247        -0.21633
  H         0.32014         -2.15904         1.11971
  H        -2.01085         -2.05415         0.26527
  H        -1.42524         -0.84698        -0.99262
  H        -2.01904          2.05170         0.25870
  H        -1.41027          0.83803        -0.98833
14
 step=         333     theta[rad]=           3.4872
  C        -1.18543          1.49362        -0.17846
  C         0.05478          1.53150         0.30166
  C         1.18583          0.67512        -0.09629
  C         1.18643         -0.67611        -0.09511
  C         0.05520         -1.52977         0.29958
  C        -1.18584         -1.49506        -0.17735
  H         0.25940          2.27172         1.07206
  H         2.15260          1.16245        -0.19004
  H         2.15171         -1.16617        -0.18936
  H         0.26517         -2.26509         1.07329
  H        -1.94949         -2.08943         0.31128
  H        -1.48350         -0.96881        -1.07169
  H        -1.94473          2.09085         0.31509
  H        -1.49217          0.97401        -1.07419
14
 step=         334     theta[rad]=           3.4976
  C        -1.18538          1.50125        -0.17432
  C         0.05741          1.52487         0.28901
  C         1.18197          0.67080        -0.08949
  C         1.18189         -0.67067        -0.08965
  C         0.05735         -1.52510         0.28929
  C        -1.18533         -1.50106        -0.17446
  H         0.28877          2.22015         1.09274
  H         2.14290          1.16513        -0.20047
  H         2.14302         -1.16464        -0.20057
  H         0.28801         -2.22102         1.09258
  H        -1.97498         -2.07477         0.29216
  H        -1.45929         -0.91819        -1.03883
  H        -1.97561          2.07458         0.29165
  H        -1.45814          0.91750        -1.03851
14
 step=         335     theta[rad]=           3.5081
  C        -1.18535          1.50561        -0.17195
  C         0.05891          1.52108         0.28179
  C         1.17977          0.66834        -0.08561
  C         1.17930         -0.66757        -0.08652
  C         0.05858         -1.52242         0.28341
  C        -1.18504         -1.50449        -0.17281
  H         0.30554          2.19069         1.10455
  H         2.13737          1.16666        -0.20643
  H         2.13805         -1.16376        -0.20697
  H         0.30106         -2.19586         1.10360
  H        -1.98954         -2.06640         0.28124
  H        -1.44546         -0.88928        -1.02007
  H        -1.99325          2.06529         0.27827
  H        -1.43870          0.88524        -1.01814
14
 step=         336     theta[rad]=           3.5186
  C        -1.18547          1.48953        -0.18067
  C         0.05338          1.53505         0.30841
  C         1.18789          0.67743        -0.09992
  C         1.18885         -0.67902        -0.09803
  C         0.05405         -1.53227         0.30508
  C        -1.18611         -1.49186        -0.17889
  H         0.24370          2.29929         1.06101
  H         2.15778          1.16102        -0.18446
  H         2.15636         -1.16700        -0.18337
  H         0.25295         -2.28865         1.06297
  H        -1.93586         -2.09727         0.32150
  H        -1.49644         -0.99587        -1.08925
  H        -1.92823          2.09955         0.32761
  H        -1.51036          1.00421        -1.09326
14
 step=         337     theta[rad]=           3.5291
  C        -1.18527          1.51534        -0.16668
  C         0.06225          1.51264         0.26570
  C         1.17487          0.66284        -0.07695
  C         1.17353         -0.66064        -0.07956
  C         0.06131         -1.51647         0.27030
  C        -1.18439         -1.51212        -0.16914
  H         0.34292          2.12503         1.13088
  H         2.12502          1.17007        -0.21972
  H         2.12697         -1.16180        -0.22124
  H         0.33014         -2.13975         1.12816
  H        -2.02201         -2.04773         0.25690
  H        -1.41464         -0.82482        -0.97824
  H        -2.03256          2.04457         0.24844
  H        -1.39537          0.81330        -0.97272
14
 step=         338     theta[rad]=           3.5395
  C        -1.18551          1.48345        -0.18397
  C         0.05128          1.54033         0.31849
  C         1.19096          0.68087        -0.10534
  C         1.19246         -0.68335        -0.10239
  C         0.05234         -1.53600         0.31329
  C        -1.18651         -1.48708        -0.18119
  H         0.22031          2.34039         1.04453
  H         2.16550          1.15888        -0.17614
  H         2.16330         -1.16822        -0.17444
  H         0.23475         -2.32376         1.04760
  H        -1.91554         -2.10895         0.33674
  H        -1.51573         -1.03621        -1.11543
  H        -1.90363          2.11252         0.34628
  H        -1.53748          1.04923        -1.12168
14
 step=         339     theta[rad]=           3.5500
  C        -1.18527          1.51652        -0.16603
  C         0.06266          1.51161         0.26374
  C         1.17427          0.66217        -0.07589
  C         1.17283         -0.65980        -0.07872
  C         0.06164         -1.51574         0.26870
  C        -1.18431         -1.51306        -0.16869
  H         0.34748          2.11702         1.13409
  H         2.12352          1.17048        -0.22134
  H         2.12562         -1.16156        -0.22298
  H         0.33369         -2.13291         1.13115
  H        -2.02596         -2.04546         0.25394
  H        -1.41088         -0.81697        -0.97314
  H        -2.03735          2.04205         0.24480
  H        -1.39009          0.80453        -0.96718
14
 step=         340     theta[rad]=           3.5605
  C        -1.18548          1.48774        -0.18165
  C         0.05276          1.53661         0.31139
  C         1.18879          0.67844        -0.10152
  C         1.18991         -0.68030        -0.09932
  C         0.05355         -1.53337         0.30750
  C        -1.18623         -1.49045        -0.17957
  H         0.23680          2.31143         1.05615
  H         2.16006          1.16039        -0.18200
  H         2.15841         -1.16736        -0.18073
  H         0.24758         -2.29901         1.05844
  H        -1.92986         -2.10072         0.32600
  H        -1.50214         -1.00778        -1.09698
  H        -1.92097          2.10338         0.33312
  H        -1.51837          1.01750        -1.10165
14
 step=         341     theta[rad]=           3.5709
  C        -1.18534          1.50711        -0.17114
  C         0.05942          1.51978         0.27932
  C         1.17902          0.66749        -0.08427
  C         1.17841         -0.66650        -0.08545
  C         0.05900         -1.52151         0.28139
  C        -1.18494         -1.50566        -0.17225
  H         0.31129          2.18058         1.10861
  H         2.13546          1.16718        -0.20848
  H         2.13634         -1.16346        -0.20916
  H         0.30553         -2.18722         1.10738
  H        -1.99454         -2.06352         0.27750
  H        -1.44072         -0.87935        -1.01363
  H        -1.99930          2.06210         0.27368
  H        -1.43203          0.87416        -1.01114
14
 step=         342     theta[rad]=           3.5814
  C        -1.18538          1.50090        -0.17451
  C         0.05728          1.52518         0.28960
  C         1.18215          0.67101        -0.08981
  C         1.18210         -0.67093        -0.08990
  C         0.05725         -1.52531         0.28977
  C        -1.18535         -1.50078        -0.17459
  H         0.28740          2.22255         1.09178
  H         2.14335          1.16500        -0.19999
  H         2.14342         -1.16471        -0.20004
  H         0.28695         -2.22307         1.09168
  H        -1.97380         -2.07545         0.29305
  H        -1.46042         -0.92054        -1.04036
  H        -1.97417          2.07534         0.29274
  H        -1.45972          0.92013        -1.04017
14
 step=         343     theta[rad]=           3.5919
  C        -1.18544          1.49249        -0.17907
  C         0.05439          1.53248         0.30352
  C         1.18639          0.67576        -0.09729
  C         1.18709         -0.67691        -0.09592
  C         0.05489         -1.53046         0.30110
  C        -1.18591         -1.49418        -0.17777
  H         0.25508          2.27931         1.06902
  H         2.15402          1.16205        -0.18850
  H         2.15299         -1.16640        -0.18771
  H         0.26180         -2.27158         1.07045
  H        -1.94574         -2.09159         0.31410
  H        -1.48706         -0.97626        -1.07652
  H        -1.94019          2.09325         0.31853
  H        -1.49718          0.98232        -1.07944
14
 step=         344     theta[rad]=           3.6024
  C        -1.18528          1.51411        -0.16734
  C         0.06183          1.51370         0.26773
  C         1.17549          0.66354        -0.07804
  C         1.17426         -0.66152        -0.08044
  C         0.06096         -1.51722         0.27196
  C        -1.18447         -1.51116        -0.16960
  H         0.33820          2.13332         1.12756
  H         2.12658          1.16964        -0.21804
  H         2.12837         -1.16205        -0.21943
  H         0.32647         -2.14684         1.12506
  H        -2.01791         -2.05009         0.25998
  H        -1.41853         -0.83297        -0.98352
  H        -2.02759          2.04719         0.25221
  H        -1.40084          0.82238        -0.97845
14
 step=         345     theta[rad]=           3.6128
  C        -1.18551          1.48358        -0.18390
  C         0.05133          1.54022         0.31827
  C         1.19089          0.68079        -0.10522
  C         1.19238         -0.68326        -0.10229
  C         0.05238         -1.53592         0.31311
  C        -1.18650         -1.48718        -0.18114
  H         0.22082          2.33949         1.04490
  H         2.16533          1.15893        -0.17632
  H         2.16314         -1.16819        -0.17463
  H         0.23515         -2.32299         1.04794
  H        -1.91599         -2.10870         0.33640
  H        -1.51531         -1.03532        -1.11486
  H        -1.90417          2.11223         0.34587
  H        -1.53689          1.04824        -1.12106
14
 step=         346     theta[rad]=           3.6233
  C        -1.18527          1.51647        -0.16606
  C         0.06264          1.51166         0.26383
  C         1.17430          0.66220        -0.07594
  C         1.17286         -0.65984        -0.07876
  C         0.06163         -1.51578         0.26878
  C        -1.18432         -1.51301        -0.16871
  H         0.34727          2.11740         1.13394
  H         2.12359          1.17046        -0.22126
  H         2.12569         -1.16157        -0.22289
  H         0.33352         -2.13323         1.13101
  H        -2.02578         -2.04556         0.25408
  H        -1.41106         -0.81734        -0.97338
  H        -2.03713          2.04217         0.24497
  H        -1.39034          0.80494        -0.96744
14
 step=         347     theta[rad]=           3.6338
  C        -1.18547          1.48873        -0.18111
  C         0.05310          1.53574         0.30974
  C         1.18829          0.67788        -0.10064
  C         1.18932         -0.67959        -0.09861
  C         0.05383         -1.53276         0.30616
  C        -1.18616         -1.49123        -0.17919
  H         0.24062          2.30470         1.05884
  H         2.15879          1.16073        -0.18336
  H         2.15728         -1.16716        -0.18219
  H         0.25056         -2.29327         1.06095
  H        -1.93319         -2.09881         0.32351
  H        -1.49898         -1.00118        -1.09270
  H        -1.92499          2.10126         0.33007
  H        -1.51393          1.01014        -1.09700
14
 step=         348     theta[rad]=           3.6442
  C        -1.18535          1.50459        -0.17251
  C         0.05855          1.52197         0.28349
  C         1.18029          0.66892        -0.08652
  C         1.17991         -0.66830        -0.08726
  C         0.05829         -1.52305         0.28479
  C        -1.18511         -1.50368        -0.17320
  H         0.30159          2.19762         1.10178
  H         2.13867          1.16630        -0.20503
  H         2.13922         -1.16396        -0.20546
  H         0.29799         -2.20177         1.10101
  H        -1.98612         -2.06837         0.28381
  H        -1.44871         -0.89607        -1.02448
  H        -1.98910          2.06747         0.28142
  H        -1.44327          0.89282        -1.02293
14
 step=         349     theta[rad]=           3.6547
  C        -1.18535          1.50476        -0.17241
  C         0.05861          1.52182         0.28321
  C         1.18020          0.66882        -0.08637
  C         1.17981         -0.66817        -0.08713
  C         0.05834         -1.52295         0.28456
  C        -1.18510         -1.50382        -0.17313
  H         0.30226          2.19645         1.10224
  H         2.13845          1.16636        -0.20527
  H         2.13902         -1.16393        -0.20571
  H         0.29850         -2.20078         1.10144
  H        -1.98670         -2.06804         0.28338
  H        -1.44817         -0.89493        -1.02374
  H        -1.98980          2.06711         0.28089
  H        -1.44250          0.89155        -1.02212
14
 step=         350     theta[rad]=           3.6652
  C        -1.18547          1.48835        -0.18132
  C         0.05297          1.53608         0.31037
  C         1.18848          0.67810        -0.10098
  C         1.18955         -0.67986        -0.09888
  C         0.05372         -1.53300         0.30668
  C        -1.18619         -1.49093        -0.17934
  H         0.23915          2.30729         1.05780
  H         2.15928          1.16060        -0.18284
  H         2.15771         -1.16723        -0.18163
  H         0.24941         -2.29548         1.05998
  H        -1.93191         -2.09954         0.32447
  H        -1.50020         -1.00372        -1.09435
  H        -1.92344          2.10207         0.33124
  H        -1.51564          1.01297        -1.09879
14
 step=         351     theta[rad]=           3.6757
  C        -1.18526          1.51682        -0.16587
  C         0.06276          1.51135         0.26324
  C         1.17412          0.66200        -0.07563
  C         1.17265         -0.65959        -0.07850
  C         0.06173         -1.51556         0.26830
  C        -1.18429         -1.51329        -0.16858
  H         0.34863          2.11501         1.13490
  H         2.12314          1.17059        -0.22175
  H         2.12528         -1.16150        -0.22341
  H         0.33458         -2.13119         1.13190
  H        -2.02696         -2.04488         0.25319
  H        -1.40994         -0.81499        -0.97186
  H        -2.03856          2.04141         0.24389
  H        -1.38876          0.80233        -0.96579
14
 step=         352     theta[rad]=           3.6861
  C        -1.18551          1.48410        -0.18362
  C         0.05151          1.53977         0.31741
  C         1.19063          0.68050        -0.10476
  C         1.19207         -0.68289        -0.10192
  C         0.05253         -1.53560         0.31241
  C        -1.18647         -1.48759        -0.18094
  H         0.22280          2.33600         1.04629
  H         2.16468          1.15911        -0.17703
  H         2.16256         -1.16809        -0.17539
  H         0.23670         -2.32001         1.04924
  H        -1.91771         -2.10770         0.33511
  H        -1.51367         -1.03190        -1.11264
  H        -1.90625          2.11113         0.34429
  H        -1.53459          1.04442        -1.11865
14
 step=         353     theta[rad]=           3.6966
  C        -1.18530          1.51160        -0.16870
  C         0.06096          1.51588         0.27189
  C         1.17675          0.66496        -0.08028
  C         1.17575         -0.66330        -0.08224
  C         0.06026         -1.51876         0.27534
  C        -1.18464         -1.50919        -0.17055
  H         0.32855          2.15027         1.12076
  H         2.12977          1.16876        -0.21461
  H         2.13123         -1.16255        -0.21575
  H         0.31896         -2.16132         1.11872
  H        -2.00953         -2.05491         0.26626
  H        -1.42649         -0.84960        -0.99432
  H        -2.01745          2.05254         0.25991
  H        -1.41203          0.84095        -0.99018
14
 step=         354     theta[rad]=           3.7071
  C        -1.18540          1.49771        -0.17624
  C         0.05619          1.52795         0.29489
  C         1.18376          0.67281        -0.09265
  C         1.18400         -0.67320        -0.09218
  C         0.05635         -1.52727         0.29407
  C        -1.18556         -1.49828        -0.17580
  H         0.27513          2.24410         1.08314
  H         2.14740          1.16388        -0.19563
  H         2.14706         -1.16535        -0.19536
  H         0.27740         -2.24149         1.08362
  H        -1.96314         -2.08158         0.30104
  H        -1.47054         -0.94170        -1.05409
  H        -1.96127          2.08214         0.30254
  H        -1.47395          0.94375        -1.05508
14
 step=         355     theta[rad]=           3.7176
  C        -1.18544          1.49345        -0.17855
  C         0.05472          1.53164         0.30193
  C         1.18591          0.67521        -0.09643
  C         1.18652         -0.67623        -0.09523
  C         0.05516         -1.52987         0.29980
  C        -1.18585         -1.49494        -0.17741
  H         0.25877          2.27282         1.07162
  H         2.15280          1.16239        -0.18981
  H         2.15190         -1.16621        -0.18912
  H         0.26468         -2.26603         1.07287
  H        -1.94894         -2.08975         0.31169
  H        -1.48402         -0.96989        -1.07239
  H        -1.94408          2.09120         0.31559
  H        -1.49290          0.97521        -1.07495
14
 step=         356     theta[rad]=           3.7280
  C        -1.18528          1.51471        -0.16702
  C         0.06203          1.51318         0.26674
  C         1.17518          0.66320        -0.07751
  C         1.17390         -0.66109        -0.08001
  C         0.06113         -1.51686         0.27115
  C        -1.18443         -1.51163        -0.16937
  H         0.34051          2.12927         1.12918
  H         2.12582          1.16985        -0.21886
  H         2.12769         -1.16193        -0.22031
  H         0.32826         -2.14337         1.12657
  H        -2.01991         -2.04894         0.25848
  H        -1.41663         -0.82899        -0.98094
  H        -2.03002          2.04591         0.25037
  H        -1.39817          0.81794        -0.97565
14
 step=         357     theta[rad]=           3.7385
  C        -1.18551          1.48338        -0.18401
  C         0.05126          1.54039         0.31860
  C         1.19099          0.68091        -0.10540
  C         1.19250         -0.68340        -0.10244
  C         0.05233         -1.53604         0.31338
  C        -1.18652         -1.48703        -0.18122
  H         0.22005          2.34084         1.04435
  H         2.16559          1.15886        -0.17605
  H         2.16337         -1.16823        -0.17434
  H         0.23455         -2.32415         1.04743
  H        -1.91532         -2.10908         0.33690
  H        -1.51595         -1.03665        -1.11572
  H        -1.90335          2.11266         0.34649
  H        -1.53778          1.04973        -1.12199
14
 step=         358     theta[rad]=           3.7490
  C        -1.18528          1.51401        -0.16740
  C         0.06179          1.51379         0.26791
  C         1.17554          0.66360        -0.07814
  C         1.17432         -0.66159        -0.08052
  C         0.06094         -1.51729         0.27210
  C        -1.18448         -1.51108        -0.16964
  H         0.33780          2.13403         1.12727
  H         2.12672          1.16960        -0.21790
  H         2.12849         -1.16207        -0.21928
  H         0.32615         -2.14744         1.12479
  H        -2.01755         -2.05029         0.26024
  H        -1.41887         -0.83366        -0.98397
  H        -2.02717          2.04741         0.25253
  H        -1.40131          0.82316        -0.97895
14
 step=         359     theta[rad]=           3.7594
  C        -1.18542          1.49511        -0.17765
  C         0.05529          1.53020         0.29918
  C         1.18507          0.67428        -0.09496
  C         1.18554         -0.67504        -0.09404
  C         0.05562         -1.52886         0.29756
  C        -1.18574         -1.49624        -0.17678
  H         0.26516          2.26161         1.07612
  H         2.15069          1.16297        -0.19208
  H         2.15001         -1.16587        -0.19156
  H         0.26964         -2.25645         1.07707
  H        -1.95449         -2.08656         0.30753
  H        -1.47875         -0.95889        -1.06525
  H        -1.95079          2.08766         0.31049
  H        -1.48550          0.96293        -1.06719
14
 step=         360     theta[rad]=           3.7699
  C        -1.18542          1.49511        -0.17765
  C         0.05529          1.53020         0.29918
  C         1.18507          0.67428        -0.09496
  C         1.18554         -0.67504        -0.09404
  C         0.05562         -1.52886         0.29756
  C        -1.18574         -1.49624        -0.17678
  H         0.26516          2.26161         1.07612
  H         2.15069          1.16297        -0.19208
  H         2.15001         -1.16587        -0.19156
  H         0.26964         -2.25645         1.07707
  H        -1.95449         -2.08656         0.30753
  H        -1.47875         -0.95889        -1.06525
  H        -1.95079          2.08766         0.31049
  H        -1.48550          0.96293        -1.06719
14
 step=         361     theta[rad]=           3.7804
  C        -1.18528          1.51421        -0.16729
  C         0.06186          1.51361         0.26756
  C         1.17543          0.66348        -0.07795
  C         1.17420         -0.66144        -0.08037
  C         0.06099         -1.51716         0.27182
  C        -1.18447         -1.51124        -0.16956
  H         0.33860          2.13262         1.12784
  H         2.12645          1.16967        -0.21818
  H         2.12825         -1.16203        -0.21959
  H         0.32678         -2.14624         1.12532
  H        -2.01825         -2.04989         0.25972
  H        -1.41820         -0.83228        -0.98307
  H        -2.02801          2.04697         0.25189
  H        -1.40038          0.82162        -0.97797
14
 step=         362     theta[rad]=           3.7909
  C        -1.18551          1.48338        -0.18401
  C         0.05126          1.54039         0.31860
  C         1.19099          0.68091        -0.10540
  C         1.19250         -0.68340        -0.10244
  C         0.05233         -1.53604         0.31338
  C        -1.18652         -1.48703        -0.18122
  H         0.22005          2.34084         1.04435
  H         2.16559          1.15886        -0.17605
  H         2.16337         -1.16823        -0.17434
  H         0.23455         -2.32415         1.04743
  H        -1.91532         -2.10908         0.33690
  H        -1.51595         -1.03665        -1.11572
  H        -1.90335          2.11266         0.34649
  H        -1.53778          1.04973        -1.12199
14
 step=         363     theta[rad]=           3.8013
  C        -1.18529          1.51346        -0.16770
  C         0.06160          1.51427         0.26881
  C         1.17582          0.66391        -0.07862
  C         1.17465         -0.66198        -0.08091
  C         0.06078         -1.51762         0.27284
  C        -1.18452         -1.51065        -0.16985
  H         0.33569          2.13774         1.12578
  H         2.12741          1.16941        -0.21715
  H         2.12912         -1.16218        -0.21847
  H         0.32451         -2.15061         1.12340
  H        -2.01572         -2.05134         0.26161
  H        -1.42061         -0.83730        -0.98633
  H        -2.02495          2.04858         0.25421
  H        -1.40376          0.82722        -0.98151
14
 step=         364     theta[rad]=           3.8118
  C        -1.18541          1.49683        -0.17672
  C         0.05589          1.52871         0.29633
  C         1.18420          0.67330        -0.09343
  C         1.18452         -0.67382        -0.09281
  C         0.05611         -1.52780         0.29525
  C        -1.18562         -1.49759        -0.17613
  H         0.27176          2.25001         1.08077
  H         2.14851          1.16358        -0.19443
  H         2.14805         -1.16553        -0.19408
  H         0.27478         -2.24654         1.08141
  H        -1.96022         -2.08326         0.30323
  H        -1.47331         -0.94750        -1.05786
  H        -1.95773          2.08400         0.30522
  H        -1.47784          0.95022        -1.05917
14
 step=         365     theta[rad]=           3.8223
  C        -1.18544          1.49265        -0.17898
  C         0.05445          1.53234         0.30326
  C         1.18631          0.67567        -0.09715
  C         1.18700         -0.67680        -0.09580
  C         0.05493         -1.53036         0.30088
  C        -1.18590         -1.49431        -0.17771
  H         0.25569          2.27825         1.06945
  H         2.15382          1.16211        -0.18872
  H         2.15281         -1.16637        -0.18794
  H         0.26228         -2.27066         1.07085
  H        -1.94626         -2.09129         0.31370
  H        -1.48656         -0.97521        -1.07584
  H        -1.94083          2.09291         0.31805
  H        -1.49648          0.98115        -1.07870
14
 step=         366     theta[rad]=           3.8327
  C        -1.18527          1.51596        -0.16634
  C         0.06246          1.51210         0.26467
  C         1.17455          0.66249        -0.07640
  C         1.17316         -0.66020        -0.07912
  C         0.06148         -1.51609         0.26947
  C        -1.18435         -1.51261        -0.16890
  H         0.34531          2.12084         1.13256
  H         2.12424          1.17029        -0.22057
  H         2.12627         -1.16168        -0.22214
  H         0.33199         -2.13618         1.12972
  H        -2.02407         -2.04654         0.25535
  H        -1.41268         -0.82072        -0.97557
  H        -2.03506          2.04325         0.24654
  H        -1.39261          0.80871        -0.96982
14
 step=         367     theta[rad]=           3.8432
  C        -1.18551          1.48410        -0.18362
  C         0.05151          1.53977         0.31741
  C         1.19063          0.68050        -0.10476
  C         1.19207         -0.68289        -0.10192
  C         0.05253         -1.53560         0.31241
  C        -1.18647         -1.48759        -0.18094
  H         0.22280          2.33600         1.04629
  H         2.16468          1.15911        -0.17703
  H         2.16256         -1.16809        -0.17539
  H         0.23670         -2.32001         1.04924
  H        -1.91771         -2.10770         0.33511
  H        -1.51367         -1.03190        -1.11264
  H        -1.90625          2.11113         0.34429
  H        -1.53459          1.04442        -1.11865
14
 step=         368     theta[rad]=           3.8537
  C        -1.18532          1.50947        -0.16986
  C         0.06023          1.51773         0.27541
  C         1.17783          0.66616        -0.08217
  C         1.17702         -0.66482        -0.08377
  C         0.05966         -1.52006         0.27821
  C        -1.18478         -1.50751        -0.17135
  H         0.32035          2.16467         1.11499
  H         2.13247          1.16801        -0.21170
  H         2.13366         -1.16298        -0.21262
  H         0.31258         -2.17362         1.11333
  H        -2.00241         -2.05900         0.27160
  H        -1.43325         -0.86373        -1.00349
  H        -2.00883          2.05708         0.26645
  H        -1.42153          0.85673        -1.00014
14
 step=         369     theta[rad]=           3.8642
  C        -1.18537          1.50302        -0.17336
  C         0.05801          1.52333         0.28609
  C         1.18108          0.66980        -0.08791
  C         1.18084         -0.66941        -0.08838
  C         0.05785         -1.52401         0.28690
  C        -1.18521         -1.50245        -0.17379
  H         0.29557          2.20820         1.09753
  H         2.14066          1.16575        -0.20289
  H         2.14100         -1.16428        -0.20316
  H         0.29330         -2.21082         1.09705
  H        -1.98089         -2.07138         0.28773
  H        -1.45368         -0.90646        -1.03122
  H        -1.98276          2.07081         0.28623
  H        -1.45026          0.90442        -1.03025
14
 step=         370     theta[rad]=           3.8746
  C        -1.18548          1.48716        -0.18196
  C         0.05256          1.53711         0.31234
  C         1.18908          0.67877        -0.10204
  C         1.19026         -0.68071        -0.09973
  C         0.05339         -1.53373         0.30828
  C        -1.18627         -1.48999        -0.17979
  H         0.23457          2.31533         1.05458
  H         2.16079          1.16018        -0.18121
  H         2.15907         -1.16747        -0.17988
  H         0.24585         -2.30235         1.05698
  H        -1.92793         -2.10183         0.32745
  H        -1.50397         -1.01161        -1.09947
  H        -1.91863          2.10461         0.33490
  H        -1.52094          1.02178        -1.10435
14
 step=         371     theta[rad]=           3.8851
  C        -1.18526          1.51732        -0.16560
  C         0.06293          1.51091         0.26241
  C         1.17387          0.66172        -0.07518
  C         1.17235         -0.65923        -0.07815
  C         0.06187         -1.51526         0.26763
  C        -1.18426         -1.51368        -0.16839
  H         0.35055          2.11163         1.13625
  H         2.12251          1.17076        -0.22243
  H         2.12471         -1.16140        -0.22415
  H         0.33607         -2.12831         1.13317
  H        -2.02863         -2.04392         0.25194
  H        -1.40835         -0.81168        -0.96970
  H        -2.04058          2.04035         0.24235
  H        -1.38653          0.79862        -0.96345
14
 step=         372     theta[rad]=           3.8956
  C        -1.18547          1.48873        -0.18111
  C         0.05310          1.53574         0.30974
  C         1.18829          0.67788        -0.10064
  C         1.18932         -0.67959        -0.09861
  C         0.05383         -1.53276         0.30616
  C        -1.18616         -1.49123        -0.17919
  H         0.24062          2.30470         1.05884
  H         2.15879          1.16073        -0.18336
  H         2.15728         -1.16716        -0.18219
  H         0.25056         -2.29327         1.06095
  H        -1.93319         -2.09881         0.32351
  H        -1.49898         -1.00118        -1.09270
  H        -1.92499          2.10126         0.33007
  H        -1.51393          1.01014        -1.09700
14
 step=         373     theta[rad]=           3.9060
  C        -1.18539          1.50019        -0.17490
  C         0.05704          1.52580         0.29078
  C         1.18251          0.67141        -0.09044
  C         1.18253         -0.67143        -0.09041
  C         0.05705         -1.52575         0.29072
  C        -1.18540         -1.50022        -0.17486
  H         0.28466          2.22735         1.08985
  H         2.14426          1.16475        -0.19901
  H         2.14423         -1.16485        -0.19900
  H         0.28482         -2.22718         1.08988
  H        -1.97142         -2.07682         0.29483
  H        -1.46267         -0.92526        -1.04342
  H        -1.97130          2.07686         0.29493
  H        -1.46289          0.92540        -1.04350
14
 step=         374     theta[rad]=           3.9165
  C        -1.18530          1.51238        -0.16828
  C         0.06123          1.51521         0.27060
  C         1.17636          0.66452        -0.07958
  C         1.17529         -0.66275        -0.08168
  C         0.06048         -1.51828         0.27429
  C        -1.18459         -1.50980        -0.17025
  H         0.33154          2.14502         1.12287
  H         2.12878          1.16903        -0.21568
  H         2.13034         -1.16240        -0.21689
  H         0.32129         -2.15683         1.12068
  H        -2.01213         -2.05341         0.26431
  H        -1.42402         -0.84444        -0.99097
  H        -2.02059          2.05088         0.25752
  H        -1.40856          0.83519        -0.98654
14
 step=         375     theta[rad]=           3.9270
  C        -1.18551          1.48337        -0.18401
  C         0.05126          1.54040         0.31861
  C         1.19099          0.68091        -0.10541
  C         1.19251         -0.68341        -0.10244
  C         0.05232         -1.53604         0.31339
  C        -1.18652         -1.48702        -0.18122
  H         0.22002          2.34090         1.04433
  H         2.16560          1.15885        -0.17604
  H         2.16338         -1.16824        -0.17433
  H         0.23453         -2.32420         1.04741
  H        -1.91529         -2.10910         0.33692
  H        -1.51597         -1.03671        -1.11576
  H        -1.90332          2.11268         0.34651
  H        -1.53782          1.04979        -1.12203
14
 step=         376     theta[rad]=           3.9375
  C        -1.18530          1.51225        -0.16835
  C         0.06119          1.51532         0.27081
  C         1.17642          0.66459        -0.07970
  C         1.17536         -0.66284        -0.08177
  C         0.06044         -1.51836         0.27446
  C        -1.18460         -1.50970        -0.17030
  H         0.33106          2.14587         1.12252
  H         2.12894          1.16899        -0.21550
  H         2.13049         -1.16242        -0.21671
  H         0.32091         -2.15756         1.12036
  H        -2.01170         -2.05366         0.26463
  H        -1.42442         -0.84528        -0.99151
  H        -2.02008          2.05115         0.25791
  H        -1.40912          0.83613        -0.98713
14
 step=         377     theta[rad]=           3.9479
  C        -1.18538          1.50090        -0.17451
  C         0.05728          1.52518         0.28960
  C         1.18215          0.67101        -0.08981
  C         1.18210         -0.67093        -0.08990
  C         0.05725         -1.52531         0.28977
  C        -1.18535         -1.50078        -0.17459
  H         0.28740          2.22255         1.09178
  H         2.14335          1.16500        -0.19999
  H         2.14342         -1.16471        -0.20004
  H         0.28695         -2.22307         1.09168
  H        -1.97380         -2.07545         0.29305
  H        -1.46042         -0.92054        -1.04036
  H        -1.97417          2.07534         0.29274
  H        -1.45972          0.92013        -1.04017
14
 step=         378     theta[rad]=           3.9584
  C        -1.18548          1.48762        -0.18171
  C         0.05272          1.53671         0.31158
  C         1.18885          0.67851        -0.10163
  C         1.18999         -0.68038        -0.09940
  C         0.05352         -1.53344         0.30766
  C        -1.18623         -1.49035        -0.17961
  H         0.23634          2.31223         1.05583
  H         2.16021          1.16034        -0.18184
  H         2.15855         -1.16738        -0.18056
  H         0.24723         -2.29970         1.05814
  H        -1.92947         -2.10095         0.32630
  H        -1.50251         -1.00856        -1.09749
  H        -1.92049          2.10363         0.33349
  H        -1.51890          1.01838        -1.10220
14
 step=         379     theta[rad]=           3.9689
  C        -1.18526          1.51726        -0.16563
  C         0.06291          1.51097         0.26251
  C         1.17390          0.66175        -0.07524
  C         1.17239         -0.65927        -0.07819
  C         0.06185         -1.51529         0.26771
  C        -1.18427         -1.51364        -0.16841
  H         0.35032          2.11204         1.13609
  H         2.12258          1.17074        -0.22235
  H         2.12478         -1.16141        -0.22406
  H         0.33589         -2.12865         1.13302
  H        -2.02843         -2.04404         0.25209
  H        -1.40854         -0.81207        -0.96996
  H        -2.04034          2.04047         0.24254
  H        -1.38680          0.79906        -0.96373
14
 step=         380     theta[rad]=           3.9794
  C        -1.18546          1.49038        -0.18022
  C         0.05367          1.53431         0.30702
  C         1.18746          0.67695        -0.09917
  C         1.18835         -0.67842        -0.09743
  C         0.05429         -1.53176         0.30395
  C        -1.18605         -1.49252        -0.17857
  H         0.24695          2.29360         1.06329
  H         2.15671          1.16131        -0.18561
  H         2.15540         -1.16683        -0.18460
  H         0.25548         -2.28378         1.06510
  H        -1.93867         -2.09565         0.31939
  H        -1.49377         -0.99028        -1.08562
  H        -1.93164          2.09775         0.32502
  H        -1.50661          0.99797        -1.08932
14
 step=         381     theta[rad]=           3.9898
  C        -1.18541          1.49666        -0.17681
  C         0.05583          1.52886         0.29662
  C         1.18429          0.67340        -0.09358
  C         1.18462         -0.67395        -0.09293
  C         0.05606         -1.52791         0.29548
  C        -1.18563         -1.49745        -0.17620
  H         0.27110          2.25118         1.08030
  H         2.14873          1.16351        -0.19419
  H         2.14825         -1.16556        -0.19382
  H         0.27426         -2.24754         1.08097
  H        -1.95964         -2.08359         0.30367
  H        -1.47386         -0.94865        -1.05860
  H        -1.95703          2.08437         0.30575
  H        -1.47862          0.95151        -1.05998
14
 step=         382     theta[rad]=           4.0003
  C        -1.18527          1.51534        -0.16668
  C         0.06225          1.51264         0.26570
  C         1.17487          0.66284        -0.07695
  C         1.17353         -0.66064        -0.07956
  C         0.06131         -1.51647         0.27030
  C        -1.18439         -1.51212        -0.16914
  H         0.34292          2.12503         1.13088
  H         2.12502          1.17007        -0.21972
  H         2.12697         -1.16180        -0.22124
  H         0.33014         -2.13975         1.12816
  H        -2.02201         -2.04773         0.25690
  H        -1.41464         -0.82482        -0.97824
  H        -2.03256          2.04457         0.24844
  H        -1.39537          0.81330        -0.97272
14
 step=         383     theta[rad]=           4.0108
  C        -1.18550          1.48456        -0.18337
  C         0.05167          1.53936         0.31664
  C         1.19039          0.68024        -0.10435
  C         1.19180         -0.68256        -0.10159
  C         0.05266         -1.53531         0.31178
  C        -1.18644         -1.48796        -0.18077
  H         0.22460          2.33284         1.04756
  H         2.16408          1.15927        -0.17767
  H         2.16202         -1.16800        -0.17608
  H         0.23810         -2.31731         1.05043
  H        -1.91928         -2.10681         0.33394
  H        -1.51219         -1.02880        -1.11062
  H        -1.90814          2.11013         0.34285
  H        -1.53250          1.04096        -1.11646
14
 step=         384     theta[rad]=           4.0212
  C        -1.18535          1.50561        -0.17195
  C         0.05891          1.52108         0.28179
  C         1.17977          0.66834        -0.08561
  C         1.17930         -0.66757        -0.08652
  C         0.05858         -1.52242         0.28341
  C        -1.18504         -1.50449        -0.17281
  H         0.30554          2.19069         1.10455
  H         2.13737          1.16666        -0.20643
  H         2.13805         -1.16376        -0.20697
  H         0.30106         -2.19586         1.10360
  H        -1.98954         -2.06640         0.28124
  H        -1.44546         -0.88928        -1.02007
  H        -1.99325          2.06529         0.27827
  H        -1.43870          0.88524        -1.01814
14
 step=         385     theta[rad]=           4.0317
  C        -1.18532          1.50962        -0.16978
  C         0.06028          1.51760         0.27517
  C         1.17775          0.66608        -0.08204
  C         1.17693         -0.66472        -0.08366
  C         0.05970         -1.51997         0.27801
  C        -1.18477         -1.50763        -0.17130
  H         0.32093          2.16366         1.11539
  H         2.13228          1.16806        -0.21190
  H         2.13349         -1.16295        -0.21284
  H         0.31303         -2.17276         1.11371
  H        -2.00291         -2.05871         0.27122
  H        -1.43277         -0.86274        -1.00285
  H        -2.00943          2.05676         0.26599
  H        -1.42086          0.85562        -0.99944
14
 step=         386     theta[rad]=           4.0422
  C        -1.18551          1.48345        -0.18397
  C         0.05128          1.54033         0.31849
  C         1.19096          0.68087        -0.10534
  C         1.19246         -0.68335        -0.10239
  C         0.05234         -1.53600         0.31329
  C        -1.18651         -1.48708        -0.18119
  H         0.22031          2.34039         1.04453
  H         2.16550          1.15888        -0.17614
  H         2.16330         -1.16822        -0.17444
  H         0.23475         -2.32376         1.04760
  H        -1.91554         -2.10895         0.33674
  H        -1.51573         -1.03621        -1.11543
  H        -1.90363          2.11252         0.34628
  H        -1.53748          1.04923        -1.12168
14
 step=         387     theta[rad]=           4.0527
  C        -1.18530          1.51200        -0.16849
  C         0.06110          1.51554         0.27123
  C         1.17655          0.66473        -0.07992
  C         1.17552         -0.66302        -0.08196
  C         0.06037         -1.51852         0.27481
  C        -1.18462         -1.50950        -0.17040
  H         0.33007          2.14760         1.12183
  H         2.12927          1.16890        -0.21515
  H         2.13078         -1.16247        -0.21633
  H         0.32014         -2.15904         1.11971
  H        -2.01085         -2.05415         0.26527
  H        -1.42524         -0.84698        -0.99262
  H        -2.01904          2.05170         0.25870
  H        -1.41027          0.83803        -0.98833
14
 step=         388     theta[rad]=           4.0631
  C        -1.18536          1.50320        -0.17326
  C         0.05807          1.52318         0.28580
  C         1.18099          0.66971        -0.08776
  C         1.18074         -0.66929        -0.08825
  C         0.05790         -1.52390         0.28667
  C        -1.18520         -1.50259        -0.17372
  H         0.29624          2.20702         1.09801
  H         2.14043          1.16581        -0.20313
  H         2.14080         -1.16424        -0.20342
  H         0.29383         -2.20980         1.09749
  H        -1.98148         -2.07104         0.28730
  H        -1.45313         -0.90530        -1.03047
  H        -1.98347          2.07044         0.28569
  H        -1.44947          0.90312        -1.02943
14
 step=         389     theta[rad]=           4.0736
  C        -1.18550          1.48522        -0.18301
  C         0.05189          1.53879         0.31555
  C         1.19006          0.67987        -0.10376
  C         1.19141         -0.68209        -0.10112
  C         0.05284         -1.53491         0.31089
  C        -1.18639         -1.48847        -0.18052
  H         0.22714          2.32839         1.04934
  H         2.16325          1.15950        -0.17857
  H         2.16127         -1.16786        -0.17704
  H         0.24007         -2.31351         1.05209
  H        -1.92147         -2.10554         0.33229
  H        -1.51010         -1.02443        -1.10779
  H        -1.91081          2.10873         0.34083
  H        -1.52957          1.03609        -1.11338
14
 step=         390     theta[rad]=           4.0841
  C        -1.18527          1.51550        -0.16659
  C         0.06231          1.51249         0.26542
  C         1.17478          0.66275        -0.07680
  C         1.17343         -0.66053        -0.07945
  C         0.06136         -1.51637         0.27008
  C        -1.18438         -1.51225        -0.16907
  H         0.34356          2.12391         1.13133
  H         2.12481          1.17013        -0.21995
  H         2.12679         -1.16177        -0.22148
  H         0.33063         -2.13880         1.12857
  H        -2.02256         -2.04741         0.25649
  H        -1.41412         -0.82373        -0.97753
  H        -2.03323          2.04422         0.24793
  H        -1.39464          0.81208        -0.97195
14
 step=         391     theta[rad]=           4.0945
  C        -1.18540          1.49788        -0.17615
  C         0.05625          1.52780         0.29459
  C         1.18367          0.67271        -0.09249
  C         1.18389         -0.67307        -0.09206
  C         0.05640         -1.52716         0.29383
  C        -1.18555         -1.49841        -0.17573
  H         0.27580          2.24292         1.08362
  H         2.14718          1.16394        -0.19587
  H         2.14686         -1.16531        -0.19562
  H         0.27793         -2.24048         1.08406
  H        -1.96373         -2.08124         0.30060
  H        -1.46998         -0.94053        -1.05334
  H        -1.96198          2.08176         0.30200
  H        -1.47316          0.94245        -1.05426
14
 step=         392     theta[rad]=           4.1050
  C        -1.18548          1.48798        -0.18152
  C         0.05284          1.53640         0.31099
  C         1.18867          0.67831        -0.10131
  C         1.18977         -0.68013        -0.09915
  C         0.05362         -1.53322         0.30718
  C        -1.18621         -1.49064        -0.17948
  H         0.23772          2.30980         1.05680
  H         2.15975          1.16047        -0.18233
  H         2.15814         -1.16731        -0.18108
  H         0.24830         -2.29762         1.05904
  H        -1.93067         -2.10026         0.32540
  H        -1.50137         -1.00618        -1.09594
  H        -1.92194          2.10286         0.33238
  H        -1.51730          1.01572        -1.10052
14
 step=         393     theta[rad]=           4.1155
  C        -1.18526          1.51695        -0.16581
  C         0.06280          1.51124         0.26304
  C         1.17405          0.66193        -0.07552
  C         1.17258         -0.65950        -0.07841
  C         0.06176         -1.51549         0.26813
  C        -1.18429         -1.51339        -0.16853
  H         0.34911          2.11417         1.13523
  H         2.12298          1.17063        -0.22192
  H         2.12514         -1.16148        -0.22360
  H         0.33495         -2.13047         1.13222
  H        -2.02737         -2.04464         0.25288
  H        -1.40954         -0.81417        -0.97132
  H        -2.03906          2.04115         0.24351
  H        -1.38821          0.80140        -0.96521
14
 step=         394     theta[rad]=           4.1260
  C        -1.18543          1.49427        -0.17810
  C         0.05501          1.53093         0.30057
  C         1.18549          0.67475        -0.09570
  C         1.18603         -0.67564        -0.09464
  C         0.05539         -1.52937         0.29869
  C        -1.18579         -1.49558        -0.17710
  H         0.26193          2.26727         1.07385
  H         2.15176          1.16268        -0.19094
  H         2.15096         -1.16604        -0.19033
  H         0.26714         -2.26129         1.07495
  H        -1.95169         -2.08817         0.30963
  H        -1.48141         -0.96444        -1.06885
  H        -1.94740          2.08945         0.31306
  H        -1.48924          0.96913        -1.07111
14
 step=         395     theta[rad]=           4.1364
  C        -1.18546          1.49038        -0.18022
  C         0.05367          1.53431         0.30702
  C         1.18746          0.67695        -0.09917
  C         1.18835         -0.67842        -0.09743
  C         0.05429         -1.53176         0.30395
  C        -1.18605         -1.49252        -0.17857
  H         0.24695          2.29360         1.06329
  H         2.15671          1.16131        -0.18561
  H         2.15540         -1.16683        -0.18460
  H         0.25548         -2.28378         1.06510
  H        -1.93867         -2.09565         0.31939
  H        -1.49377         -0.99028        -1.08562
  H        -1.93164          2.09775         0.32502
  H        -1.50661          0.99797        -1.08932
14
 step=         396     theta[rad]=           4.1469
  C        -1.18526          1.51732        -0.16560
  C         0.06293          1.51091         0.26241
  C         1.17387          0.66172        -0.07518
  C         1.17235         -0.65923        -0.07815
  C         0.06187         -1.51526         0.26763
  C        -1.18426         -1.51368        -0.16839
  H         0.35055          2.11163         1.13625
  H         2.12251          1.17076        -0.22243
  H         2.12471         -1.16140        -0.22415
  H         0.33607         -2.12831         1.13317
  H        -2.02863         -2.04392         0.25194
  H        -1.40835         -0.81168        -0.96970
  H        -2.04058          2.04035         0.24235
  H        -1.38653          0.79862        -0.96345
14
 step=         397     theta[rad]=           4.1574
  C        -1.18544          1.49233        -0.17915
  C         0.05434          1.53261         0.30378
  C         1.18647          0.67585        -0.09743
  C         1.18719         -0.67702        -0.09603
  C         0.05484         -1.53056         0.30131
  C        -1.18592         -1.49406        -0.17783
  H         0.25447          2.28038         1.06860
  H         2.15422          1.16200        -0.18829
  H         2.15317         -1.16643        -0.18748
  H         0.26133         -2.27248         1.07005
  H        -1.94521         -2.09189         0.31449
  H        -1.48756         -0.97730        -1.07720
  H        -1.93955          2.09358         0.31902
  H        -1.49788          0.98349        -1.08017
14
 step=         398     theta[rad]=           4.1678
  C        -1.18545          1.49171        -0.17949
  C         0.05413          1.53315         0.30480
  C         1.18678          0.67620        -0.09798
  C         1.18755         -0.67747        -0.09647
  C         0.05467         -1.53094         0.30214
  C        -1.18596         -1.49357        -0.17807
  H         0.25209          2.28456         1.06692
  H         2.15501          1.16178        -0.18744
  H         2.15388         -1.16656        -0.18657
  H         0.25948         -2.27606         1.06848
  H        -1.94314         -2.09308         0.31604
  H        -1.48953         -0.98141        -1.07987
  H        -1.93705          2.09490         0.32092
  H        -1.50064          0.98807        -1.08307
14
 step=         399     theta[rad]=           4.1783
  C        -1.18526          1.51736        -0.16558
  C         0.06294          1.51088         0.26236
  C         1.17385          0.66170        -0.07515
  C         1.17233         -0.65921        -0.07812
  C         0.06188         -1.51524         0.26758
  C        -1.18426         -1.51371        -0.16837
  H         0.35068          2.11141         1.13634
  H         2.12246          1.17078        -0.22248
  H         2.12468         -1.16139        -0.22420
  H         0.33617         -2.12811         1.13325
  H        -2.02874         -2.04386         0.25185
  H        -1.40825         -0.81146        -0.96956
  H        -2.04071          2.04028         0.24225
  H        -1.38638          0.79838        -0.96330
14
 step=         400     theta[rad]=           4.1888
  C        -1.18545          1.49187        -0.17941
  C         0.05418          1.53302         0.30455
  C         1.18671          0.67611        -0.09785
  C         1.18746         -0.67736        -0.09636
  C         0.05471         -1.53084         0.30194
  C        -1.18595         -1.49369        -0.17801
  H         0.25268          2.28353         1.06733
  H         2.15481          1.16183        -0.18765
  H         2.15371         -1.16653        -0.18679
  H         0.25994         -2.27517         1.06887
  H        -1.94365         -2.09279         0.31566
  H        -1.48904         -0.98040        -1.07921
  H        -1.93767          2.09458         0.32045
  H        -1.49996          0.98694        -1.08235
14
 step=         401     theta[rad]=           4.1993
  C        -1.18545          1.49171        -0.17949
  C         0.05413          1.53315         0.30480
  C         1.18678          0.67620        -0.09798
  C         1.18755         -0.67747        -0.09647
  C         0.05467         -1.53094         0.30214
  C        -1.18596         -1.49357        -0.17807
  H         0.25209          2.28456         1.06692
  H         2.15501          1.16178        -0.18744
  H         2.15388         -1.16656        -0.18657
  H         0.25948         -2.27606         1.06848
  H        -1.94314         -2.09308         0.31604
  H        -1.48953         -0.98141        -1.07987
  H        -1.93705          2.09490         0.32092
  H        -1.50064          0.98807        -1.08307
14
 step=         402     theta[rad]=           4.2097
  C        -1.18526          1.51735        -0.16559
  C         0.06294          1.51089         0.26237
  C         1.17385          0.66171        -0.07516
  C         1.17234         -0.65921        -0.07813
  C         0.06187         -1.51524         0.26759
  C        -1.18426         -1.51370        -0.16838
  H         0.35065          2.11146         1.13632
  H         2.12247          1.17077        -0.22247
  H         2.12469         -1.16140        -0.22418
  H         0.33615         -2.12816         1.13323
  H        -2.02871         -2.04388         0.25187
  H        -1.40827         -0.81151        -0.96960
  H        -2.04068          2.04029         0.24228
  H        -1.38642          0.79844        -0.96334
14
 step=         403     theta[rad]=           4.2202
  C        -1.18544          1.49281        -0.17890
  C         0.05450          1.53220         0.30299
  C         1.18623          0.67558        -0.09701
  C         1.18690         -0.67669        -0.09569
  C         0.05498         -1.53027         0.30067
  C        -1.18589         -1.49443        -0.17765
  H         0.25630          2.27717         1.06988
  H         2.15362          1.16216        -0.18893
  H         2.15263         -1.16634        -0.18817
  H         0.26275         -2.26975         1.07125
  H        -1.94679         -2.09098         0.31330
  H        -1.48606         -0.97416        -1.07516
  H        -1.94147          2.09257         0.31756
  H        -1.49577          0.97998        -1.07796
14
 step=         404     theta[rad]=           4.2307
  C        -1.18546          1.49038        -0.18022
  C         0.05367          1.53431         0.30702
  C         1.18746          0.67695        -0.09917
  C         1.18835         -0.67842        -0.09743
  C         0.05429         -1.53176         0.30395
  C        -1.18605         -1.49252        -0.17857
  H         0.24695          2.29360         1.06329
  H         2.15671          1.16131        -0.18561
  H         2.15540         -1.16683        -0.18460
  H         0.25548         -2.28378         1.06510
  H        -1.93867         -2.09565         0.31939
  H        -1.49377         -0.99028        -1.08562
  H        -1.93164          2.09775         0.32502
  H        -1.50661          0.99797        -1.08932
14
 step=         405     theta[rad]=           4.2412
  C        -1.18526          1.51715        -0.16570
  C         0.06287          1.51107         0.26271
  C         1.17395          0.66182        -0.07534
  C         1.17246         -0.65936        -0.07827
  C         0.06182         -1.51536         0.26786
  C        -1.18427         -1.51354        -0.16845
  H         0.34987          2.11282         1.13578
  H         2.12273          1.17070        -0.22219
  H         2.12491         -1.16144        -0.22389
  H         0.33555         -2.12932         1.13272
  H        -2.02804         -2.04426         0.25238
  H        -1.40891         -0.81284        -0.97046
  H        -2.03987          2.04072         0.24289
  H        -1.38732          0.79992        -0.96427
14
 step=         406     theta[rad]=           4.2516
  C        -1.18542          1.49528        -0.17755
  C         0.05535          1.53005         0.29890
  C         1.18498          0.67418        -0.09480
  C         1.18544         -0.67492        -0.09392
  C         0.05567         -1.52875         0.29733
  C        -1.18573         -1.49637        -0.17672
  H         0.26581          2.26047         1.07658
  H         2.15048          1.16303        -0.19231
  H         2.14982         -1.16584        -0.19180
  H         0.27015         -2.25547         1.07750
  H        -1.95505         -2.08623         0.30711
  H        -1.47822         -0.95776        -1.06452
  H        -1.95147          2.08730         0.30997
  H        -1.48474          0.96167        -1.06640
14
 step=         407     theta[rad]=           4.2621
  C        -1.18548          1.48798        -0.18152
  C         0.05284          1.53640         0.31099
  C         1.18867          0.67831        -0.10131
  C         1.18977         -0.68013        -0.09915
  C         0.05362         -1.53322         0.30718
  C        -1.18621         -1.49064        -0.17948
  H         0.23772          2.30980         1.05680
  H         2.15975          1.16047        -0.18233
  H         2.15814         -1.16731        -0.18108
  H         0.24830         -2.29762         1.05904
  H        -1.93067         -2.10026         0.32540
  H        -1.50137         -1.00618        -1.09594
  H        -1.92194          2.10286         0.33238
  H        -1.51730          1.01572        -1.10052
14
 step=         408     theta[rad]=           4.2726
  C        -1.18527          1.51616        -0.16623
  C         0.06253          1.51192         0.26433
  C         1.17445          0.66238        -0.07622
  C         1.17304         -0.66006        -0.07898
  C         0.06154         -1.51597         0.26919
  C        -1.18434         -1.51277        -0.16882
  H         0.34609          2.11946         1.13311
  H         2.12398          1.17036        -0.22085
  H         2.12604         -1.16163        -0.22244
  H         0.33260         -2.13500         1.13024
  H        -2.02476         -2.04615         0.25484
  H        -1.41203         -0.81936        -0.97469
  H        -2.03589          2.04282         0.24591
  H        -1.39170          0.80720        -0.96887
14
 step=         409     theta[rad]=           4.2830
  C        -1.18539          1.49947        -0.17528
  C         0.05679          1.52641         0.29196
  C         1.18287          0.67181        -0.09107
  C         1.18295         -0.67194        -0.09092
  C         0.05685         -1.52618         0.29168
  C        -1.18545         -1.49967        -0.17513
  H         0.28193          2.23216         1.08793
  H         2.14516          1.16450        -0.19804
  H         2.14504         -1.16499        -0.19796
  H         0.28269         -2.23129         1.08809
  H        -1.96905         -2.07819         0.29662
  H        -1.46493         -0.92998        -1.04648
  H        -1.96842          2.07837         0.29711
  H        -1.46606          0.93066        -1.04682
14
 step=         410     theta[rad]=           4.2935
  C        -1.18550          1.48522        -0.18301
  C         0.05189          1.53879         0.31555
  C         1.19006          0.67987        -0.10376
  C         1.19141         -0.68209        -0.10112
  C         0.05284         -1.53491         0.31089
  C        -1.18639         -1.48847        -0.18052
  H         0.22714          2.32839         1.04934
  H         2.16325          1.15950        -0.17857
  H         2.16127         -1.16786        -0.17704
  H         0.24007         -2.31351         1.05209
  H        -1.92147         -2.10554         0.33229
  H        -1.51010         -1.02443        -1.10779
  H        -1.91081          2.10873         0.34083
  H        -1.52957          1.03609        -1.11338
14
 step=         411     theta[rad]=           4.3040
  C        -1.18529          1.51346        -0.16770
  C         0.06160          1.51427         0.26881
  C         1.17582          0.66391        -0.07862
  C         1.17465         -0.66198        -0.08091
  C         0.06078         -1.51762         0.27284
  C        -1.18452         -1.51065        -0.16985
  H         0.33569          2.13774         1.12578
  H         2.12741          1.16941        -0.21715
  H         2.12912         -1.16218        -0.21847
  H         0.32451         -2.15061         1.12340
  H        -2.01572         -2.05134         0.26161
  H        -1.42061         -0.83730        -0.98633
  H        -2.02495          2.04858         0.25421
  H        -1.40376          0.82722        -0.98151
14
 step=         412     theta[rad]=           4.3145
  C        -1.18535          1.50528        -0.17214
  C         0.05879          1.52138         0.28236
  C         1.17994          0.66853        -0.08591
  C         1.17950         -0.66781        -0.08677
  C         0.05848         -1.52263         0.28387
  C        -1.18506         -1.50422        -0.17294
  H         0.30423          2.19299         1.10363
  H         2.13780          1.16654        -0.20597
  H         2.13844         -1.16383        -0.20647
  H         0.30004         -2.19782         1.10274
  H        -1.98841         -2.06705         0.28209
  H        -1.44654         -0.89153        -1.02153
  H        -1.99187          2.06601         0.27931
  H        -1.44022          0.88775        -1.01972
14
 step=         413     theta[rad]=           4.3249
  C        -1.18551          1.48345        -0.18397
  C         0.05128          1.54033         0.31849
  C         1.19096          0.68087        -0.10534
  C         1.19246         -0.68335        -0.10239
  C         0.05234         -1.53600         0.31329
  C        -1.18651         -1.48708        -0.18119
  H         0.22031          2.34039         1.04453
  H         2.16550          1.15888        -0.17614
  H         2.16330         -1.16822        -0.17444
  H         0.23475         -2.32376         1.04760
  H        -1.91554         -2.10895         0.33674
  H        -1.51573         -1.03621        -1.11543
  H        -1.90363          2.11252         0.34628
  H        -1.53748          1.04923        -1.12168
14
 step=         414     theta[rad]=           4.3354
  C        -1.18533          1.50808        -0.17062
  C         0.05975          1.51894         0.27772
  C         1.17853          0.66695        -0.08341
  C         1.17784         -0.66581        -0.08476
  C         0.05927         -1.52092         0.28009
  C        -1.18488         -1.50642        -0.17188
  H         0.31501          2.17406         1.11122
  H         2.13424          1.16752        -0.20980
  H         2.13524         -1.16326        -0.21058
  H         0.30842         -2.18164         1.10982
  H        -1.99777         -2.06167         0.27508
  H        -1.43766         -0.87295        -1.00947
  H        -2.00320          2.06004         0.27072
  H        -1.42773          0.86701        -1.00663
14
 step=         415     theta[rad]=           4.3459
  C        -1.18530          1.51173        -0.16863
  C         0.06101          1.51577         0.27167
  C         1.17668          0.66488        -0.08016
  C         1.17567         -0.66321        -0.08215
  C         0.06030         -1.51868         0.27516
  C        -1.18463         -1.50929        -0.17050
  H         0.32906          2.14937         1.12112
  H         2.12960          1.16880        -0.21479
  H         2.13108         -1.16253        -0.21595
  H         0.31936         -2.16055         1.11905
  H        -2.00997         -2.05465         0.26593
  H        -1.42607         -0.84872        -0.99375
  H        -2.01798          2.05225         0.25950
  H        -1.41144          0.83997        -0.98956
14
 step=         416     theta[rad]=           4.3563
  C        -1.18550          1.48456        -0.18337
  C         0.05167          1.53936         0.31664
  C         1.19039          0.68024        -0.10435
  C         1.19180         -0.68256        -0.10159
  C         0.05266         -1.53531         0.31178
  C        -1.18644         -1.48796        -0.18077
  H         0.22460          2.33284         1.04756
  H         2.16408          1.15927        -0.17767
  H         2.16202         -1.16800        -0.17608
  H         0.23810         -2.31731         1.05043
  H        -1.91928         -2.10681         0.33394
  H        -1.51219         -1.02880        -1.11062
  H        -1.90814          2.11013         0.34285
  H        -1.53250          1.04096        -1.11646
14
 step=         417     theta[rad]=           4.3668
  C        -1.18539          1.49983        -0.17509
  C         0.05692          1.52610         0.29137
  C         1.18269          0.67161        -0.09076
  C         1.18274         -0.67169        -0.09066
  C         0.05695         -1.52597         0.29120
  C        -1.18542         -1.49994        -0.17500
  H         0.28329          2.22976         1.08889
  H         2.14471          1.16463        -0.19853
  H         2.14464         -1.16492        -0.19848
  H         0.28375         -2.22923         1.08898
  H        -1.97023         -2.07750         0.29573
  H        -1.46380         -0.92762        -1.04495
  H        -1.96986          2.07761         0.29602
  H        -1.46448          0.92803        -1.04516
14
 step=         418     theta[rad]=           4.3773
  C        -1.18526          1.51658        -0.16601
  C         0.06267          1.51156         0.26365
  C         1.17424          0.66214        -0.07584
  C         1.17280         -0.65976        -0.07868
  C         0.06166         -1.51571         0.26863
  C        -1.18431         -1.51310        -0.16867
  H         0.34769          2.11666         1.13424
  H         2.12345          1.17050        -0.22141
  H         2.12556         -1.16155        -0.22305
  H         0.33385         -2.13260         1.13129
  H        -2.02614         -2.04535         0.25380
  H        -1.41071         -0.81661        -0.97290
  H        -2.03757          2.04193         0.24464
  H        -1.38985          0.80413        -0.96693
14
 step=         419     theta[rad]=           4.3878
  C        -1.18546          1.49038        -0.18022
  C         0.05367          1.53431         0.30702
  C         1.18746          0.67695        -0.09917
  C         1.18835         -0.67842        -0.09743
  C         0.05429         -1.53176         0.30395
  C        -1.18605         -1.49252        -0.17857
  H         0.24695          2.29360         1.06329
  H         2.15671          1.16131        -0.18561
  H         2.15540         -1.16683        -0.18460
  H         0.25548         -2.28378         1.06510
  H        -1.93867         -2.09565         0.31939
  H        -1.49377         -0.99028        -1.08562
  H        -1.93164          2.09775         0.32502
  H        -1.50661          0.99797        -1.08932
14
 step=         420     theta[rad]=           4.3982
  C        -1.18546          1.49038        -0.18022
  C         0.05367          1.53431         0.30702
  C         1.18746          0.67695        -0.09917
  C         1.18835         -0.67842        -0.09743
  C         0.05429         -1.53176         0.30395
  C        -1.18605         -1.49252        -0.17857
  H         0.24695          2.29360         1.06329
  H         2.15671          1.16131        -0.18561
  H         2.15540         -1.16683        -0.18460
  H         0.25548         -2.28378         1.06510
  H        -1.93867         -2.09565         0.31939
  H        -1.49377         -0.99028        -1.08562
  H        -1.93164          2.09775         0.32502
  H        -1.50661          0.99797        -1.08932
14
 step=         421     theta[rad]=           4.4087
  C        -1.18527          1.51647        -0.16606
  C         0.06264          1.51166         0.26383
  C         1.17430          0.66220        -0.07594
  C         1.17286         -0.65984        -0.07876
  C         0.06163         -1.51578         0.26878
  C        -1.18432         -1.51301        -0.16871
  H         0.34727          2.11740         1.13394
  H         2.12359          1.17046        -0.22126
  H         2.12569         -1.16157        -0.22289
  H         0.33352         -2.13323         1.13101
  H        -2.02578         -2.04556         0.25408
  H        -1.41106         -0.81734        -0.97338
  H        -2.03713          2.04217         0.24497
  H        -1.39034          0.80494        -0.96744
14
 step=         422     theta[rad]=           4.4192
  C        -1.18538          1.50090        -0.17451
  C         0.05728          1.52518         0.28960
  C         1.18215          0.67101        -0.08981
  C         1.18210         -0.67093        -0.08990
  C         0.05725         -1.52531         0.28977
  C        -1.18535         -1.50078        -0.17459
  H         0.28740          2.22255         1.09178
  H         2.14335          1.16500        -0.19999
  H         2.14342         -1.16471        -0.20004
  H         0.28695         -2.22307         1.09168
  H        -1.97380         -2.07545         0.29305
  H        -1.46042         -0.92054        -1.04036
  H        -1.97417          2.07534         0.29274
  H        -1.45972          0.92013        -1.04017
14
 step=         423     theta[rad]=           4.4296
  C        -1.18551          1.48391        -0.18373
  C         0.05144          1.53993         0.31773
  C         1.19072          0.68061        -0.10493
  C         1.19219         -0.68303        -0.10206
  C         0.05247         -1.53572         0.31267
  C        -1.18648         -1.48744        -0.18102
  H         0.22207          2.33729         1.04578
  H         2.16492          1.15904        -0.17677
  H         2.16277         -1.16813        -0.17511
  H         0.23612         -2.32112         1.04876
  H        -1.91707         -2.10807         0.33559
  H        -1.51428         -1.03317        -1.11346
  H        -1.90548          2.11154         0.34488
  H        -1.53544          1.04584        -1.11954
14
 step=         424     theta[rad]=           4.4401
  C        -1.18532          1.50886        -0.17019
  C         0.06002          1.51826         0.27642
  C         1.17813          0.66650        -0.08272
  C         1.17738         -0.66526        -0.08420
  C         0.05949         -1.52044         0.27903
  C        -1.18482         -1.50704        -0.17158
  H         0.31801          2.16878         1.11334
  H         2.13325          1.16780        -0.21087
  H         2.13435         -1.16310        -0.21173
  H         0.31076         -2.17713         1.11179
  H        -2.00038         -2.06017         0.27312
  H        -1.43518         -0.86777        -1.00611
  H        -2.00637          2.05838         0.26832
  H        -1.42424          0.86123        -1.00298
14
 step=         425     theta[rad]=           4.4506
  C        -1.18530          1.51238        -0.16828
  C         0.06123          1.51521         0.27060
  C         1.17636          0.66452        -0.07958
  C         1.17529         -0.66275        -0.08168
  C         0.06048         -1.51828         0.27429
  C        -1.18459         -1.50980        -0.17025
  H         0.33154          2.14502         1.12287
  H         2.12878          1.16903        -0.21568
  H         2.13034         -1.16240        -0.21689
  H         0.32129         -2.15683         1.12068
  H        -2.01213         -2.05341         0.26431
  H        -1.42402         -0.84444        -0.99097
  H        -2.02059          2.05088         0.25752
  H        -1.40856          0.83519        -0.98654
14
 step=         426     theta[rad]=           4.4611
  C        -1.18549          1.48574        -0.18273
  C         0.05207          1.53834         0.31470
  C         1.18980          0.67957        -0.10330
  C         1.19110         -0.68172        -0.10075
  C         0.05299         -1.53460         0.31020
  C        -1.18636         -1.48888        -0.18032
  H         0.22911          2.32492         1.05074
  H         2.16259          1.15968        -0.17927
  H         2.16069         -1.16776        -0.17780
  H         0.24160         -2.31054         1.05339
  H        -1.92319         -2.10455         0.33100
  H        -1.50847         -1.02102        -1.10558
  H        -1.91289          2.10764         0.33925
  H        -1.52727          1.03228        -1.11098
14
 step=         427     theta[rad]=           4.4715
  C        -1.18542          1.49545        -0.17746
  C         0.05541          1.52991         0.29862
  C         1.18490          0.67408        -0.09465
  C         1.18534         -0.67480        -0.09380
  C         0.05572         -1.52865         0.29710
  C        -1.18571         -1.49651        -0.17665
  H         0.26646          2.25932         1.07704
  H         2.15026          1.16309        -0.19255
  H         2.14962         -1.16580        -0.19205
  H         0.27066         -2.25449         1.07793
  H        -1.95562         -2.08591         0.30668
  H        -1.47768         -0.95663        -1.06379
  H        -1.95216          2.08694         0.30945
  H        -1.48399          0.96042        -1.06561
14
 step=         428     theta[rad]=           4.4820
  C        -1.18526          1.51732        -0.16560
  C         0.06293          1.51091         0.26241
  C         1.17387          0.66172        -0.07518
  C         1.17235         -0.65923        -0.07815
  C         0.06187         -1.51526         0.26763
  C        -1.18426         -1.51368        -0.16839
  H         0.35055          2.11163         1.13625
  H         2.12251          1.17076        -0.22243
  H         2.12471         -1.16140        -0.22415
  H         0.33607         -2.12831         1.13317
  H        -2.02863         -2.04392         0.25194
  H        -1.40835         -0.81168        -0.96970
  H        -2.04058          2.04035         0.24235
  H        -1.38653          0.79862        -0.96345
14
 step=         429     theta[rad]=           4.4925
  C        -1.18540          1.49771        -0.17624
  C         0.05619          1.52795         0.29489
  C         1.18376          0.67281        -0.09265
  C         1.18400         -0.67320        -0.09218
  C         0.05635         -1.52727         0.29407
  C        -1.18556         -1.49828        -0.17580
  H         0.27513          2.24410         1.08314
  H         2.14740          1.16388        -0.19563
  H         2.14706         -1.16535        -0.19536
  H         0.27740         -2.24149         1.08362
  H        -1.96314         -2.08158         0.30104
  H        -1.47054         -0.94170        -1.05409
  H        -1.96127          2.08214         0.30254
  H        -1.47395          0.94375        -1.05508
14
 step=         430     theta[rad]=           4.5029
  C        -1.18550          1.48450        -0.18340
  C         0.05165          1.53942         0.31674
  C         1.19042          0.68027        -0.10440
  C         1.19184         -0.68260        -0.10163
  C         0.05264         -1.53535         0.31187
  C        -1.18644         -1.48791        -0.18079
  H         0.22435          2.33328         1.04739
  H         2.16416          1.15925        -0.17758
  H         2.16210         -1.16801        -0.17598
  H         0.23790         -2.31768         1.05026
  H        -1.91906         -2.10693         0.33410
  H        -1.51239         -1.02923        -1.11090
  H        -1.90788          2.11027         0.34305
  H        -1.53279          1.04144        -1.11676
14
 step=         431     theta[rad]=           4.5134
  C        -1.18532          1.50947        -0.16986
  C         0.06023          1.51773         0.27541
  C         1.17783          0.66616        -0.08217
  C         1.17702         -0.66482        -0.08377
  C         0.05966         -1.52006         0.27821
  C        -1.18478         -1.50751        -0.17135
  H         0.32035          2.16467         1.11499
  H         2.13247          1.16801        -0.21170
  H         2.13366         -1.16298        -0.21262
  H         0.31258         -2.17362         1.11333
  H        -2.00241         -2.05900         0.27160
  H        -1.43325         -0.86373        -1.00349
  H        -2.00883          2.05708         0.26645
  H        -1.42153          0.85673        -1.00014
14
 step=         432     theta[rad]=           4.5239
  C        -1.18529          1.51275        -0.16808
  C         0.06136          1.51488         0.26998
  C         1.17617          0.66431        -0.07925
  C         1.17507         -0.66249        -0.08142
  C         0.06058         -1.51806         0.27379
  C        -1.18456         -1.51009        -0.17011
  H         0.33297          2.14251         1.12387
  H         2.12831          1.16916        -0.21618
  H         2.12992         -1.16232        -0.21744
  H         0.32240         -2.15468         1.12162
  H        -2.01337         -2.05270         0.26338
  H        -1.42284         -0.84198        -0.98937
  H        -2.02209          2.05009         0.25638
  H        -1.40691          0.83245        -0.98481
14
 step=         433     theta[rad]=           4.5344
  C        -1.18549          1.48672        -0.18220
  C         0.05241          1.53749         0.31307
  C         1.18930          0.67902        -0.10243
  C         1.19052         -0.68102        -0.10004
  C         0.05326         -1.53399         0.30887
  C        -1.18629         -1.48965        -0.17995
  H         0.23290          2.31827         1.05340
  H         2.16134          1.16003        -0.18062
  H         2.15957         -1.16756        -0.17924
  H         0.24455         -2.30486         1.05587
  H        -1.92648         -2.10267         0.32854
  H        -1.50535         -1.01450        -1.10134
  H        -1.91687          2.10554         0.33623
  H        -1.52289          1.02500        -1.10638
14
 step=         434     theta[rad]=           4.5448
  C        -1.18544          1.49265        -0.17898
  C         0.05445          1.53234         0.30326
  C         1.18631          0.67567        -0.09715
  C         1.18700         -0.67680        -0.09580
  C         0.05493         -1.53036         0.30088
  C        -1.18590         -1.49431        -0.17771
  H         0.25569          2.27825         1.06945
  H         2.15382          1.16211        -0.18872
  H         2.15281         -1.16637        -0.18794
  H         0.26228         -2.27066         1.07085
  H        -1.94626         -2.09129         0.31370
  H        -1.48656         -0.97521        -1.07584
  H        -1.94083          2.09291         0.31805
  H        -1.49648          0.98115        -1.07870
14
 step=         435     theta[rad]=           4.5553
  C        -1.18527          1.51652        -0.16603
  C         0.06266          1.51161         0.26374
  C         1.17427          0.66217        -0.07589
  C         1.17283         -0.65980        -0.07872
  C         0.06164         -1.51574         0.26870
  C        -1.18431         -1.51306        -0.16869
  H         0.34748          2.11702         1.13409
  H         2.12352          1.17048        -0.22134
  H         2.12562         -1.16156        -0.22298
  H         0.33369         -2.13291         1.13115
  H        -2.02596         -2.04546         0.25394
  H        -1.41088         -0.81697        -0.97314
  H        -2.03735          2.04205         0.24480
  H        -1.39009          0.80453        -0.96718
14
 step=         436     theta[rad]=           4.5658
  C        -1.18536          1.50320        -0.17326
  C         0.05807          1.52318         0.28580
  C         1.18099          0.66971        -0.08776
  C         1.18074         -0.66929        -0.08825
  C         0.05790         -1.52390         0.28667
  C        -1.18520         -1.50259        -0.17372
  H         0.29624          2.20702         1.09801
  H         2.14043          1.16581        -0.20313
  H         2.14080         -1.16424        -0.20342
  H         0.29383         -2.20980         1.09749
  H        -1.98148         -2.07104         0.28730
  H        -1.45313         -0.90530        -1.03047
  H        -1.98347          2.07044         0.28569
  H        -1.44947          0.90312        -1.02943
14
 step=         437     theta[rad]=           4.5763
  C        -1.18551          1.48338        -0.18401
  C         0.05126          1.54039         0.31860
  C         1.19099          0.68091        -0.10540
  C         1.19250         -0.68340        -0.10244
  C         0.05233         -1.53604         0.31338
  C        -1.18652         -1.48703        -0.18122
  H         0.22005          2.34084         1.04435
  H         2.16559          1.15886        -0.17605
  H         2.16337         -1.16823        -0.17434
  H         0.23455         -2.32415         1.04743
  H        -1.91532         -2.10908         0.33690
  H        -1.51595         -1.03665        -1.11572
  H        -1.90335          2.11266         0.34649
  H        -1.53778          1.04973        -1.12199
14
 step=         438     theta[rad]=           4.5867
  C        -1.18537          1.50196        -0.17393
  C         0.05765          1.52425         0.28784
  C         1.18161          0.67040        -0.08886
  C         1.18147         -0.67017        -0.08914
  C         0.05755         -1.52466         0.28833
  C        -1.18528         -1.50162        -0.17419
  H         0.29150          2.21535         1.09467
  H         2.14200          1.16538        -0.20144
  H         2.14221         -1.16449        -0.20161
  H         0.29013         -2.21693         1.09437
  H        -1.97735         -2.07341         0.29039
  H        -1.45704         -0.91348        -1.03578
  H        -1.97848          2.07307         0.28948
  H        -1.45498          0.91225        -1.03520
14
 step=         439     theta[rad]=           4.5972
  C        -1.18526          1.51698        -0.16578
  C         0.06281          1.51121         0.26297
  C         1.17404          0.66191        -0.07548
  C         1.17255         -0.65947        -0.07839
  C         0.06177         -1.51546         0.26808
  C        -1.18428         -1.51342        -0.16851
  H         0.34925          2.11391         1.13534
  H         2.12293          1.17065        -0.22197
  H         2.12510         -1.16147        -0.22365
  H         0.33506         -2.13025         1.13231
  H        -2.02750         -2.04457         0.25278
  H        -1.40942         -0.81392        -0.97116
  H        -2.03921          2.04107         0.24339
  H        -1.38804          0.80112        -0.96503
14
 step=         440     theta[rad]=           4.6077
  C        -1.18542          1.49511        -0.17765
  C         0.05529          1.53020         0.29918
  C         1.18507          0.67428        -0.09496
  C         1.18554         -0.67504        -0.09404
  C         0.05562         -1.52886         0.29756
  C        -1.18574         -1.49624        -0.17678
  H         0.26516          2.26161         1.07612
  H         2.15069          1.16297        -0.19208
  H         2.15001         -1.16587        -0.19156
  H         0.26964         -2.25645         1.07707
  H        -1.95449         -2.08656         0.30753
  H        -1.47875         -0.95889        -1.06525
  H        -1.95079          2.08766         0.31049
  H        -1.48550          0.96293        -1.06719
14
 step=         441     theta[rad]=           4.6181
  C        -1.18550          1.48477        -0.18326
  C         0.05174          1.53918         0.31630
  C         1.19029          0.68012        -0.10417
  C         1.19168         -0.68241        -0.10144
  C         0.05272         -1.53519         0.31150
  C        -1.18642         -1.48812        -0.18069
  H         0.22539          2.33146         1.04811
  H         2.16382          1.15934        -0.17795
  H         2.16179         -1.16795        -0.17638
  H         0.23871         -2.31613         1.05094
  H        -1.91996         -2.10641         0.33343
  H        -1.51154         -1.02745        -1.10974
  H        -1.90897          2.10970         0.34223
  H        -1.53159          1.03945        -1.11551
14
 step=         442     theta[rad]=           4.6286
  C        -1.18533          1.50839        -0.17044
  C         0.05986          1.51867         0.27719
  C         1.17837          0.66677        -0.08313
  C         1.17765         -0.66559        -0.08454
  C         0.05936         -1.52072         0.27966
  C        -1.18485         -1.50667        -0.17176
  H         0.31622          2.17193         1.11208
  H         2.13384          1.16763        -0.21023
  H         2.13488         -1.16320        -0.21104
  H         0.30937         -2.17982         1.11061
  H        -1.99882         -2.06106         0.27429
  H        -1.43666         -0.87086        -1.00812
  H        -2.00448          2.05937         0.26975
  H        -1.42632          0.86468        -1.00516
14
 step=         443     theta[rad]=           4.6391
  C        -1.18528          1.51471        -0.16702
  C         0.06203          1.51318         0.26674
  C         1.17518          0.66320        -0.07751
  C         1.17390         -0.66109        -0.08001
  C         0.06113         -1.51686         0.27115
  C        -1.18443         -1.51163        -0.16937
  H         0.34051          2.12927         1.12918
  H         2.12582          1.16985        -0.21886
  H         2.12769         -1.16193        -0.22031
  H         0.32826         -2.14337         1.12657
  H        -2.01991         -2.04894         0.25848
  H        -1.41663         -0.82899        -0.98094
  H        -2.03002          2.04591         0.25037
  H        -1.39817          0.81794        -0.97565
14
 step=         444     theta[rad]=           4.6496
  C        -1.18546          1.49038        -0.18022
  C         0.05367          1.53431         0.30702
  C         1.18746          0.67695        -0.09917
  C         1.18835         -0.67842        -0.09743
  C         0.05429         -1.53176         0.30395
  C        -1.18605         -1.49252        -0.17857
  H         0.24695          2.29360         1.06329
  H         2.15671          1.16131        -0.18561
  H         2.15540         -1.16683        -0.18460
  H         0.25548         -2.28378         1.06510
  H        -1.93867         -2.09565         0.31939
  H        -1.49377         -0.99028        -1.08562
  H        -1.93164          2.09775         0.32502
  H        -1.50661          0.99797        -1.08932
14
 step=         445     theta[rad]=           4.6600
  C        -1.18548          1.48716        -0.18196
  C         0.05256          1.53711         0.31234
  C         1.18908          0.67877        -0.10204
  C         1.19026         -0.68071        -0.09973
  C         0.05339         -1.53373         0.30828
  C        -1.18627         -1.48999        -0.17979
  H         0.23457          2.31533         1.05458
  H         2.16079          1.16018        -0.18121
  H         2.15907         -1.16747        -0.17988
  H         0.24585         -2.30235         1.05698
  H        -1.92793         -2.10183         0.32745
  H        -1.50397         -1.01161        -1.09947
  H        -1.91863          2.10461         0.33490
  H        -1.52094          1.02178        -1.10435
14
 step=         446     theta[rad]=           4.6705
  C        -1.18530          1.51160        -0.16870
  C         0.06096          1.51588         0.27189
  C         1.17675          0.66496        -0.08028
  C         1.17575         -0.66330        -0.08224
  C         0.06026         -1.51876         0.27534
  C        -1.18464         -1.50919        -0.17055
  H         0.32855          2.15027         1.12076
  H         2.12977          1.16876        -0.21461
  H         2.13123         -1.16255        -0.21575
  H         0.31896         -2.16132         1.11872
  H        -2.00953         -2.05491         0.26626
  H        -1.42649         -0.84960        -0.99432
  H        -2.01745          2.05254         0.25991
  H        -1.41203          0.84095        -0.99018
14
 step=         447     theta[rad]=           4.6810
  C        -1.18529          1.51275        -0.16808
  C         0.06136          1.51488         0.26998
  C         1.17617          0.66431        -0.07925
  C         1.17507         -0.66249        -0.08142
  C         0.06058         -1.51806         0.27379
  C        -1.18456         -1.51009        -0.17011
  H         0.33297          2.14251         1.12387
  H         2.12831          1.16916        -0.21618
  H         2.12992         -1.16232        -0.21744
  H         0.32240         -2.15468         1.12162
  H        -2.01337         -2.05270         0.26338
  H        -1.42284         -0.84198        -0.98937
  H        -2.02209          2.05009         0.25638
  H        -1.40691          0.83245        -0.98481
14
 step=         448     theta[rad]=           4.6914
  C        -1.18547          1.48848        -0.18125
  C         0.05301          1.53597         0.31017
  C         1.18842          0.67803        -0.10087
  C         1.18948         -0.67977        -0.09879
  C         0.05376         -1.53292         0.30651
  C        -1.18618         -1.49103        -0.17929
  H         0.23964          2.30644         1.05815
  H         2.15912          1.16064        -0.18301
  H         2.15757         -1.16721        -0.18182
  H         0.24979         -2.29475         1.06030
  H        -1.93233         -2.09930         0.32415
  H        -1.49979         -1.00288        -1.09380
  H        -1.92395          2.10180         0.33086
  H        -1.51508          1.01204        -1.09820
14
 step=         449     theta[rad]=           4.7019
  C        -1.18547          1.48835        -0.18132
  C         0.05297          1.53608         0.31037
  C         1.18848          0.67810        -0.10098
  C         1.18955         -0.67986        -0.09888
  C         0.05372         -1.53300         0.30668
  C        -1.18619         -1.49093        -0.17934
  H         0.23915          2.30729         1.05780
  H         2.15928          1.16060        -0.18284
  H         2.15771         -1.16723        -0.18163
  H         0.24941         -2.29548         1.05998
  H        -1.93191         -2.09954         0.32447
  H        -1.50020         -1.00372        -1.09435
  H        -1.92344          2.10207         0.33124
  H        -1.51564          1.01297        -1.09879
14
 step=         450     theta[rad]=           4.7124
  C        -1.18530          1.51238        -0.16828
  C         0.06123          1.51521         0.27060
  C         1.17636          0.66452        -0.07958
  C         1.17529         -0.66275        -0.08168
  C         0.06048         -1.51828         0.27429
  C        -1.18459         -1.50980        -0.17025
  H         0.33154          2.14502         1.12287
  H         2.12878          1.16903        -0.21568
  H         2.13034         -1.16240        -0.21689
  H         0.32129         -2.15683         1.12068
  H        -2.01213         -2.05341         0.26431
  H        -1.42402         -0.84444        -0.99097
  H        -2.02059          2.05088         0.25752
  H        -1.40856          0.83519        -0.98654
14
 step=         451     theta[rad]=           4.7229
  C        -1.18530          1.51250        -0.16821
  C         0.06127          1.51510         0.27039
  C         1.17630          0.66444        -0.07947
  C         1.17521         -0.66266        -0.08159
  C         0.06051         -1.51821         0.27412
  C        -1.18458         -1.50990        -0.17021
  H         0.33202          2.14417         1.12321
  H         2.12862          1.16907        -0.21585
  H         2.13020         -1.16237        -0.21708
  H         0.32166         -2.15611         1.12100
  H        -2.01254         -2.05317         0.26400
  H        -1.42363         -0.84361        -0.99043
  H        -2.02110          2.05061         0.25714
  H        -1.40800          0.83427        -0.98596
14
 step=         452     theta[rad]=           4.7333
  C        -1.18547          1.48873        -0.18111
  C         0.05310          1.53574         0.30974
  C         1.18829          0.67788        -0.10064
  C         1.18932         -0.67959        -0.09861
  C         0.05383         -1.53276         0.30616
  C        -1.18616         -1.49123        -0.17919
  H         0.24062          2.30470         1.05884
  H         2.15879          1.16073        -0.18336
  H         2.15728         -1.16716        -0.18219
  H         0.25056         -2.29327         1.06095
  H        -1.93319         -2.09881         0.32351
  H        -1.49898         -1.00118        -1.09270
  H        -1.92499          2.10126         0.33007
  H        -1.51393          1.01014        -1.09700
14
 step=         453     theta[rad]=           4.7438
  C        -1.18548          1.48762        -0.18171
  C         0.05272          1.53671         0.31158
  C         1.18885          0.67851        -0.10163
  C         1.18999         -0.68038        -0.09940
  C         0.05352         -1.53344         0.30766
  C        -1.18623         -1.49035        -0.17961
  H         0.23634          2.31223         1.05583
  H         2.16021          1.16034        -0.18184
  H         2.15855         -1.16738        -0.18056
  H         0.24723         -2.29970         1.05814
  H        -1.92947         -2.10095         0.32630
  H        -1.50251         -1.00856        -1.09749
  H        -1.92049          2.10363         0.33349
  H        -1.51890          1.01838        -1.10220
14
 step=         454     theta[rad]=           4.7543
  C        -1.18531          1.51106        -0.16900
  C         0.06078          1.51635         0.27279
  C         1.17703          0.66526        -0.08076
  C         1.17607         -0.66369        -0.08263
  C         0.06011         -1.51909         0.27607
  C        -1.18468         -1.50876        -0.17075
  H         0.32646          2.15394         1.11929
  H         2.13046          1.16857        -0.21387
  H         2.13185         -1.16266        -0.21495
  H         0.31733         -2.16445         1.11734
  H        -2.00771         -2.05595         0.26762
  H        -1.42821         -0.85320        -0.99666
  H        -2.01525          2.05369         0.26157
  H        -1.41445          0.84497        -0.99272
14
 step=         455     theta[rad]=           4.7647
  C        -1.18528          1.51411        -0.16734
  C         0.06183          1.51370         0.26773
  C         1.17549          0.66354        -0.07804
  C         1.17426         -0.66152        -0.08044
  C         0.06096         -1.51722         0.27196
  C        -1.18447         -1.51116        -0.16960
  H         0.33820          2.13332         1.12756
  H         2.12658          1.16964        -0.21804
  H         2.12837         -1.16205        -0.21943
  H         0.32647         -2.14684         1.12506
  H        -2.01791         -2.05009         0.25998
  H        -1.41853         -0.83297        -0.98352
  H        -2.02759          2.04719         0.25221
  H        -1.40084          0.82238        -0.97845
14
 step=         456     theta[rad]=           4.7752
  C        -1.18545          1.49126        -0.17974
  C         0.05397          1.53355         0.30556
  C         1.18701          0.67645        -0.09839
  C         1.18782         -0.67779        -0.09680
  C         0.05454         -1.53122         0.30276
  C        -1.18599         -1.49321        -0.17824
  H         0.25034          2.28764         1.06568
  H         2.15559          1.16162        -0.18682
  H         2.15440         -1.16665        -0.18590
  H         0.25812         -2.27869         1.06733
  H        -1.94162         -2.09396         0.31718
  H        -1.49097         -0.98443        -1.08183
  H        -1.93521          2.09587         0.32232
  H        -1.50267          0.99144        -1.08519
14
 step=         457     theta[rad]=           4.7857
  C        -1.18550          1.48539        -0.18292
  C         0.05195          1.53865         0.31527
  C         1.18998          0.67977        -0.10361
  C         1.19131         -0.68197        -0.10100
  C         0.05289         -1.53481         0.31067
  C        -1.18638         -1.48860        -0.18046
  H         0.22777          2.32728         1.04979
  H         2.16304          1.15956        -0.17880
  H         2.16108         -1.16783        -0.17729
  H         0.24056         -2.31256         1.05251
  H        -1.92202         -2.10523         0.33188
  H        -1.50958         -1.02334        -1.10708
  H        -1.91147          2.10838         0.34033
  H        -1.52883          1.03487        -1.11261
14
 step=         458     theta[rad]=           4.7962
  C        -1.18534          1.50711        -0.17114
  C         0.05942          1.51978         0.27932
  C         1.17902          0.66749        -0.08427
  C         1.17841         -0.66650        -0.08545
  C         0.05900         -1.52151         0.28139
  C        -1.18494         -1.50566        -0.17225
  H         0.31129          2.18058         1.10861
  H         2.13546          1.16718        -0.20848
  H         2.13634         -1.16346        -0.20916
  H         0.30553         -2.18722         1.10738
  H        -1.99454         -2.06352         0.27750
  H        -1.44072         -0.87935        -1.01363
  H        -1.99930          2.06210         0.27368
  H        -1.43203          0.87416        -1.01114
14
 step=         459     theta[rad]=           4.8066
  C        -1.18527          1.51652        -0.16603
  C         0.06266          1.51161         0.26374
  C         1.17427          0.66217        -0.07589
  C         1.17283         -0.65980        -0.07872
  C         0.06164         -1.51574         0.26870
  C        -1.18431         -1.51306        -0.16869
  H         0.34748          2.11702         1.13409
  H         2.12352          1.17048        -0.22134
  H         2.12562         -1.16156        -0.22298
  H         0.33369         -2.13291         1.13115
  H        -2.02596         -2.04546         0.25394
  H        -1.41088         -0.81697        -0.97314
  H        -2.03735          2.04205         0.24480
  H        -1.39009          0.80453        -0.96718
14
 step=         460     theta[rad]=           4.8171
  C        -1.18541          1.49683        -0.17672
  C         0.05589          1.52871         0.29633
  C         1.18420          0.67330        -0.09343
  C         1.18452         -0.67382        -0.09281
  C         0.05611         -1.52780         0.29525
  C        -1.18562         -1.49759        -0.17613
  H         0.27176          2.25001         1.08077
  H         2.14851          1.16358        -0.19443
  H         2.14805         -1.16553        -0.19408
  H         0.27478         -2.24654         1.08141
  H        -1.96022         -2.08326         0.30323
  H        -1.47331         -0.94750        -1.05786
  H        -1.95773          2.08400         0.30522
  H        -1.47784          0.95022        -1.05917
14
 step=         461     theta[rad]=           4.8276
  C        -1.18551          1.48345        -0.18397
  C         0.05128          1.54033         0.31849
  C         1.19096          0.68087        -0.10534
  C         1.19246         -0.68335        -0.10239
  C         0.05234         -1.53600         0.31329
  C        -1.18651         -1.48708        -0.18119
  H         0.22031          2.34039         1.04453
  H         2.16550          1.15888        -0.17614
  H         2.16330         -1.16822        -0.17444
  H         0.23475         -2.32376         1.04760
  H        -1.91554         -2.10895         0.33674
  H        -1.51573         -1.03621        -1.11543
  H        -1.90363          2.11252         0.34628
  H        -1.53748          1.04923        -1.12168
14
 step=         462     theta[rad]=           4.8381
  C        -1.18539          1.49983        -0.17509
  C         0.05692          1.52610         0.29137
  C         1.18269          0.67161        -0.09076
  C         1.18274         -0.67169        -0.09066
  C         0.05695         -1.52597         0.29120
  C        -1.18542         -1.49994        -0.17500
  H         0.28329          2.22976         1.08889
  H         2.14471          1.16463        -0.19853
  H         2.14464         -1.16492        -0.19848
  H         0.28375         -2.22923         1.08898
  H        -1.97023         -2.07750         0.29573
  H        -1.46380         -0.92762        -1.04495
  H        -1.96986          2.07761         0.29602
  H        -1.46448          0.92803        -1.04516
14
 step=         463     theta[rad]=           4.8485
  C        -1.18526          1.51712        -0.16571
  C         0.06286          1.51109         0.26275
  C         1.17397          0.66184        -0.07536
  C         1.17248         -0.65938        -0.07829
  C         0.06181         -1.51538         0.26790
  C        -1.18427         -1.51352        -0.16846
  H         0.34976          2.11301         1.13570
  H         2.12277          1.17069        -0.22215
  H         2.12495         -1.16144        -0.22385
  H         0.33546         -2.12949         1.13265
  H        -2.02795         -2.04432         0.25245
  H        -1.40900         -0.81303        -0.97058
  H        -2.03975          2.04078         0.24298
  H        -1.38744          0.80014        -0.96441
14
 step=         464     theta[rad]=           4.8590
  C        -1.18535          1.50561        -0.17195
  C         0.05891          1.52108         0.28179
  C         1.17977          0.66834        -0.08561
  C         1.17930         -0.66757        -0.08652
  C         0.05858         -1.52242         0.28341
  C        -1.18504         -1.50449        -0.17281
  H         0.30554          2.19069         1.10455
  H         2.13737          1.16666        -0.20643
  H         2.13805         -1.16376        -0.20697
  H         0.30106         -2.19586         1.10360
  H        -1.98954         -2.06640         0.28124
  H        -1.44546         -0.88928        -1.02007
  H        -1.99325          2.06529         0.27827
  H        -1.43870          0.88524        -1.01814
14
 step=         465     theta[rad]=           4.8695
  C        -1.18550          1.48522        -0.18301
  C         0.05189          1.53879         0.31555
  C         1.19006          0.67987        -0.10376
  C         1.19141         -0.68209        -0.10112
  C         0.05284         -1.53491         0.31089
  C        -1.18639         -1.48847        -0.18052
  H         0.22714          2.32839         1.04934
  H         2.16325          1.15950        -0.17857
  H         2.16127         -1.16786        -0.17704
  H         0.24007         -2.31351         1.05209
  H        -1.92147         -2.10554         0.33229
  H        -1.51010         -1.02443        -1.10779
  H        -1.91081          2.10873         0.34083
  H        -1.52957          1.03609        -1.11338
14
 step=         466     theta[rad]=           4.8799
  C        -1.18546          1.49023        -0.18029
  C         0.05362          1.53444         0.30726
  C         1.18753          0.67703        -0.09930
  C         1.18843         -0.67852        -0.09753
  C         0.05425         -1.53184         0.30414
  C        -1.18606         -1.49241        -0.17863
  H         0.24639          2.29457         1.06291
  H         2.15689          1.16126        -0.18541
  H         2.15557         -1.16685        -0.18439
  H         0.25505         -2.28461         1.06474
  H        -1.93820         -2.09593         0.31975
  H        -1.49422         -0.99123        -1.08624
  H        -1.93106          2.09806         0.32546
  H        -1.50725          0.99903        -1.08999
14
 step=         467     theta[rad]=           4.8904
  C        -1.18530          1.51200        -0.16849
  C         0.06110          1.51554         0.27123
  C         1.17655          0.66473        -0.07992
  C         1.17552         -0.66302        -0.08196
  C         0.06037         -1.51852         0.27481
  C        -1.18462         -1.50950        -0.17040
  H         0.33007          2.14760         1.12183
  H         2.12927          1.16890        -0.21515
  H         2.13078         -1.16247        -0.21633
  H         0.32014         -2.15904         1.11971
  H        -2.01085         -2.05415         0.26527
  H        -1.42524         -0.84698        -0.99262
  H        -2.01904          2.05170         0.25870
  H        -1.41027          0.83803        -0.98833
14
 step=         468     theta[rad]=           4.9009
  C        -1.18528          1.51471        -0.16702
  C         0.06203          1.51318         0.26674
  C         1.17518          0.66320        -0.07751
  C         1.17390         -0.66109        -0.08001
  C         0.06113         -1.51686         0.27115
  C        -1.18443         -1.51163        -0.16937
  H         0.34051          2.12927         1.12918
  H         2.12582          1.16985        -0.21886
  H         2.12769         -1.16193        -0.22031
  H         0.32826         -2.14337         1.12657
  H        -2.01991         -2.04894         0.25848
  H        -1.41663         -0.82899        -0.98094
  H        -2.03002          2.04591         0.25037
  H        -1.39817          0.81794        -0.97565
14
 step=         469     theta[rad]=           4.9114
  C        -1.18543          1.49427        -0.17810
  C         0.05501          1.53093         0.30057
  C         1.18549          0.67475        -0.09570
  C         1.18603         -0.67564        -0.09464
  C         0.05539         -1.52937         0.29869
  C        -1.18579         -1.49558        -0.17710
  H         0.26193          2.26727         1.07385
  H         2.15176          1.16268        -0.19094
  H         2.15096         -1.16604        -0.19033
  H         0.26714         -2.26129         1.07495
  H        -1.95169         -2.08817         0.30963
  H        -1.48141         -0.96444        -1.06885
  H        -1.94740          2.08945         0.31306
  H        -1.48924          0.96913        -1.07111
14
 step=         470     theta[rad]=           4.9218
  C        -1.18551          1.48358        -0.18390
  C         0.05133          1.54022         0.31827
  C         1.19089          0.68079        -0.10522
  C         1.19238         -0.68326        -0.10229
  C         0.05238         -1.53592         0.31311
  C        -1.18650         -1.48718        -0.18114
  H         0.22082          2.33949         1.04490
  H         2.16533          1.15893        -0.17632
  H         2.16314         -1.16819        -0.17463
  H         0.23515         -2.32299         1.04794
  H        -1.91599         -2.10870         0.33640
  H        -1.51531         -1.03532        -1.11486
  H        -1.90417          2.11223         0.34587
  H        -1.53689          1.04824        -1.12106
14
 step=         471     theta[rad]=           4.9323
  C        -1.18539          1.49930        -0.17538
  C         0.05673          1.52657         0.29225
  C         1.18296          0.67191        -0.09123
  C         1.18305         -0.67207        -0.09105
  C         0.05680         -1.52629         0.29192
  C        -1.18546         -1.49953        -0.17520
  H         0.28124          2.23336         1.08745
  H         2.14538          1.16444        -0.19780
  H         2.14524         -1.16503        -0.19770
  H         0.28216         -2.23231         1.08764
  H        -1.96845         -2.07853         0.29706
  H        -1.46549         -0.93115        -1.04725
  H        -1.96770          2.07875         0.29766
  H        -1.46686          0.93198        -1.04765
14
 step=         472     theta[rad]=           4.9428
  C        -1.18526          1.51663        -0.16598
  C         0.06269          1.51151         0.26356
  C         1.17421          0.66211        -0.07580
  C         1.17277         -0.65972        -0.07864
  C         0.06167         -1.51568         0.26856
  C        -1.18431         -1.51314        -0.16865
  H         0.34789          2.11630         1.13438
  H         2.12338          1.17052        -0.22149
  H         2.12550         -1.16154        -0.22313
  H         0.33400         -2.13230         1.13142
  H        -2.02632         -2.04525         0.25367
  H        -1.41054         -0.81626        -0.97268
  H        -2.03778          2.04182         0.24448
  H        -1.38962          0.80374        -0.96668
14
 step=         473     theta[rad]=           4.9532
  C        -1.18532          1.50901        -0.17011
  C         0.06007          1.51813         0.27617
  C         1.17806          0.66642        -0.08258
  C         1.17729         -0.66515        -0.08409
  C         0.05953         -1.52034         0.27883
  C        -1.18481         -1.50716        -0.17153
  H         0.31860          2.16774         1.11376
  H         2.13305          1.16785        -0.21108
  H         2.13418         -1.16307        -0.21195
  H         0.31122         -2.17625         1.11218
  H        -2.00089         -2.05987         0.27274
  H        -1.43469         -0.86675        -1.00545
  H        -2.00699          2.05805         0.26785
  H        -1.42356          0.86009        -1.00226
14
 step=         474     theta[rad]=           4.9637
  C        -1.18547          1.48835        -0.18132
  C         0.05297          1.53608         0.31037
  C         1.18848          0.67810        -0.10098
  C         1.18955         -0.67986        -0.09888
  C         0.05372         -1.53300         0.30668
  C        -1.18619         -1.49093        -0.17934
  H         0.23915          2.30729         1.05780
  H         2.15928          1.16060        -0.18284
  H         2.15771         -1.16723        -0.18163
  H         0.24941         -2.29548         1.05998
  H        -1.93191         -2.09954         0.32447
  H        -1.50020         -1.00372        -1.09435
  H        -1.92344          2.10207         0.33124
  H        -1.51564          1.01297        -1.09879
14
 step=         475     theta[rad]=           4.9742
  C        -1.18549          1.48565        -0.18278
  C         0.05204          1.53842         0.31484
  C         1.18985          0.67963        -0.10338
  C         1.19115         -0.68178        -0.10081
  C         0.05296         -1.53465         0.31032
  C        -1.18637         -1.48881        -0.18036
  H         0.22877          2.32553         1.05049
  H         2.16271          1.15965        -0.17915
  H         2.16079         -1.16778        -0.17767
  H         0.24134         -2.31106         1.05316
  H        -1.92289         -2.10473         0.33123
  H        -1.50876         -1.02162        -1.10596
  H        -1.91252          2.10783         0.33953
  H        -1.52767          1.03295        -1.11140
14
 step=         476     theta[rad]=           4.9847
  C        -1.18535          1.50459        -0.17251
  C         0.05855          1.52197         0.28349
  C         1.18029          0.66892        -0.08652
  C         1.17991         -0.66830        -0.08726
  C         0.05829         -1.52305         0.28479
  C        -1.18511         -1.50368        -0.17320
  H         0.30159          2.19762         1.10178
  H         2.13867          1.16630        -0.20503
  H         2.13922         -1.16396        -0.20546
  H         0.29799         -2.20177         1.10101
  H        -1.98612         -2.06837         0.28381
  H        -1.44871         -0.89607        -1.02448
  H        -1.98910          2.06747         0.28142
  H        -1.44327          0.89282        -1.02293
14
 step=         477     theta[rad]=           4.9951
  C        -1.18526          1.51735        -0.16559
  C         0.06294          1.51089         0.26237
  C         1.17385          0.66171        -0.07516
  C         1.17234         -0.65921        -0.07813
  C         0.06187         -1.51524         0.26759
  C        -1.18426         -1.51370        -0.16838
  H         0.35065          2.11146         1.13632
  H         2.12247          1.17077        -0.22247
  H         2.12469         -1.16140        -0.22418
  H         0.33615         -2.12816         1.13323
  H        -2.02871         -2.04388         0.25187
  H        -1.40827         -0.81151        -0.96960
  H        -2.04068          2.04029         0.24228
  H        -1.38642          0.79844        -0.96334
14
 step=         478     theta[rad]=           5.0056
  C        -1.18534          1.50578        -0.17186
  C         0.05896          1.52093         0.28151
  C         1.17969          0.66824        -0.08546
  C         1.17920         -0.66745        -0.08640
  C         0.05862         -1.52232         0.28318
  C        -1.18503         -1.50462        -0.17275
  H         0.30619          2.18955         1.10501
  H         2.13715          1.16672        -0.20666
  H         2.13786         -1.16372        -0.20721
  H         0.30156         -2.19488         1.10402
  H        -1.99011         -2.06607         0.28082
  H        -1.44493         -0.88816        -1.01934
  H        -1.99393          2.06493         0.27775
  H        -1.43795          0.88399        -1.01735
14
 step=         479     theta[rad]=           5.0161
  C        -1.18549          1.48662        -0.18225
  C         0.05237          1.53758         0.31324
  C         1.18936          0.67908        -0.10252
  C         1.19058         -0.68109        -0.10012
  C         0.05324         -1.53406         0.30901
  C        -1.18630         -1.48957        -0.17999
  H         0.23249          2.31898         1.05312
  H         2.16148          1.15999        -0.18047
  H         2.15969         -1.16758        -0.17909
  H         0.24423         -2.30547         1.05561
  H        -1.92613         -2.10287         0.32880
  H        -1.50569         -1.01520        -1.10180
  H        -1.91644          2.10576         0.33656
  H        -1.52336          1.02578        -1.10688
14
 step=         480     theta[rad]=           5.0265
  C        -1.18549          1.48662        -0.18225
  C         0.05237          1.53758         0.31324
  C         1.18936          0.67908        -0.10252
  C         1.19058         -0.68109        -0.10012
  C         0.05324         -1.53406         0.30901
  C        -1.18630         -1.48957        -0.17999
  H         0.23249          2.31898         1.05312
  H         2.16148          1.15999        -0.18047
  H         2.15969         -1.16758        -0.17909
  H         0.24423         -2.30547         1.05561
  H        -1.92613         -2.10287         0.32880
  H        -1.50569         -1.01520        -1.10180
  H        -1.91644          2.10576         0.33656
  H        -1.52336          1.02578        -1.10688
14
 step=         481     theta[rad]=           5.0370
  C        -1.18535          1.50545        -0.17204
  C         0.05885          1.52123         0.28207
  C         1.17986          0.66843        -0.08576
  C         1.17940         -0.66769        -0.08665
  C         0.05853         -1.52253         0.28364
  C        -1.18505         -1.50435        -0.17288
  H         0.30488          2.19184         1.10409
  H         2.13758          1.16660        -0.20620
  H         2.13824         -1.16379        -0.20672
  H         0.30055         -2.19684         1.10317
  H        -1.98898         -2.06672         0.28167
  H        -1.44600         -0.89040        -1.02080
  H        -1.99256          2.06565         0.27879
  H        -1.43946          0.88649        -1.01893
14
 step=         482     theta[rad]=           5.0475
  C        -1.18526          1.51735        -0.16559
  C         0.06294          1.51089         0.26237
  C         1.17385          0.66171        -0.07516
  C         1.17234         -0.65921        -0.07813
  C         0.06187         -1.51524         0.26759
  C        -1.18426         -1.51370        -0.16838
  H         0.35065          2.11146         1.13632
  H         2.12247          1.17077        -0.22247
  H         2.12469         -1.16140        -0.22418
  H         0.33615         -2.12816         1.13323
  H        -2.02871         -2.04388         0.25187
  H        -1.40827         -0.81151        -0.96960
  H        -2.04068          2.04029         0.24228
  H        -1.38642          0.79844        -0.96334
14
 step=         483     theta[rad]=           5.0580
  C        -1.18534          1.50662        -0.17141
  C         0.05925          1.52021         0.28013
  C         1.17927          0.66777        -0.08471
  C         1.17871         -0.66685        -0.08581
  C         0.05886         -1.52181         0.28205
  C        -1.18497         -1.50528        -0.17243
  H         0.30940          2.18391         1.10727
  H         2.13609          1.16701        -0.20781
  H         2.13690         -1.16356        -0.20844
  H         0.30406         -2.19006         1.10613
  H        -1.99290         -2.06447         0.27873
  H        -1.44228         -0.88262        -1.01575
  H        -1.99731          2.06315         0.27519
  H        -1.43423          0.87781        -1.01345
14
 step=         484     theta[rad]=           5.0684
  C        -1.18548          1.48774        -0.18165
  C         0.05276          1.53661         0.31139
  C         1.18879          0.67844        -0.10152
  C         1.18991         -0.68030        -0.09932
  C         0.05355         -1.53337         0.30750
  C        -1.18623         -1.49045        -0.17957
  H         0.23680          2.31143         1.05615
  H         2.16006          1.16039        -0.18200
  H         2.15841         -1.16736        -0.18073
  H         0.24758         -2.29901         1.05844
  H        -1.92986         -2.10072         0.32600
  H        -1.50214         -1.00778        -1.09698
  H        -1.92097          2.10338         0.33312
  H        -1.51837          1.01750        -1.10165
14
 step=         485     theta[rad]=           5.0789
  C        -1.18550          1.48522        -0.18301
  C         0.05189          1.53879         0.31555
  C         1.19006          0.67987        -0.10376
  C         1.19141         -0.68209        -0.10112
  C         0.05284         -1.53491         0.31089
  C        -1.18639         -1.48847        -0.18052
  H         0.22714          2.32839         1.04934
  H         2.16325          1.15950        -0.17857
  H         2.16127         -1.16786        -0.17704
  H         0.24007         -2.31351         1.05209
  H        -1.92147         -2.10554         0.33229
  H        -1.51010         -1.02443        -1.10779
  H        -1.91081          2.10873         0.34083
  H        -1.52957          1.03609        -1.11338
14
 step=         486     theta[rad]=           5.0894
  C        -1.18537          1.50196        -0.17393
  C         0.05765          1.52425         0.28784
  C         1.18161          0.67040        -0.08886
  C         1.18147         -0.67017        -0.08914
  C         0.05755         -1.52466         0.28833
  C        -1.18528         -1.50162        -0.17419
  H         0.29150          2.21535         1.09467
  H         2.14200          1.16538        -0.20144
  H         2.14221         -1.16449        -0.20161
  H         0.29013         -2.21693         1.09437
  H        -1.97735         -2.07341         0.29039
  H        -1.45704         -0.91348        -1.03578
  H        -1.97848          2.07307         0.28948
  H        -1.45498          0.91225        -1.03520
14
 step=         487     theta[rad]=           5.0999
  C        -1.18526          1.51663        -0.16598
  C         0.06269          1.51151         0.26356
  C         1.17421          0.66211        -0.07580
  C         1.17277         -0.65972        -0.07864
  C         0.06167         -1.51568         0.26856
  C        -1.18431         -1.51314        -0.16865
  H         0.34789          2.11630         1.13438
  H         2.12338          1.17052        -0.22149
  H         2.12550         -1.16154        -0.22313
  H         0.33400         -2.13230         1.13142
  H        -2.02632         -2.04525         0.25367
  H        -1.41054         -0.81626        -0.97268
  H        -2.03778          2.04182         0.24448
  H        -1.38962          0.80374        -0.96668
14
 step=         488     theta[rad]=           5.1103
  C        -1.18530          1.51120        -0.16892
  C         0.06082          1.51623         0.27256
  C         1.17696          0.66518        -0.08064
  C         1.17599         -0.66359        -0.08253
  C         0.06015         -1.51901         0.27589
  C        -1.18467         -1.50887        -0.17070
  H         0.32699          2.15301         1.11966
  H         2.13028          1.16861        -0.21406
  H         2.13169         -1.16263        -0.21515
  H         0.31775         -2.16366         1.11769
  H        -2.00817         -2.05569         0.26728
  H        -1.42778         -0.85229        -0.99606
  H        -2.01581          2.05340         0.26115
  H        -1.41384          0.84395        -0.99207
14
 step=         489     theta[rad]=           5.1208
  C        -1.18544          1.49265        -0.17898
  C         0.05445          1.53234         0.30326
  C         1.18631          0.67567        -0.09715
  C         1.18700         -0.67680        -0.09580
  C         0.05493         -1.53036         0.30088
  C        -1.18590         -1.49431        -0.17771
  H         0.25569          2.27825         1.06945
  H         2.15382          1.16211        -0.18872
  H         2.15281         -1.16637        -0.18794
  H         0.26228         -2.27066         1.07085
  H        -1.94626         -2.09129         0.31370
  H        -1.48656         -0.97521        -1.07584
  H        -1.94083          2.09291         0.31805
  H        -1.49648          0.98115        -1.07870
14
 step=         490     theta[rad]=           5.1313
  C        -1.18551          1.48339        -0.18400
  C         0.05127          1.54038         0.31857
  C         1.19098          0.68090        -0.10539
  C         1.19249         -0.68339        -0.10243
  C         0.05233         -1.53603         0.31336
  C        -1.18652         -1.48704        -0.18121
  H         0.22010          2.34074         1.04439
  H         2.16557          1.15886        -0.17607
  H         2.16335         -1.16823        -0.17436
  H         0.23460         -2.32406         1.04747
  H        -1.91537         -2.10905         0.33687
  H        -1.51590         -1.03655        -1.11566
  H        -1.90341          2.11263         0.34644
  H        -1.53771          1.04962        -1.12192
14
 step=         491     theta[rad]=           5.1417
  C        -1.18543          1.49411        -0.17819
  C         0.05495          1.53107         0.30084
  C         1.18558          0.67484        -0.09585
  C         1.18613         -0.67576        -0.09476
  C         0.05534         -1.52947         0.29892
  C        -1.18580         -1.49545        -0.17716
  H         0.26130          2.26839         1.07340
  H         2.15197          1.16262        -0.19071
  H         2.15115         -1.16607        -0.19008
  H         0.26664         -2.26225         1.07453
  H        -1.95113         -2.08849         0.31005
  H        -1.48194         -0.96554        -1.06957
  H        -1.94673          2.08980         0.31357
  H        -1.48997          0.97036        -1.07188
14
 step=         492     theta[rad]=           5.1522
  C        -1.18530          1.51200        -0.16849
  C         0.06110          1.51554         0.27123
  C         1.17655          0.66473        -0.07992
  C         1.17552         -0.66302        -0.08196
  C         0.06037         -1.51852         0.27481
  C        -1.18462         -1.50950        -0.17040
  H         0.33007          2.14760         1.12183
  H         2.12927          1.16890        -0.21515
  H         2.13078         -1.16247        -0.21633
  H         0.32014         -2.15904         1.11971
  H        -2.01085         -2.05415         0.26527
  H        -1.42524         -0.84698        -0.99262
  H        -2.01904          2.05170         0.25870
  H        -1.41027          0.83803        -0.98833
14
 step=         493     theta[rad]=           5.1627
  C        -1.18526          1.51658        -0.16601
  C         0.06267          1.51156         0.26365
  C         1.17424          0.66214        -0.07584
  C         1.17280         -0.65976        -0.07868
  C         0.06166         -1.51571         0.26863
  C        -1.18431         -1.51310        -0.16867
  H         0.34769          2.11666         1.13424
  H         2.12345          1.17050        -0.22141
  H         2.12556         -1.16155        -0.22305
  H         0.33385         -2.13260         1.13129
  H        -2.02614         -2.04535         0.25380
  H        -1.41071         -0.81661        -0.97290
  H        -2.03757          2.04193         0.24464
  H        -1.38985          0.80413        -0.96693
14
 step=         494     theta[rad]=           5.1732
  C        -1.18537          1.50302        -0.17336
  C         0.05801          1.52333         0.28609
  C         1.18108          0.66980        -0.08791
  C         1.18084         -0.66941        -0.08838
  C         0.05785         -1.52401         0.28690
  C        -1.18521         -1.50245        -0.17379
  H         0.29557          2.20820         1.09753
  H         2.14066          1.16575        -0.20289
  H         2.14100         -1.16428        -0.20316
  H         0.29330         -2.21082         1.09705
  H        -1.98089         -2.07138         0.28773
  H        -1.45368         -0.90646        -1.03122
  H        -1.98276          2.07081         0.28623
  H        -1.45026          0.90442        -1.03025
14
 step=         495     theta[rad]=           5.1836
  C        -1.18549          1.48662        -0.18225
  C         0.05237          1.53758         0.31324
  C         1.18936          0.67908        -0.10252
  C         1.19058         -0.68109        -0.10012
  C         0.05324         -1.53406         0.30901
  C        -1.18630         -1.48957        -0.17999
  H         0.23249          2.31898         1.05312
  H         2.16148          1.15999        -0.18047
  H         2.15969         -1.16758        -0.17909
  H         0.24423         -2.30547         1.05561
  H        -1.92613         -2.10287         0.32880
  H        -1.50569         -1.01520        -1.10180
  H        -1.91644          2.10576         0.33656
  H        -1.52336          1.02578        -1.10688
14
 step=         496     theta[rad]=           5.1941
  C        -1.18550          1.48514        -0.18305
  C         0.05187          1.53886         0.31568
  C         1.19010          0.67991        -0.10383
  C         1.19145         -0.68214        -0.10117
  C         0.05282         -1.53496         0.31100
  C        -1.18640         -1.48841        -0.18055
  H         0.22683          2.32893         1.04913
  H         2.16335          1.15948        -0.17846
  H         2.16136         -1.16788        -0.17693
  H         0.23983         -2.31397         1.05189
  H        -1.92121         -2.10570         0.33249
  H        -1.51035         -1.02496        -1.10813
  H        -1.91048          2.10890         0.34108
  H        -1.52992          1.03668        -1.11376
14
 step=         497     theta[rad]=           5.2046
  C        -1.18539          1.49983        -0.17509
  C         0.05692          1.52610         0.29137
  C         1.18269          0.67161        -0.09076
  C         1.18274         -0.67169        -0.09066
  C         0.05695         -1.52597         0.29120
  C        -1.18542         -1.49994        -0.17500
  H         0.28329          2.22976         1.08889
  H         2.14471          1.16463        -0.19853
  H         2.14464         -1.16492        -0.19848
  H         0.28375         -2.22923         1.08898
  H        -1.97023         -2.07750         0.29573
  H        -1.46380         -0.92762        -1.04495
  H        -1.96986          2.07761         0.29602
  H        -1.46448          0.92803        -1.04516
14
 step=         498     theta[rad]=           5.2150
  C        -1.18528          1.51499        -0.16687
  C         0.06213          1.51294         0.26628
  C         1.17504          0.66304        -0.07726
  C         1.17374         -0.66089        -0.07981
  C         0.06121         -1.51668         0.27077
  C        -1.18442         -1.51185        -0.16927
  H         0.34158          2.12739         1.12994
  H         2.12547          1.16995        -0.21924
  H         2.12737         -1.16187        -0.22072
  H         0.32910         -2.14177         1.12728
  H        -2.02084         -2.04840         0.25778
  H        -1.41575         -0.82714        -0.97974
  H        -2.03115          2.04532         0.24951
  H        -1.39693          0.81588        -0.97435
14
 step=         499     theta[rad]=           5.2255
  C        -1.18528          1.51508        -0.16682
  C         0.06216          1.51286         0.26613
  C         1.17500          0.66299        -0.07718
  C         1.17369         -0.66083        -0.07975
  C         0.06124         -1.51663         0.27065
  C        -1.18441         -1.51192        -0.16923
  H         0.34193          2.12678         1.13018
  H         2.12535          1.16998        -0.21937
  H         2.12727         -1.16185        -0.22086
  H         0.32936         -2.14125         1.12750
  H        -2.02114         -2.04823         0.25755
  H        -1.41546         -0.82654        -0.97935
  H        -2.03151          2.04513         0.24924
  H        -1.39653          0.81522        -0.97393
14
 step=         500     theta[rad]=           5.2360
  C        -1.18538          1.50036        -0.17480
  C         0.05710          1.52564         0.29049
  C         1.18242          0.67131        -0.09028
  C         1.18242         -0.67131        -0.09028
  C         0.05710         -1.52564         0.29049
  C        -1.18539         -1.50036        -0.17480
  H         0.28535          2.22615         1.09034
  H         2.14403          1.16481        -0.19926
  H         2.14403         -1.16482        -0.19926
  H         0.28535         -2.22615         1.09033
  H        -1.97202         -2.07648         0.29439
  H        -1.46211         -0.92408        -1.04266
  H        -1.97202          2.07648         0.29438
  H        -1.46210          0.92408        -1.04267
14
 step=         501     theta[rad]=           5.2465
  C        -1.18549          1.48574        -0.18273
  C         0.05207          1.53834         0.31470
  C         1.18980          0.67957        -0.10330
  C         1.19110         -0.68172        -0.10075
  C         0.05299         -1.53460         0.31020
  C        -1.18636         -1.48888        -0.18032
  H         0.22911          2.32492         1.05074
  H         2.16259          1.15968        -0.17927
  H         2.16069         -1.16776        -0.17780
  H         0.24160         -2.31054         1.05339
  H        -1.92319         -2.10455         0.33100
  H        -1.50847         -1.02102        -1.10558
  H        -1.91289          2.10764         0.33925
  H        -1.52727          1.03228        -1.11098
14
 step=         502     theta[rad]=           5.2569
  C        -1.18550          1.48539        -0.18292
  C         0.05195          1.53865         0.31527
  C         1.18998          0.67977        -0.10361
  C         1.19131         -0.68197        -0.10100
  C         0.05289         -1.53481         0.31067
  C        -1.18638         -1.48860        -0.18046
  H         0.22777          2.32728         1.04979
  H         2.16304          1.15956        -0.17880
  H         2.16108         -1.16783        -0.17729
  H         0.24056         -2.31256         1.05251
  H        -1.92202         -2.10523         0.33188
  H        -1.50958         -1.02334        -1.10708
  H        -1.91147          2.10838         0.34033
  H        -1.52883          1.03487        -1.11261
14
 step=         503     theta[rad]=           5.2674
  C        -1.18539          1.49930        -0.17538
  C         0.05673          1.52657         0.29225
  C         1.18296          0.67191        -0.09123
  C         1.18305         -0.67207        -0.09105
  C         0.05680         -1.52629         0.29192
  C        -1.18546         -1.49953        -0.17520
  H         0.28124          2.23336         1.08745
  H         2.14538          1.16444        -0.19780
  H         2.14524         -1.16503        -0.19770
  H         0.28216         -2.23231         1.08764
  H        -1.96845         -2.07853         0.29706
  H        -1.46549         -0.93115        -1.04725
  H        -1.96770          2.07875         0.29766
  H        -1.46686          0.93198        -1.04765
14
 step=         504     theta[rad]=           5.2779
  C        -1.18528          1.51411        -0.16734
  C         0.06183          1.51370         0.26773
  C         1.17549          0.66354        -0.07804
  C         1.17426         -0.66152        -0.08044
  C         0.06096         -1.51722         0.27196
  C        -1.18447         -1.51116        -0.16960
  H         0.33820          2.13332         1.12756
  H         2.12658          1.16964        -0.21804
  H         2.12837         -1.16205        -0.21943
  H         0.32647         -2.14684         1.12506
  H        -2.01791         -2.05009         0.25998
  H        -1.41853         -0.83297        -0.98352
  H        -2.02759          2.04719         0.25221
  H        -1.40084          0.82238        -0.97845
14
 step=         505     theta[rad]=           5.2883
  C        -1.18527          1.51623        -0.16620
  C         0.06255          1.51186         0.26423
  C         1.17442          0.66234        -0.07616
  C         1.17300         -0.66001        -0.07893
  C         0.06156         -1.51593         0.26910
  C        -1.18433         -1.51282        -0.16880
  H         0.34634          2.11903         1.13329
  H         2.12390          1.17038        -0.22093
  H         2.12596         -1.16162        -0.22254
  H         0.33280         -2.13462         1.13040
  H        -2.02497         -2.04603         0.25468
  H        -1.41182         -0.81894        -0.97441
  H        -2.03615          2.04268         0.24571
  H        -1.39141          0.80673        -0.96857
14
 step=         506     theta[rad]=           5.2988
  C        -1.18536          1.50407        -0.17279
  C         0.05837          1.52242         0.28435
  C         1.18055          0.66921        -0.08698
  C         1.18022         -0.66867        -0.08763
  C         0.05814         -1.52337         0.28549
  C        -1.18514         -1.50328        -0.17339
  H         0.29960          2.20112         1.10037
  H         2.13933          1.16612        -0.20432
  H         2.13981         -1.16407        -0.20470
  H         0.29644         -2.20477         1.09969
  H        -1.98439         -2.06936         0.28511
  H        -1.45036         -0.89951        -1.02671
  H        -1.98700          2.06858         0.28301
  H        -1.44558          0.89666        -1.02535
14
 step=         507     theta[rad]=           5.3093
  C        -1.18547          1.48873        -0.18111
  C         0.05310          1.53574         0.30974
  C         1.18829          0.67788        -0.10064
  C         1.18932         -0.67959        -0.09861
  C         0.05383         -1.53276         0.30616
  C        -1.18616         -1.49123        -0.17919
  H         0.24062          2.30470         1.05884
  H         2.15879          1.16073        -0.18336
  H         2.15728         -1.16716        -0.18219
  H         0.25056         -2.29327         1.06095
  H        -1.93319         -2.09881         0.32351
  H        -1.49898         -1.00118        -1.09270
  H        -1.92499          2.10126         0.33007
  H        -1.51393          1.01014        -1.09700
14
 step=         508     theta[rad]=           5.3198
  C        -1.18551          1.48355        -0.18392
  C         0.05132          1.54024         0.31831
  C         1.19090          0.68081        -0.10525
  C         1.19240         -0.68328        -0.10231
  C         0.05237         -1.53593         0.31314
  C        -1.18650         -1.48716        -0.18115
  H         0.22072          2.33967         1.04482
  H         2.16537          1.15892        -0.17629
  H         2.16317         -1.16820        -0.17459
  H         0.23507         -2.32314         1.04787
  H        -1.91590         -2.10875         0.33647
  H        -1.51539         -1.03550        -1.11497
  H        -1.90406          2.11229         0.34595
  H        -1.53701          1.04844        -1.12118
14
 step=         509     theta[rad]=           5.3302
  C        -1.18544          1.49265        -0.17898
  C         0.05445          1.53234         0.30326
  C         1.18631          0.67567        -0.09715
  C         1.18700         -0.67680        -0.09580
  C         0.05493         -1.53036         0.30088
  C        -1.18590         -1.49431        -0.17771
  H         0.25569          2.27825         1.06945
  H         2.15382          1.16211        -0.18872
  H         2.15281         -1.16637        -0.18794
  H         0.26228         -2.27066         1.07085
  H        -1.94626         -2.09129         0.31370
  H        -1.48656         -0.97521        -1.07584
  H        -1.94083          2.09291         0.31805
  H        -1.49648          0.98115        -1.07870
14
 step=         510     theta[rad]=           5.3407
  C        -1.18533          1.50808        -0.17062
  C         0.05975          1.51894         0.27772
  C         1.17853          0.66695        -0.08341
  C         1.17784         -0.66581        -0.08476
  C         0.05927         -1.52092         0.28009
  C        -1.18488         -1.50642        -0.17188
  H         0.31501          2.17406         1.11122
  H         2.13424          1.16752        -0.20980
  H         2.13524         -1.16326        -0.21058
  H         0.30842         -2.18164         1.10982
  H        -1.99777         -2.06167         0.27508
  H        -1.43766         -0.87295        -1.00947
  H        -2.00320          2.06004         0.27072
  H        -1.42773          0.86701        -1.00663
14
 step=         511     theta[rad]=           5.3512
  C        -1.18526          1.51712        -0.16571
  C         0.06286          1.51109         0.26275
  C         1.17397          0.66184        -0.07536
  C         1.17248         -0.65938        -0.07829
  C         0.06181         -1.51538         0.26790
  C        -1.18427         -1.51352        -0.16846
  H         0.34976          2.11301         1.13570
  H         2.12277          1.17069        -0.22215
  H         2.12495         -1.16144        -0.22385
  H         0.33546         -2.12949         1.13265
  H        -2.02795         -2.04432         0.25245
  H        -1.40900         -0.81303        -0.97058
  H        -2.03975          2.04078         0.24298
  H        -1.38744          0.80014        -0.96441
14
 step=         512     theta[rad]=           5.3617
  C        -1.18529          1.51275        -0.16808
  C         0.06136          1.51488         0.26998
  C         1.17617          0.66431        -0.07925
  C         1.17507         -0.66249        -0.08142
  C         0.06058         -1.51806         0.27379
  C        -1.18456         -1.51009        -0.17011
  H         0.33297          2.14251         1.12387
  H         2.12831          1.16916        -0.21618
  H         2.12992         -1.16232        -0.21744
  H         0.32240         -2.15468         1.12162
  H        -2.01337         -2.05270         0.26338
  H        -1.42284         -0.84198        -0.98937
  H        -2.02209          2.05009         0.25638
  H        -1.40691          0.83245        -0.98481
14
 step=         513     theta[rad]=           5.3721
  C        -1.18540          1.49876        -0.17567
  C         0.05655          1.52703         0.29313
  C         1.18323          0.67221        -0.09170
  C         1.18337         -0.67244        -0.09143
  C         0.05665         -1.52662         0.29264
  C        -1.18549         -1.49911        -0.17540
  H         0.27920          2.23695         1.08601
  H         2.14606          1.16425        -0.19707
  H         2.14585         -1.16514        -0.19691
  H         0.28057         -2.23538         1.08629
  H        -1.96668         -2.07955         0.29839
  H        -1.46718         -0.93468        -1.04954
  H        -1.96555          2.07988         0.29929
  H        -1.46923          0.93591        -1.05013
14
 step=         514     theta[rad]=           5.3826
  C        -1.18549          1.48611        -0.18253
  C         0.05220          1.53802         0.31408
  C         1.18961          0.67936        -0.10297
  C         1.19088         -0.68145        -0.10048
  C         0.05309         -1.53437         0.30969
  C        -1.18633         -1.48917        -0.18018
  H         0.23056          2.32239         1.05175
  H         2.16212          1.15982        -0.17978
  H         2.16026         -1.16768        -0.17835
  H         0.24273         -2.30838         1.05434
  H        -1.92444         -2.10383         0.33006
  H        -1.50728         -1.01854        -1.10396
  H        -1.91440          2.10684         0.33810
  H        -1.52560          1.02951        -1.10923
14
 step=         515     theta[rad]=           5.3931
  C        -1.18550          1.48420        -0.18356
  C         0.05154          1.53968         0.31724
  C         1.19057          0.68044        -0.10467
  C         1.19201         -0.68281        -0.10185
  C         0.05256         -1.53554         0.31227
  C        -1.18646         -1.48767        -0.18090
  H         0.22321          2.33528         1.04658
  H         2.16454          1.15915        -0.17718
  H         2.16243         -1.16807        -0.17555
  H         0.23701         -2.31940         1.04951
  H        -1.91807         -2.10750         0.33484
  H        -1.51334         -1.03120        -1.11218
  H        -1.90668          2.11090         0.34396
  H        -1.53411          1.04364        -1.11815
14
 step=         516     theta[rad]=           5.4035
  C        -1.18543          1.49411        -0.17819
  C         0.05495          1.53107         0.30084
  C         1.18558          0.67484        -0.09585
  C         1.18613         -0.67576        -0.09476
  C         0.05534         -1.52947         0.29892
  C        -1.18580         -1.49545        -0.17716
  H         0.26130          2.26839         1.07340
  H         2.15197          1.16262        -0.19071
  H         2.15115         -1.16607        -0.19008
  H         0.26664         -2.26225         1.07453
  H        -1.95113         -2.08849         0.31005
  H        -1.48194         -0.96554        -1.06957
  H        -1.94673          2.08980         0.31357
  H        -1.48997          0.97036        -1.07188
14
 step=         517     theta[rad]=           5.4140
  C        -1.18533          1.50839        -0.17044
  C         0.05986          1.51867         0.27719
  C         1.17837          0.66677        -0.08313
  C         1.17765         -0.66559        -0.08454
  C         0.05936         -1.52072         0.27966
  C        -1.18485         -1.50667        -0.17176
  H         0.31622          2.17193         1.11208
  H         2.13384          1.16763        -0.21023
  H         2.13488         -1.16320        -0.21104
  H         0.30937         -2.17982         1.11061
  H        -1.99882         -2.06106         0.27429
  H        -1.43666         -0.87086        -1.00812
  H        -2.00448          2.05937         0.26975
  H        -1.42632          0.86468        -1.00516
14
 step=         518     theta[rad]=           5.4245
  C        -1.18526          1.51695        -0.16581
  C         0.06280          1.51124         0.26304
  C         1.17405          0.66193        -0.07552
  C         1.17258         -0.65950        -0.07841
  C         0.06176         -1.51549         0.26813
  C        -1.18429         -1.51339        -0.16853
  H         0.34911          2.11417         1.13523
  H         2.12298          1.17063        -0.22192
  H         2.12514         -1.16148        -0.22360
  H         0.33495         -2.13047         1.13222
  H        -2.02737         -2.04464         0.25288
  H        -1.40954         -0.81417        -0.97132
  H        -2.03906          2.04115         0.24351
  H        -1.38821          0.80140        -0.96521
14
 step=         519     theta[rad]=           5.4350
  C        -1.18528          1.51411        -0.16734
  C         0.06183          1.51370         0.26773
  C         1.17549          0.66354        -0.07804
  C         1.17426         -0.66152        -0.08044
  C         0.06096         -1.51722         0.27196
  C        -1.18447         -1.51116        -0.16960
  H         0.33820          2.13332         1.12756
  H         2.12658          1.16964        -0.21804
  H         2.12837         -1.16205        -0.21943
  H         0.32647         -2.14684         1.12506
  H        -2.01791         -2.05009         0.25998
  H        -1.41853         -0.83297        -0.98352
  H        -2.02759          2.04719         0.25221
  H        -1.40084          0.82238        -0.97845
14
 step=         520     theta[rad]=           5.4454
  C        -1.18537          1.50214        -0.17384
  C         0.05771          1.52410         0.28755
  C         1.18152          0.67030        -0.08870
  C         1.18137         -0.67004        -0.08901
  C         0.05760         -1.52455         0.28809
  C        -1.18527         -1.50176        -0.17412
  H         0.29218          2.21416         1.09514
  H         2.14178          1.16544        -0.20169
  H         2.14201         -1.16446        -0.20187
  H         0.29066         -2.21591         1.09482
  H        -1.97795         -2.07307         0.28994
  H        -1.45648         -0.91231        -1.03502
  H        -1.97920          2.07269         0.28893
  H        -1.45419          0.91094        -1.03437
14
 step=         521     theta[rad]=           5.4559
  C        -1.18547          1.48913        -0.18089
  C         0.05324          1.53540         0.30909
  C         1.18809          0.67766        -0.10029
  C         1.18909         -0.67931        -0.09832
  C         0.05394         -1.53252         0.30563
  C        -1.18613         -1.49154        -0.17904
  H         0.24214          2.30204         1.05991
  H         2.15829          1.16087        -0.18390
  H         2.15683         -1.16708        -0.18277
  H         0.25174         -2.29099         1.06195
  H        -1.93450         -2.09805         0.32252
  H        -1.49773         -0.99856        -1.09100
  H        -1.92659          2.10042         0.32886
  H        -1.51217          1.00721        -1.09515
14
 step=         522     theta[rad]=           5.4664
  C        -1.18551          1.48338        -0.18401
  C         0.05126          1.54039         0.31860
  C         1.19099          0.68091        -0.10540
  C         1.19250         -0.68340        -0.10244
  C         0.05233         -1.53604         0.31338
  C        -1.18652         -1.48703        -0.18122
  H         0.22005          2.34084         1.04435
  H         2.16559          1.15886        -0.17605
  H         2.16337         -1.16823        -0.17434
  H         0.23455         -2.32415         1.04743
  H        -1.91532         -2.10908         0.33690
  H        -1.51595         -1.03665        -1.11572
  H        -1.90335          2.11266         0.34649
  H        -1.53778          1.04973        -1.12199
14
 step=         523     theta[rad]=           5.4768
  C        -1.18547          1.48822        -0.18138
  C         0.05293          1.53618         0.31058
  C         1.18855          0.67817        -0.10109
  C         1.18963         -0.67995        -0.09897
  C         0.05369         -1.53307         0.30685
  C        -1.18619         -1.49083        -0.17938
  H         0.23867          2.30814         1.05747
  H         2.15944          1.16056        -0.18267
  H         2.15786         -1.16726        -0.18145
  H         0.24904         -2.29620         1.05967
  H        -1.93149         -2.09978         0.32478
  H        -1.50059         -1.00455        -1.09488
  H        -1.92294          2.10234         0.33163
  H        -1.51620          1.01390        -1.09937
14
 step=         524     theta[rad]=           5.4873
  C        -1.18538          1.50036        -0.17480
  C         0.05710          1.52564         0.29049
  C         1.18242          0.67131        -0.09028
  C         1.18242         -0.67131        -0.09028
  C         0.05710         -1.52564         0.29049
  C        -1.18539         -1.50036        -0.17480
  H         0.28535          2.22615         1.09034
  H         2.14403          1.16481        -0.19926
  H         2.14403         -1.16481        -0.19926
  H         0.28535         -2.22615         1.09033
  H        -1.97202         -2.07648         0.29439
  H        -1.46211         -0.92408        -1.04266
  H        -1.97202          2.07648         0.29438
  H        -1.46210          0.92408        -1.04267
14
 step=         525     theta[rad]=           5.4978
  C        -1.18530          1.51238        -0.16828
  C         0.06123          1.51521         0.27060
  C         1.17636          0.66452        -0.07958
  C         1.17529         -0.66275        -0.08168
  C         0.06048         -1.51828         0.27429
  C        -1.18459         -1.50980        -0.17025
  H         0.33154          2.14502         1.12287
  H         2.12878          1.16903        -0.21568
  H         2.13034         -1.16240        -0.21689
  H         0.32129         -2.15683         1.12068
  H        -2.01213         -2.05341         0.26431
  H        -1.42402         -0.84444        -0.99097
  H        -2.02059          2.05088         0.25752
  H        -1.40856          0.83519        -0.98654
14
 step=         526     theta[rad]=           5.5083
  C        -1.18526          1.51736        -0.16558
  C         0.06294          1.51089         0.26236
  C         1.17385          0.66170        -0.07515
  C         1.17234         -0.65921        -0.07812
  C         0.06188         -1.51524         0.26758
  C        -1.18426         -1.51371        -0.16837
  H         0.35068          2.11141         1.13634
  H         2.12246          1.17078        -0.22248
  H         2.12468         -1.16139        -0.22419
  H         0.33617         -2.12812         1.13325
  H        -2.02874         -2.04386         0.25186
  H        -1.40825         -0.81146        -0.96956
  H        -2.04071          2.04028         0.24225
  H        -1.38639          0.79838        -0.96330
14
 step=         527     theta[rad]=           5.5187
  C        -1.18529          1.51275        -0.16808
  C         0.06136          1.51488         0.26998
  C         1.17617          0.66431        -0.07925
  C         1.17507         -0.66249        -0.08142
  C         0.06058         -1.51806         0.27379
  C        -1.18456         -1.51009        -0.17011
  H         0.33297          2.14251         1.12387
  H         2.12831          1.16916        -0.21618
  H         2.12992         -1.16232        -0.21744
  H         0.32240         -2.15468         1.12162
  H        -2.01337         -2.05270         0.26338
  H        -1.42284         -0.84198        -0.98937
  H        -2.02209          2.05009         0.25638
  H        -1.40691          0.83245        -0.98481
14
 step=         528     theta[rad]=           5.5292
  C        -1.18538          1.50143        -0.17422
  C         0.05747          1.52471         0.28872
  C         1.18188          0.67070        -0.08933
  C         1.18179         -0.67055        -0.08952
  C         0.05740         -1.52499         0.28905
  C        -1.18532         -1.50120        -0.17439
  H         0.28945          2.21895         1.09322
  H         2.14268          1.16519        -0.20072
  H         2.14281         -1.16460        -0.20083
  H         0.28854         -2.22000         1.09303
  H        -1.97558         -2.07443         0.29172
  H        -1.45873         -0.91701        -1.03807
  H        -1.97633          2.07420         0.29111
  H        -1.45735          0.91619        -1.03768
14
 step=         529     theta[rad]=           5.5397
  C        -1.18546          1.48967        -0.18060
  C         0.05342          1.53493         0.30819
  C         1.18782          0.67735        -0.09980
  C         1.18877         -0.67892        -0.09793
  C         0.05409         -1.53219         0.30490
  C        -1.18610         -1.49197        -0.17884
  H         0.24423          2.29837         1.06138
  H         2.15760          1.16106        -0.18465
  H         2.15621         -1.16697        -0.18357
  H         0.25337         -2.28785         1.06332
  H        -1.93632         -2.09701         0.32116
  H        -1.49601         -0.99496        -1.08866
  H        -1.92879          2.09926         0.32719
  H        -1.50975          1.00319        -1.09261
14
 step=         530     theta[rad]=           5.5501
  C        -1.18551          1.48358        -0.18390
  C         0.05133          1.54022         0.31827
  C         1.19089          0.68079        -0.10522
  C         1.19238         -0.68326        -0.10229
  C         0.05238         -1.53592         0.31311
  C        -1.18650         -1.48718        -0.18114
  H         0.22082          2.33949         1.04490
  H         2.16533          1.15893        -0.17632
  H         2.16314         -1.16819        -0.17463
  H         0.23515         -2.32299         1.04794
  H        -1.91599         -2.10870         0.33640
  H        -1.51531         -1.03532        -1.11486
  H        -1.90417          2.11223         0.34587
  H        -1.53689          1.04824        -1.12106
14
 step=         531     theta[rad]=           5.5606
  C        -1.18549          1.48602        -0.18258
  C         0.05217          1.53810         0.31423
  C         1.18966          0.67942        -0.10305
  C         1.19094         -0.68152        -0.10055
  C         0.05307         -1.53442         0.30982
  C        -1.18634         -1.48910        -0.18022
  H         0.23019          2.32304         1.05149
  H         2.16224          1.15978        -0.17965
  H         2.16037         -1.16770        -0.17821
  H         0.24244         -2.30893         1.05409
  H        -1.92412         -2.10402         0.33030
  H        -1.50759         -1.01918        -1.10438
  H        -1.91401          2.10704         0.33840
  H        -1.52603          1.03022        -1.10968
14
 step=         532     theta[rad]=           5.5711
  C        -1.18542          1.49545        -0.17746
  C         0.05541          1.52991         0.29862
  C         1.18490          0.67408        -0.09465
  C         1.18534         -0.67480        -0.09380
  C         0.05572         -1.52865         0.29710
  C        -1.18571         -1.49651        -0.17665
  H         0.26646          2.25932         1.07704
  H         2.15026          1.16309        -0.19255
  H         2.14962         -1.16580        -0.19205
  H         0.27066         -2.25449         1.07793
  H        -1.95562         -2.08591         0.30668
  H        -1.47768         -0.95663        -1.06379
  H        -1.95216          2.08694         0.30945
  H        -1.48399          0.96042        -1.06561
14
 step=         533     theta[rad]=           5.5816
  C        -1.18534          1.50711        -0.17114
  C         0.05942          1.51978         0.27932
  C         1.17902          0.66749        -0.08427
  C         1.17841         -0.66650        -0.08545
  C         0.05900         -1.52151         0.28139
  C        -1.18494         -1.50566        -0.17225
  H         0.31129          2.18058         1.10861
  H         2.13546          1.16718        -0.20848
  H         2.13634         -1.16346        -0.20916
  H         0.30553         -2.18722         1.10738
  H        -1.99454         -2.06352         0.27750
  H        -1.44072         -0.87935        -1.01363
  H        -1.99930          2.06210         0.27368
  H        -1.43203          0.87416        -1.01114
14
 step=         534     theta[rad]=           5.5920
  C        -1.18527          1.51550        -0.16659
  C         0.06231          1.51249         0.26542
  C         1.17478          0.66275        -0.07680
  C         1.17343         -0.66053        -0.07945
  C         0.06136         -1.51637         0.27008
  C        -1.18438         -1.51225        -0.16907
  H         0.34356          2.12391         1.13133
  H         2.12481          1.17013        -0.21995
  H         2.12679         -1.16177        -0.22148
  H         0.33063         -2.13880         1.12857
  H        -2.02256         -2.04741         0.25649
  H        -1.41412         -0.82373        -0.97753
  H        -2.03323          2.04422         0.24793
  H        -1.39464          0.81208        -0.97195
14
 step=         535     theta[rad]=           5.6025
  C        -1.18526          1.51698        -0.16578
  C         0.06281          1.51121         0.26297
  C         1.17404          0.66191        -0.07548
  C         1.17255         -0.65947        -0.07839
  C         0.06177         -1.51546         0.26808
  C        -1.18428         -1.51342        -0.16851
  H         0.34925          2.11391         1.13534
  H         2.12293          1.17065        -0.22197
  H         2.12510         -1.16147        -0.22365
  H         0.33506         -2.13025         1.13231
  H        -2.02750         -2.04457         0.25278
  H        -1.40942         -0.81392        -0.97116
  H        -2.03921          2.04107         0.24339
  H        -1.38804          0.80112        -0.96503
14
 step=         536     theta[rad]=           5.6130
  C        -1.18530          1.51120        -0.16892
  C         0.06082          1.51623         0.27256
  C         1.17696          0.66518        -0.08064
  C         1.17599         -0.66359        -0.08253
  C         0.06015         -1.51901         0.27589
  C        -1.18467         -1.50887        -0.17070
  H         0.32699          2.15301         1.11966
  H         2.13028          1.16861        -0.21406
  H         2.13169         -1.16263        -0.21515
  H         0.31775         -2.16366         1.11769
  H        -2.00817         -2.05569         0.26728
  H        -1.42778         -0.85229        -0.99606
  H        -2.01581          2.05340         0.26115
  H        -1.41384          0.84395        -0.99207
14
 step=         537     theta[rad]=           5.6235
  C        -1.18538          1.50090        -0.17451
  C         0.05728          1.52518         0.28960
  C         1.18215          0.67101        -0.08981
  C         1.18210         -0.67093        -0.08990
  C         0.05725         -1.52531         0.28977
  C        -1.18535         -1.50078        -0.17459
  H         0.28740          2.22255         1.09178
  H         2.14335          1.16500        -0.19999
  H         2.14342         -1.16471        -0.20004
  H         0.28695         -2.22307         1.09168
  H        -1.97380         -2.07545         0.29305
  H        -1.46042         -0.92054        -1.04036
  H        -1.97417          2.07534         0.29274
  H        -1.45972          0.92013        -1.04017
14
 step=         538     theta[rad]=           5.6339
  C        -1.18546          1.49052        -0.18014
  C         0.05372          1.53419         0.30678
  C         1.18739          0.67687        -0.09904
  C         1.18826         -0.67832        -0.09733
  C         0.05433         -1.53167         0.30375
  C        -1.18604         -1.49263        -0.17852
  H         0.24750          2.29262         1.06369
  H         2.15652          1.16136        -0.18581
  H         2.15524         -1.16680        -0.18482
  H         0.25591         -2.28295         1.06547
  H        -1.93916         -2.09537         0.31903
  H        -1.49331         -0.98932        -1.08500
  H        -1.93222          2.09745         0.32458
  H        -1.50596          0.99690        -1.08864
14
 step=         539     theta[rad]=           5.6444
  C        -1.18550          1.48420        -0.18356
  C         0.05154          1.53968         0.31724
  C         1.19057          0.68044        -0.10467
  C         1.19201         -0.68281        -0.10185
  C         0.05256         -1.53554         0.31227
  C        -1.18646         -1.48767        -0.18090
  H         0.22321          2.33528         1.04658
  H         2.16454          1.15915        -0.17718
  H         2.16243         -1.16807        -0.17555
  H         0.23701         -2.31940         1.04951
  H        -1.91807         -2.10750         0.33484
  H        -1.51334         -1.03120        -1.11218
  H        -1.90668          2.11090         0.34396
  H        -1.53411          1.04364        -1.11815
14
 step=         540     theta[rad]=           5.6549
  C        -1.18550          1.48420        -0.18356
  C         0.05154          1.53968         0.31724
  C         1.19057          0.68044        -0.10467
  C         1.19201         -0.68281        -0.10185
  C         0.05256         -1.53554         0.31227
  C        -1.18646         -1.48767        -0.18090
  H         0.22321          2.33528         1.04658
  H         2.16454          1.15915        -0.17718
  H         2.16243         -1.16807        -0.17555
  H         0.23701         -2.31940         1.04951
  H        -1.91807         -2.10750         0.33484
  H        -1.51334         -1.03120        -1.11218
  H        -1.90668          2.11090         0.34396
  H        -1.53411          1.04364        -1.11815
14
 step=         541     theta[rad]=           5.6653
  C        -1.18546          1.49023        -0.18029
  C         0.05362          1.53444         0.30726
  C         1.18753          0.67703        -0.09930
  C         1.18843         -0.67852        -0.09753
  C         0.05425         -1.53184         0.30414
  C        -1.18606         -1.49241        -0.17863
  H         0.24639          2.29457         1.06291
  H         2.15689          1.16126        -0.18541
  H         2.15557         -1.16685        -0.18439
  H         0.25505         -2.28461         1.06474
  H        -1.93820         -2.09593         0.31975
  H        -1.49422         -0.99123        -1.08624
  H        -1.93106          2.09806         0.32546
  H        -1.50725          0.99903        -1.08999
14
 step=         542     theta[rad]=           5.6758
  C        -1.18539          1.49983        -0.17509
  C         0.05692          1.52610         0.29137
  C         1.18269          0.67161        -0.09076
  C         1.18274         -0.67169        -0.09066
  C         0.05695         -1.52597         0.29120
  C        -1.18542         -1.49994        -0.17500
  H         0.28329          2.22976         1.08889
  H         2.14471          1.16463        -0.19853
  H         2.14464         -1.16492        -0.19848
  H         0.28375         -2.22923         1.08898
  H        -1.97023         -2.07750         0.29573
  H        -1.46380         -0.92762        -1.04495
  H        -1.96986          2.07761         0.29602
  H        -1.46448          0.92803        -1.04516
14
 step=         543     theta[rad]=           5.6863
  C        -1.18532          1.50947        -0.16986
  C         0.06023          1.51773         0.27541
  C         1.17783          0.66616        -0.08217
  C         1.17702         -0.66482        -0.08377
  C         0.05966         -1.52006         0.27821
  C        -1.18478         -1.50751        -0.17135
  H         0.32035          2.16467         1.11499
  H         2.13247          1.16801        -0.21170
  H         2.13366         -1.16298        -0.21262
  H         0.31258         -2.17362         1.11333
  H        -2.00241         -2.05900         0.27160
  H        -1.43325         -0.86373        -1.00349
  H        -2.00883          2.05708         0.26645
  H        -1.42153          0.85673        -1.00014
14
 step=         544     theta[rad]=           5.6968
  C        -1.18527          1.51589        -0.16638
  C         0.06244          1.51216         0.26479
  C         1.17459          0.66253        -0.07646
  C         1.17321         -0.66025        -0.07917
  C         0.06146         -1.51613         0.26956
  C        -1.18436         -1.51255        -0.16893
  H         0.34503          2.12133         1.13236
  H         2.12433          1.17026        -0.22047
  H         2.12635         -1.16169        -0.22204
  H         0.33178         -2.13659         1.12954
  H        -2.02384         -2.04668         0.25553
  H        -1.41290         -0.82119        -0.97588
  H        -2.03477          2.04341         0.24676
  H        -1.39293          0.80924        -0.97016
14
 step=         545     theta[rad]=           5.7072
  C        -1.18526          1.51715        -0.16570
  C         0.06287          1.51107         0.26271
  C         1.17395          0.66182        -0.07534
  C         1.17246         -0.65936        -0.07827
  C         0.06182         -1.51536         0.26786
  C        -1.18427         -1.51354        -0.16845
  H         0.34987          2.11282         1.13578
  H         2.12273          1.17070        -0.22219
  H         2.12491         -1.16144        -0.22389
  H         0.33555         -2.12932         1.13272
  H        -2.02804         -2.04426         0.25238
  H        -1.40891         -0.81284        -0.97046
  H        -2.03987          2.04072         0.24289
  H        -1.38732          0.79992        -0.96427
14
 step=         546     theta[rad]=           5.7177
  C        -1.18529          1.51311        -0.16789
  C         0.06148          1.51457         0.26939
  C         1.17599          0.66410        -0.07893
  C         1.17485         -0.66223        -0.08116
  C         0.06068         -1.51784         0.27331
  C        -1.18454         -1.51037        -0.16998
  H         0.33435          2.14008         1.12485
  H         2.12785          1.16929        -0.21667
  H         2.12951         -1.16225        -0.21796
  H         0.32347         -2.15261         1.12253
  H        -2.01457         -2.05201         0.26248
  H        -1.42171         -0.83960        -0.98783
  H        -2.02355          2.04932         0.25528
  H        -1.40530          0.82979        -0.98313
14
 step=         547     theta[rad]=           5.7282
  C        -1.18535          1.50528        -0.17214
  C         0.05879          1.52138         0.28236
  C         1.17994          0.66853        -0.08591
  C         1.17950         -0.66781        -0.08677
  C         0.05848         -1.52263         0.28387
  C        -1.18506         -1.50422        -0.17294
  H         0.30423          2.19299         1.10363
  H         2.13780          1.16654        -0.20597
  H         2.13844         -1.16383        -0.20647
  H         0.30004         -2.19782         1.10274
  H        -1.98841         -2.06705         0.28209
  H        -1.44654         -0.89153        -1.02153
  H        -1.99187          2.06601         0.27931
  H        -1.44022          0.88775        -1.01972
14
 step=         548     theta[rad]=           5.7386
  C        -1.18542          1.49614        -0.17709
  C         0.05565          1.52931         0.29748
  C         1.18455          0.67370        -0.09404
  C         1.18493         -0.67432        -0.09331
  C         0.05591         -1.52823         0.29618
  C        -1.18567         -1.49705        -0.17639
  H         0.26910          2.25469         1.07889
  H         2.14939          1.16333        -0.19348
  H         2.14884         -1.16567        -0.19306
  H         0.27271         -2.25054         1.07966
  H        -1.95791         -2.08459         0.30497
  H        -1.47550         -0.95209        -1.06084
  H        -1.95493          2.08548         0.30735
  H        -1.48093          0.95535        -1.06240
14
 step=         549     theta[rad]=           5.7491
  C        -1.18547          1.48835        -0.18132
  C         0.05297          1.53608         0.31037
  C         1.18848          0.67810        -0.10098
  C         1.18955         -0.67986        -0.09888
  C         0.05372         -1.53300         0.30668
  C        -1.18619         -1.49093        -0.17934
  H         0.23915          2.30729         1.05780
  H         2.15928          1.16060        -0.18284
  H         2.15771         -1.16723        -0.18163
  H         0.24941         -2.29548         1.05998
  H        -1.93191         -2.09954         0.32447
  H        -1.50020         -1.00372        -1.09435
  H        -1.92344          2.10207         0.33124
  H        -1.51564          1.01297        -1.09879
14
 step=         550     theta[rad]=           5.7596
  C        -1.18551          1.48395        -0.18370
  C         0.05146          1.53989         0.31765
  C         1.19070          0.68058        -0.10489
  C         1.19216         -0.68299        -0.10203
  C         0.05249         -1.53569         0.31261
  C        -1.18648         -1.48747        -0.18100
  H         0.22224          2.33699         1.04590
  H         2.16486          1.15906        -0.17683
  H         2.16272         -1.16812        -0.17518
  H         0.23626         -2.32086         1.04887
  H        -1.91722         -2.10799         0.33548
  H        -1.51414         -1.03287        -1.11327
  H        -1.90566          2.11144         0.34474
  H        -1.53524          1.04551        -1.11933
14
 step=         551     theta[rad]=           5.7701
  C        -1.18551          1.48391        -0.18373
  C         0.05144          1.53993         0.31773
  C         1.19072          0.68061        -0.10493
  C         1.19219         -0.68303        -0.10206
  C         0.05247         -1.53572         0.31267
  C        -1.18648         -1.48744        -0.18102
  H         0.22207          2.33729         1.04578
  H         2.16492          1.15904        -0.17677
  H         2.16277         -1.16813        -0.17511
  H         0.23612         -2.32112         1.04876
  H        -1.91707         -2.10807         0.33559
  H        -1.51428         -1.03317        -1.11346
  H        -1.90548          2.11154         0.34488
  H        -1.53544          1.04584        -1.11954
14
 step=         552     theta[rad]=           5.7805
  C        -1.18548          1.48798        -0.18152
  C         0.05284          1.53640         0.31099
  C         1.18867          0.67831        -0.10131
  C         1.18977         -0.68013        -0.09915
  C         0.05362         -1.53322         0.30718
  C        -1.18621         -1.49064        -0.17948
  H         0.23772          2.30980         1.05680
  H         2.15975          1.16047        -0.18233
  H         2.15814         -1.16731        -0.18108
  H         0.24830         -2.29762         1.05904
  H        -1.93067         -2.10026         0.32540
  H        -1.50137         -1.00618        -1.09594
  H        -1.92194          2.10286         0.33238
  H        -1.51730          1.01572        -1.10052
14
 step=         553     theta[rad]=           5.7910
  C        -1.18543          1.49494        -0.17774
  C         0.05524          1.53035         0.29946
  C         1.18516          0.67437        -0.09511
  C         1.18564         -0.67517        -0.09416
  C         0.05558         -1.52896         0.29779
  C        -1.18575         -1.49611        -0.17684
  H         0.26451          2.26275         1.07566
  H         2.15091          1.16291        -0.19185
  H         2.15020         -1.16591        -0.19131
  H         0.26914         -2.25743         1.07664
  H        -1.95392         -2.08688         0.30796
  H        -1.47929         -0.96001        -1.06597
  H        -1.95011          2.08802         0.31101
  H        -1.48625          0.96418        -1.06798
14
 step=         554     theta[rad]=           5.8015
  C        -1.18537          1.50302        -0.17336
  C         0.05801          1.52333         0.28609
  C         1.18108          0.66980        -0.08791
  C         1.18084         -0.66941        -0.08838
  C         0.05785         -1.52401         0.28690
  C        -1.18521         -1.50245        -0.17379
  H         0.29557          2.20820         1.09753
  H         2.14066          1.16575        -0.20289
  H         2.14100         -1.16428        -0.20316
  H         0.29330         -2.21082         1.09705
  H        -1.98089         -2.07138         0.28773
  H        -1.45368         -0.90646        -1.03122
  H        -1.98276          2.07081         0.28623
  H        -1.45026          0.90442        -1.03025
14
 step=         555     theta[rad]=           5.8119
  C        -1.18531          1.51035        -0.16938
  C         0.06053          1.51697         0.27395
  C         1.17738          0.66566        -0.08139
  C         1.17649         -0.66419        -0.08313
  C         0.05991         -1.51952         0.27702
  C        -1.18472         -1.50821        -0.17102
  H         0.32375          2.15871         1.11738
  H         2.13135          1.16832        -0.21291
  H         2.13265         -1.16280        -0.21392
  H         0.31522         -2.16853         1.11556
  H        -2.00536         -2.05731         0.26939
  H        -1.43045         -0.85788        -0.99969
  H        -2.01240          2.05520         0.26374
  H        -1.41760          0.85019        -0.99601
14
 step=         556     theta[rad]=           5.8224
  C        -1.18527          1.51542        -0.16663
  C         0.06228          1.51256         0.26556
  C         1.17482          0.66279        -0.07687
  C         1.17348         -0.66058        -0.07951
  C         0.06133         -1.51642         0.27019
  C        -1.18439         -1.51219        -0.16910
  H         0.34324          2.12446         1.13111
  H         2.12492          1.17010        -0.21983
  H         2.12688         -1.16178        -0.22136
  H         0.33039         -2.13927         1.12837
  H        -2.02228         -2.04757         0.25669
  H        -1.41438         -0.82427        -0.97788
  H        -2.03290          2.04440         0.24818
  H        -1.39500          0.81268        -0.97233
14
 step=         557     theta[rad]=           5.8329
  C        -1.18526          1.51735        -0.16559
  C         0.06294          1.51089         0.26237
  C         1.17385          0.66171        -0.07516
  C         1.17234         -0.65921        -0.07813
  C         0.06187         -1.51524         0.26759
  C        -1.18426         -1.51370        -0.16838
  H         0.35065          2.11146         1.13632
  H         2.12247          1.17077        -0.22247
  H         2.12469         -1.16140        -0.22418
  H         0.33615         -2.12816         1.13323
  H        -2.02871         -2.04388         0.25187
  H        -1.40827         -0.81151        -0.96960
  H        -2.04068          2.04029         0.24228
  H        -1.38642          0.79844        -0.96334
14
 step=         558     theta[rad]=           5.8434
  C        -1.18527          1.51596        -0.16634
  C         0.06246          1.51210         0.26467
  C         1.17455          0.66249        -0.07640
  C         1.17316         -0.66020        -0.07912
  C         0.06148         -1.51609         0.26947
  C        -1.18435         -1.51261        -0.16890
  H         0.34531          2.12084         1.13256
  H         2.12424          1.17029        -0.22057
  H         2.12627         -1.16168        -0.22214
  H         0.33199         -2.13618         1.12972
  H        -2.02407         -2.04654         0.25535
  H        -1.41268         -0.82072        -0.97557
  H        -2.03506          2.04325         0.24654
  H        -1.39261          0.80871        -0.96982
14
 step=         559     theta[rad]=           5.8538
  C        -1.18530          1.51173        -0.16863
  C         0.06101          1.51577         0.27167
  C         1.17668          0.66488        -0.08016
  C         1.17567         -0.66321        -0.08215
  C         0.06030         -1.51868         0.27516
  C        -1.18463         -1.50929        -0.17050
  H         0.32906          2.14937         1.12112
  H         2.12960          1.16880        -0.21479
  H         2.13108         -1.16253        -0.21595
  H         0.31936         -2.16055         1.11905
  H        -2.00997         -2.05465         0.26593
  H        -1.42607         -0.84872        -0.99375
  H        -2.01798          2.05225         0.25950
  H        -1.41144          0.83997        -0.98956
14
 step=         560     theta[rad]=           5.8643
  C        -1.18535          1.50561        -0.17195
  C         0.05891          1.52108         0.28179
  C         1.17977          0.66834        -0.08561
  C         1.17930         -0.66757        -0.08652
  C         0.05858         -1.52242         0.28341
  C        -1.18504         -1.50449        -0.17281
  H         0.30554          2.19069         1.10455
  H         2.13737          1.16666        -0.20643
  H         2.13805         -1.16376        -0.20697
  H         0.30106         -2.19586         1.10360
  H        -1.98954         -2.06640         0.28124
  H        -1.44546         -0.88928        -1.02007
  H        -1.99325          2.06529         0.27827
  H        -1.43870          0.88524        -1.01814
14
 step=         561     theta[rad]=           5.8748
  C        -1.18540          1.49876        -0.17567
  C         0.05655          1.52703         0.29313
  C         1.18323          0.67221        -0.09170
  C         1.18337         -0.67244        -0.09143
  C         0.05665         -1.52662         0.29264
  C        -1.18549         -1.49911        -0.17540
  H         0.27920          2.23695         1.08601
  H         2.14606          1.16425        -0.19707
  H         2.14585         -1.16514        -0.19691
  H         0.28057         -2.23538         1.08629
  H        -1.96668         -2.07955         0.29839
  H        -1.46718         -0.93468        -1.04954
  H        -1.96555          2.07988         0.29929
  H        -1.46923          0.93591        -1.05013
14
 step=         562     theta[rad]=           5.8853
  C        -1.18544          1.49233        -0.17915
  C         0.05434          1.53261         0.30378
  C         1.18647          0.67585        -0.09743
  C         1.18719         -0.67702        -0.09603
  C         0.05484         -1.53056         0.30131
  C        -1.18592         -1.49406        -0.17783
  H         0.25447          2.28038         1.06860
  H         2.15422          1.16200        -0.18829
  H         2.15317         -1.16643        -0.18748
  H         0.26133         -2.27248         1.07005
  H        -1.94521         -2.09189         0.31449
  H        -1.48756         -0.97730        -1.07720
  H        -1.93955          2.09358         0.31902
  H        -1.49788          0.98349        -1.08017
14
 step=         563     theta[rad]=           5.8957
  C        -1.18548          1.48727        -0.18190
  C         0.05260          1.53701         0.31216
  C         1.18903          0.67871        -0.10194
  C         1.19019         -0.68063        -0.09965
  C         0.05342         -1.53366         0.30813
  C        -1.18626         -1.49008        -0.17974
  H         0.23501          2.31457         1.05489
  H         2.16065          1.16022        -0.18137
  H         2.15894         -1.16745        -0.18005
  H         0.24619         -2.30170         1.05726
  H        -1.92831         -2.10161         0.32716
  H        -1.50361         -1.01086        -1.09898
  H        -1.91909          2.10437         0.33455
  H        -1.52044          1.02094        -1.10382
14
 step=         564     theta[rad]=           5.9062
  C        -1.18550          1.48420        -0.18356
  C         0.05154          1.53968         0.31724
  C         1.19057          0.68044        -0.10467
  C         1.19201         -0.68281        -0.10185
  C         0.05256         -1.53554         0.31227
  C        -1.18646         -1.48767        -0.18090
  H         0.22321          2.33528         1.04658
  H         2.16454          1.15915        -0.17718
  H         2.16243         -1.16807        -0.17555
  H         0.23701         -2.31940         1.04951
  H        -1.91807         -2.10750         0.33484
  H        -1.51334         -1.03120        -1.11218
  H        -1.90668          2.11090         0.34396
  H        -1.53411          1.04364        -1.11815
14
 step=         565     theta[rad]=           5.9167
  C        -1.18551          1.48339        -0.18400
  C         0.05127          1.54038         0.31857
  C         1.19098          0.68090        -0.10539
  C         1.19249         -0.68339        -0.10243
  C         0.05233         -1.53603         0.31336
  C        -1.18652         -1.48704        -0.18121
  H         0.22010          2.34074         1.04439
  H         2.16557          1.15886        -0.17607
  H         2.16335         -1.16823        -0.17436
  H         0.23460         -2.32406         1.04747
  H        -1.91537         -2.10905         0.33687
  H        -1.51590         -1.03655        -1.11566
  H        -1.90341          2.11263         0.34644
  H        -1.53771          1.04962        -1.12192
14
 step=         566     theta[rad]=           5.9271
  C        -1.18550          1.48477        -0.18326
  C         0.05174          1.53918         0.31630
  C         1.19029          0.68012        -0.10417
  C         1.19168         -0.68241        -0.10144
  C         0.05272         -1.53519         0.31150
  C        -1.18642         -1.48812        -0.18069
  H         0.22539          2.33146         1.04811
  H         2.16382          1.15934        -0.17795
  H         2.16179         -1.16795        -0.17638
  H         0.23871         -2.31613         1.05094
  H        -1.91996         -2.10641         0.33343
  H        -1.51154         -1.02745        -1.10974
  H        -1.90897          2.10970         0.34223
  H        -1.53159          1.03945        -1.11551
14
 step=         567     theta[rad]=           5.9376
  C        -1.18548          1.48798        -0.18152
  C         0.05284          1.53640         0.31099
  C         1.18867          0.67831        -0.10131
  C         1.18977         -0.68013        -0.09915
  C         0.05362         -1.53322         0.30718
  C        -1.18621         -1.49064        -0.17948
  H         0.23772          2.30980         1.05680
  H         2.15975          1.16047        -0.18233
  H         2.15814         -1.16731        -0.18108
  H         0.24830         -2.29762         1.05904
  H        -1.93067         -2.10026         0.32540
  H        -1.50137         -1.00618        -1.09594
  H        -1.92194          2.10286         0.33238
  H        -1.51730          1.01572        -1.10052
14
 step=         568     theta[rad]=           5.9481
  C        -1.18544          1.49249        -0.17907
  C         0.05439          1.53248         0.30352
  C         1.18639          0.67576        -0.09729
  C         1.18709         -0.67691        -0.09592
  C         0.05489         -1.53046         0.30110
  C        -1.18591         -1.49418        -0.17777
  H         0.25508          2.27931         1.06902
  H         2.15402          1.16205        -0.18850
  H         2.15299         -1.16640        -0.18771
  H         0.26180         -2.27158         1.07045
  H        -1.94574         -2.09159         0.31410
  H        -1.48706         -0.97626        -1.07652
  H        -1.94019          2.09325         0.31853
  H        -1.49718          0.98232        -1.07944
14
 step=         569     theta[rad]=           5.9586
  C        -1.18540          1.49771        -0.17624
  C         0.05619          1.52795         0.29489
  C         1.18376          0.67281        -0.09265
  C         1.18400         -0.67320        -0.09218
  C         0.05635         -1.52727         0.29407
  C        -1.18556         -1.49828        -0.17580
  H         0.27513          2.24410         1.08314
  H         2.14740          1.16388        -0.19563
  H         2.14706         -1.16535        -0.19536
  H         0.27740         -2.24149         1.08362
  H        -1.96314         -2.08158         0.30104
  H        -1.47054         -0.94170        -1.05409
  H        -1.96127          2.08214         0.30254
  H        -1.47395          0.94375        -1.05508
14
 step=         570     theta[rad]=           5.9690
  C        -1.18537          1.50302        -0.17336
  C         0.05801          1.52333         0.28609
  C         1.18108          0.66980        -0.08791
  C         1.18084         -0.66941        -0.08838
  C         0.05785         -1.52401         0.28690
  C        -1.18521         -1.50245        -0.17379
  H         0.29557          2.20820         1.09753
  H         2.14066          1.16575        -0.20289
  H         2.14100         -1.16428        -0.20316
  H         0.29330         -2.21082         1.09705
  H        -1.98089         -2.07138         0.28773
  H        -1.45368         -0.90646        -1.03122
  H        -1.98276          2.07081         0.28623
  H        -1.45026          0.90442        -1.03025
14
 step=         571     theta[rad]=           5.9795
  C        -1.18533          1.50792        -0.17070
  C         0.05970          1.51908         0.27798
  C         1.17861          0.66704        -0.08355
  C         1.17794         -0.66593        -0.08488
  C         0.05922         -1.52101         0.28030
  C        -1.18489         -1.50630        -0.17194
  H         0.31440          2.17513         1.11079
  H         2.13444          1.16747        -0.20958
  H         2.13542         -1.16329        -0.21035
  H         0.30795         -2.18256         1.10942
  H        -1.99724         -2.06197         0.27548
  H        -1.43816         -0.87400        -1.01016
  H        -2.00256          2.06038         0.27120
  H        -1.42843          0.86819        -1.00737
14
 step=         572     theta[rad]=           5.9900
  C        -1.18530          1.51200        -0.16849
  C         0.06110          1.51554         0.27123
  C         1.17655          0.66473        -0.07992
  C         1.17552         -0.66302        -0.08196
  C         0.06037         -1.51852         0.27481
  C        -1.18462         -1.50950        -0.17040
  H         0.33007          2.14760         1.12183
  H         2.12927          1.16890        -0.21515
  H         2.13078         -1.16247        -0.21633
  H         0.32014         -2.15904         1.11971
  H        -2.01085         -2.05415         0.26527
  H        -1.42524         -0.84698        -0.99262
  H        -2.01904          2.05170         0.25870
  H        -1.41027          0.83803        -0.98833
14
 step=         573     theta[rad]=           6.0004
  C        -1.18528          1.51499        -0.16687
  C         0.06213          1.51294         0.26628
  C         1.17504          0.66304        -0.07726
  C         1.17374         -0.66089        -0.07981
  C         0.06121         -1.51668         0.27077
  C        -1.18442         -1.51185        -0.16927
  H         0.34158          2.12739         1.12994
  H         2.12547          1.16995        -0.21924
  H         2.12737         -1.16187        -0.22072
  H         0.32910         -2.14177         1.12728
  H        -2.02084         -2.04840         0.25778
  H        -1.41575         -0.82714        -0.97974
  H        -2.03115          2.04532         0.24951
  H        -1.39693          0.81588        -0.97435
14
 step=         574     theta[rad]=           6.0109
  C        -1.18526          1.51678        -0.16590
  C         0.06274          1.51139         0.26332
  C         1.17414          0.66203        -0.07567
  C         1.17268         -0.65962        -0.07854
  C         0.06171         -1.51559         0.26836
  C        -1.18430         -1.51325        -0.16859
  H         0.34845          2.11532         1.13477
  H         2.12320          1.17057        -0.22169
  H         2.12534         -1.16151        -0.22335
  H         0.33444         -2.13145         1.13179
  H        -2.02681         -2.04497         0.25330
  H        -1.41008         -0.81529        -0.97205
  H        -2.03837          2.04151         0.24403
  H        -1.38896          0.80266        -0.96600
14
 step=         575     theta[rad]=           6.0214
  C        -1.18526          1.51736        -0.16558
  C         0.06294          1.51088         0.26236
  C         1.17385          0.66170        -0.07515
  C         1.17233         -0.65921        -0.07812
  C         0.06188         -1.51524         0.26758
  C        -1.18426         -1.51371        -0.16837
  H         0.35068          2.11141         1.13634
  H         2.12246          1.17078        -0.22248
  H         2.12468         -1.16139        -0.22420
  H         0.33617         -2.12811         1.13325
  H        -2.02874         -2.04386         0.25185
  H        -1.40825         -0.81146        -0.96956
  H        -2.04071          2.04028         0.24225
  H        -1.38638          0.79838        -0.96330
14
 step=         576     theta[rad]=           6.0319
  C        -1.18526          1.51682        -0.16587
  C         0.06276          1.51135         0.26324
  C         1.17412          0.66200        -0.07563
  C         1.17265         -0.65959        -0.07850
  C         0.06173         -1.51556         0.26830
  C        -1.18429         -1.51329        -0.16858
  H         0.34863          2.11501         1.13490
  H         2.12314          1.17059        -0.22175
  H         2.12528         -1.16150        -0.22341
  H         0.33458         -2.13119         1.13190
  H        -2.02696         -2.04488         0.25319
  H        -1.40994         -0.81499        -0.97186
  H        -2.03856          2.04141         0.24389
  H        -1.38876          0.80233        -0.96579
14
 step=         577     theta[rad]=           6.0423
  C        -1.18527          1.51534        -0.16668
  C         0.06225          1.51264         0.26570
  C         1.17487          0.66284        -0.07695
  C         1.17353         -0.66064        -0.07956
  C         0.06131         -1.51647         0.27030
  C        -1.18439         -1.51212        -0.16914
  H         0.34292          2.12503         1.13088
  H         2.12502          1.17007        -0.21972
  H         2.12697         -1.16180        -0.22124
  H         0.33014         -2.13975         1.12816
  H        -2.02201         -2.04773         0.25690
  H        -1.41464         -0.82482        -0.97824
  H        -2.03256          2.04457         0.24844
  H        -1.39537          0.81330        -0.97272
14
 step=         578     theta[rad]=           6.0528
  C        -1.18529          1.51311        -0.16789
  C         0.06148          1.51457         0.26939
  C         1.17599          0.66410        -0.07893
  C         1.17485         -0.66223        -0.08116
  C         0.06068         -1.51784         0.27331
  C        -1.18454         -1.51037        -0.16998
  H         0.33435          2.14008         1.12485
  H         2.12785          1.16929        -0.21667
  H         2.12951         -1.16225        -0.21796
  H         0.32347         -2.15261         1.12253
  H        -2.01457         -2.05201         0.26248
  H        -1.42171         -0.83960        -0.98783
  H        -2.02355          2.04932         0.25528
  H        -1.40530          0.82979        -0.98313
14
 step=         579     theta[rad]=           6.0633
  C        -1.18531          1.51035        -0.16938
  C         0.06053          1.51697         0.27395
  C         1.17738          0.66566        -0.08139
  C         1.17649         -0.66419        -0.08313
  C         0.05991         -1.51952         0.27702
  C        -1.18472         -1.50821        -0.17102
  H         0.32375          2.15871         1.11738
  H         2.13135          1.16832        -0.21291
  H         2.13265         -1.16280        -0.21392
  H         0.31522         -2.16853         1.11556
  H        -2.00536         -2.05731         0.26939
  H        -1.43045         -0.85788        -0.99969
  H        -2.01240          2.05520         0.26374
  H        -1.41760          0.85019        -0.99601
14
 step=         580     theta[rad]=           6.0737
  C        -1.18533          1.50728        -0.17105
  C         0.05948          1.51964         0.27905
  C         1.17893          0.66740        -0.08413
  C         1.17832         -0.66638        -0.08534
  C         0.05904         -1.52141         0.28117
  C        -1.18493         -1.50579        -0.17218
  H         0.31192          2.17948         1.10905
  H         2.13526          1.16724        -0.20870
  H         2.13616         -1.16342        -0.20940
  H         0.30602         -2.18628         1.10779
  H        -1.99509         -2.06321         0.27709
  H        -1.44020         -0.87827        -1.01293
  H        -1.99996          2.06175         0.27318
  H        -1.43130          0.87295        -1.01038
14
 step=         581     theta[rad]=           6.0842
  C        -1.18536          1.50407        -0.17279
  C         0.05837          1.52242         0.28435
  C         1.18055          0.66921        -0.08698
  C         1.18022         -0.66867        -0.08763
  C         0.05814         -1.52337         0.28549
  C        -1.18514         -1.50328        -0.17339
  H         0.29960          2.20112         1.10037
  H         2.13933          1.16612        -0.20432
  H         2.13981         -1.16407        -0.20470
  H         0.29644         -2.20477         1.09969
  H        -1.98439         -2.06936         0.28511
  H        -1.45036         -0.89951        -1.02671
  H        -1.98700          2.06858         0.28301
  H        -1.44558          0.89666        -1.02535
14
 step=         582     theta[rad]=           6.0947
  C        -1.18538          1.50090        -0.17451
  C         0.05728          1.52518         0.28960
  C         1.18215          0.67101        -0.08981
  C         1.18210         -0.67093        -0.08990
  C         0.05725         -1.52531         0.28977
  C        -1.18535         -1.50078        -0.17459
  H         0.28740          2.22255         1.09178
  H         2.14335          1.16500        -0.19999
  H         2.14342         -1.16471        -0.20004
  H         0.28695         -2.22307         1.09168
  H        -1.97380         -2.07545         0.29305
  H        -1.46042         -0.92054        -1.04036
  H        -1.97417          2.07534         0.29274
  H        -1.45972          0.92013        -1.04017
14
 step=         583     theta[rad]=           6.1052
  C        -1.18540          1.49788        -0.17615
  C         0.05625          1.52780         0.29459
  C         1.18367          0.67271        -0.09249
  C         1.18389         -0.67307        -0.09206
  C         0.05640         -1.52716         0.29383
  C        -1.18555         -1.49841        -0.17573
  H         0.27580          2.24292         1.08362
  H         2.14718          1.16394        -0.19587
  H         2.14686         -1.16531        -0.19562
  H         0.27793         -2.24048         1.08406
  H        -1.96373         -2.08124         0.30060
  H        -1.46998         -0.94053        -1.05334
  H        -1.96198          2.08176         0.30200
  H        -1.47316          0.94245        -1.05426
14
 step=         584     theta[rad]=           6.1156
  C        -1.18542          1.49511        -0.17765
  C         0.05529          1.53020         0.29918
  C         1.18507          0.67428        -0.09496
  C         1.18554         -0.67504        -0.09404
  C         0.05562         -1.52886         0.29756
  C        -1.18574         -1.49624        -0.17678
  H         0.26516          2.26161         1.07612
  H         2.15069          1.16297        -0.19208
  H         2.15001         -1.16587        -0.19156
  H         0.26964         -2.25645         1.07707
  H        -1.95449         -2.08656         0.30753
  H        -1.47875         -0.95889        -1.06525
  H        -1.95079          2.08766         0.31049
  H        -1.48550          0.96293        -1.06719
14
 step=         585     theta[rad]=           6.1261
  C        -1.18544          1.49265        -0.17898
  C         0.05445          1.53234         0.30326
  C         1.18631          0.67567        -0.09715
  C         1.18700         -0.67680        -0.09580
  C         0.05493         -1.53036         0.30088
  C        -1.18590         -1.49431        -0.17771
  H         0.25569          2.27825         1.06945
  H         2.15382          1.16211        -0.18872
  H         2.15281         -1.16637        -0.18794
  H         0.26228         -2.27066         1.07085
  H        -1.94626         -2.09129         0.31370
  H        -1.48656         -0.97521        -1.07584
  H        -1.94083          2.09291         0.31805
  H        -1.49648          0.98115        -1.07870
14
 step=         586     theta[rad]=           6.1366
  C        -1.18546          1.49052        -0.18014
  C         0.05372          1.53419         0.30678
  C         1.18739          0.67687        -0.09904
  C         1.18826         -0.67832        -0.09733
  C         0.05433         -1.53167         0.30375
  C        -1.18604         -1.49263        -0.17852
  H         0.24750          2.29262         1.06369
  H         2.15652          1.16136        -0.18581
  H         2.15524         -1.16680        -0.18482
  H         0.25591         -2.28295         1.06547
  H        -1.93916         -2.09537         0.31903
  H        -1.49331         -0.98932        -1.08500
  H        -1.93222          2.09745         0.32458
  H        -1.50596          0.99690        -1.08864
14
 step=         587     theta[rad]=           6.1470
  C        -1.18547          1.48873        -0.18111
  C         0.05310          1.53574         0.30974
  C         1.18829          0.67788        -0.10064
  C         1.18932         -0.67959        -0.09861
  C         0.05383         -1.53276         0.30616
  C        -1.18616         -1.49123        -0.17919
  H         0.24062          2.30470         1.05884
  H         2.15879          1.16073        -0.18336
  H         2.15728         -1.16716        -0.18219
  H         0.25056         -2.29327         1.06095
  H        -1.93319         -2.09881         0.32351
  H        -1.49898         -1.00118        -1.09270
  H        -1.92499          2.10126         0.33007
  H        -1.51393          1.01014        -1.09700
14
 step=         588     theta[rad]=           6.1575
  C        -1.18548          1.48727        -0.18190
  C         0.05260          1.53701         0.31216
  C         1.18903          0.67871        -0.10194
  C         1.19019         -0.68063        -0.09965
  C         0.05342         -1.53366         0.30813
  C        -1.18626         -1.49008        -0.17974
  H         0.23501          2.31457         1.05489
  H         2.16065          1.16022        -0.18137
  H         2.15894         -1.16745        -0.18005
  H         0.24619         -2.30170         1.05726
  H        -1.92831         -2.10161         0.32716
  H        -1.50361         -1.01086        -1.09898
  H        -1.91909          2.10437         0.33455
  H        -1.52044          1.02094        -1.10382
14
 step=         589     theta[rad]=           6.1680
  C        -1.18549          1.48611        -0.18253
  C         0.05220          1.53802         0.31408
  C         1.18961          0.67936        -0.10297
  C         1.19088         -0.68145        -0.10048
  C         0.05309         -1.53437         0.30969
  C        -1.18633         -1.48917        -0.18018
  H         0.23056          2.32239         1.05175
  H         2.16212          1.15982        -0.17978
  H         2.16026         -1.16768        -0.17835
  H         0.24273         -2.30838         1.05434
  H        -1.92444         -2.10383         0.33006
  H        -1.50728         -1.01854        -1.10396
  H        -1.91440          2.10684         0.33810
  H        -1.52560          1.02951        -1.10923
14
 step=         590     theta[rad]=           6.1785
  C        -1.18550          1.48522        -0.18301
  C         0.05189          1.53879         0.31555
  C         1.19006          0.67987        -0.10376
  C         1.19141         -0.68209        -0.10112
  C         0.05284         -1.53491         0.31089
  C        -1.18639         -1.48847        -0.18052
  H         0.22714          2.32839         1.04934
  H         2.16325          1.15950        -0.17857
  H         2.16127         -1.16786        -0.17704
  H         0.24007         -2.31351         1.05209
  H        -1.92147         -2.10554         0.33229
  H        -1.51010         -1.02443        -1.10779
  H        -1.91081          2.10873         0.34083
  H        -1.52957          1.03609        -1.11338
14
 step=         591     theta[rad]=           6.1889
  C        -1.18550          1.48456        -0.18337
  C         0.05167          1.53936         0.31664
  C         1.19039          0.68024        -0.10435
  C         1.19180         -0.68256        -0.10159
  C         0.05266         -1.53531         0.31178
  C        -1.18644         -1.48796        -0.18077
  H         0.22460          2.33284         1.04756
  H         2.16408          1.15927        -0.17767
  H         2.16202         -1.16800        -0.17608
  H         0.23810         -2.31731         1.05043
  H        -1.91928         -2.10681         0.33394
  H        -1.51219         -1.02880        -1.11062
  H        -1.90814          2.11013         0.34285
  H        -1.53250          1.04096        -1.11646
14
 step=         592     theta[rad]=           6.1994
  C        -1.18551          1.48410        -0.18362
  C         0.05151          1.53977         0.31741
  C         1.19063          0.68050        -0.10476
  C         1.19207         -0.68289        -0.10192
  C         0.05253         -1.53560         0.31241
  C        -1.18647         -1.48759        -0.18094
  H         0.22280          2.33600         1.04629
  H         2.16468          1.15911        -0.17703
  H         2.16256         -1.16809        -0.17539
  H         0.23670         -2.32001         1.04924
  H        -1.91771         -2.10770         0.33511
  H        -1.51367         -1.03190        -1.11264
  H        -1.90625          2.11113         0.34429
  H        -1.53459          1.04442        -1.11865
14
 step=         593     theta[rad]=           6.2099
  C        -1.18551          1.48378        -0.18379
  C         0.05140          1.54004         0.31794
  C         1.19079          0.68068        -0.10504
  C         1.19226         -0.68311        -0.10215
  C         0.05244         -1.53579         0.31284
  C        -1.18649         -1.48734        -0.18106
  H         0.22159          2.33814         1.04544
  H         2.16508          1.15900        -0.17660
  H         2.16292         -1.16815        -0.17493
  H         0.23575         -2.32183         1.04844
  H        -1.91666         -2.10831         0.33590
  H        -1.51467         -1.03400        -1.11400
  H        -1.90498          2.11180         0.34526
  H        -1.53599          1.04676        -1.12012
14
 step=         594     theta[rad]=           6.2204
  C        -1.18551          1.48358        -0.18390
  C         0.05133          1.54022         0.31827
  C         1.19089          0.68079        -0.10522
  C         1.19238         -0.68326        -0.10229
  C         0.05238         -1.53592         0.31311
  C        -1.18650         -1.48718        -0.18114
  H         0.22082          2.33949         1.04490
  H         2.16533          1.15893        -0.17632
  H         2.16314         -1.16819        -0.17463
  H         0.23515         -2.32299         1.04794
  H        -1.91599         -2.10870         0.33640
  H        -1.51531         -1.03532        -1.11486
  H        -1.90417          2.11223         0.34587
  H        -1.53689          1.04824        -1.12106
14
 step=         595     theta[rad]=           6.2308
  C        -1.18551          1.48346        -0.18396
  C         0.05129          1.54032         0.31846
  C         1.19095          0.68086        -0.10533
  C         1.19245         -0.68334        -0.10238
  C         0.05235         -1.53599         0.31326
  C        -1.18651         -1.48709        -0.18118
  H         0.22037          2.34027         1.04458
  H         2.16548          1.15889        -0.17617
  H         2.16328         -1.16822        -0.17446
  H         0.23481         -2.32366         1.04765
  H        -1.91560         -2.10892         0.33669
  H        -1.51568         -1.03609        -1.11536
  H        -1.90370          2.11248         0.34623
  H        -1.53740          1.04910        -1.12160
14
 step=         596     theta[rad]=           6.2413
  C        -1.18551          1.48341        -0.18400
  C         0.05127          1.54037         0.31856
  C         1.19098          0.68089        -0.10538
  C         1.19249         -0.68338        -0.10242
  C         0.05233         -1.53602         0.31334
  C        -1.18651         -1.48705        -0.18121
  H         0.22014          2.34067         1.04442
  H         2.16555          1.15887        -0.17608
  H         2.16334         -1.16823        -0.17438
  H         0.23463         -2.32400         1.04750
  H        -1.91540         -2.10903         0.33684
  H        -1.51587         -1.03649        -1.11561
  H        -1.90346          2.11261         0.34641
  H        -1.53767          1.04954        -1.12188
14
 step=         597     theta[rad]=           6.2518
  C        -1.18551          1.48338        -0.18401
  C         0.05126          1.54039         0.31860
  C         1.19099          0.68091        -0.10540
  C         1.19250         -0.68340        -0.10244
  C         0.05233         -1.53604         0.31338
  C        -1.18652         -1.48703        -0.18122
  H         0.22005          2.34084         1.04435
  H         2.16559          1.15886        -0.17605
  H         2.16337         -1.16823        -0.17434
  H         0.23455         -2.32415         1.04743
  H        -1.91532         -2.10908         0.33690
  H        -1.51595         -1.03665        -1.11572
  H        -1.90335          2.11266         0.34649
  H        -1.53778          1.04973        -1.12199
14
 step=         598     theta[rad]=           6.2622
  C        -1.18551          1.48337        -0.18401
  C         0.05126          1.54040         0.31861
  C         1.19099          0.68091        -0.10541
  C         1.19250         -0.68340        -0.10244
  C         0.05232         -1.53604         0.31339
  C        -1.18652         -1.48702        -0.18122
  H         0.22002          2.34089         1.04433
  H         2.16560          1.15885        -0.17604
  H         2.16338         -1.16824        -0.17433
  H         0.23453         -2.32419         1.04741
  H        -1.91530         -2.10910         0.33692
  H        -1.51597         -1.03670        -1.11575
  H        -1.90332          2.11267         0.34651
  H        -1.53781          1.04978        -1.12203
14
 step=         599     theta[rad]=           6.2727
  C        -1.18551          1.48337        -0.18401
  C         0.05126          1.54040         0.31861
  C         1.19099          0.68091        -0.10541
  C         1.19251         -0.68341        -0.10244
  C         0.05232         -1.53604         0.31339
  C        -1.18652         -1.48702        -0.18122
  H         0.22002          2.34090         1.04433
  H         2.16560          1.15885        -0.17604
  H         2.16338         -1.16824        -0.17433
  H         0.23453         -2.32420         1.04741
  H        -1.91529         -2.10910         0.33692
  H        -1.51597         -1.03671        -1.11576
  H        -1.90332          2.11268         0.34651
  H        -1.53782          1.04979        -1.12203
14
 step=         600     theta[rad]=           6.2832
  C        -1.18551          1.48337        -0.18401
  C         0.05126          1.54040         0.31861
  C         1.19099          0.68091        -0.10541
  C         1.19251         -0.68341        -0.10244
  C         0.05232         -1.53604         0.31339
  C        -1.18652         -1.48702        -0.18122
  H         0.22002          2.34090         1.04433
  H         2.16560          1.15885        -0.17604
  H         2.16338         -1.16824        -0.17433
  H         0.23453         -2.32420         1.04741
  H        -1.91529         -2.10910         0.33692
  H        -1.51597         -1.03671        -1.11576
  H        -1.90332          2.11268         0.34651
  H        -1.53782          1.04979        -1.12203
