9
 step=           0     theta[rad]=           0.0000
  C        -0.02069         -0.00646         0.02976
  C         0.02012          0.00007         1.34904
  H         0.90068          0.00421        -0.53739
  H         0.94880         -0.00275         1.89367
  H        -0.88027          0.00036         1.94238
  C        -1.28922         -0.01619        -0.76728
  H        -1.08254          0.24836        -1.83378
  H        -1.85791         -0.86912        -0.34570
  H        -1.91868          0.88799        -0.71618
9
 step=           1     theta[rad]=           0.0105
  C        -0.02069         -0.00646         0.02976
  C         0.02012          0.00007         1.34904
  H         0.90068          0.00421        -0.53739
  H         0.94880         -0.00275         1.89367
  H        -0.88027          0.00036         1.94238
  C        -1.28922         -0.01618        -0.76728
  H        -1.08254          0.24835        -1.83378
  H        -1.85791         -0.86912        -0.34571
  H        -1.91868          0.88799        -0.71617
9
 step=           2     theta[rad]=           0.0209
  C        -0.02069         -0.00646         0.02976
  C         0.02012          0.00007         1.34904
  H         0.90068          0.00421        -0.53739
  H         0.94880         -0.00275         1.89367
  H        -0.88027          0.00036         1.94238
  C        -1.28922         -0.01618        -0.76728
  H        -1.08254          0.24824        -1.83378
  H        -1.85792         -0.86912        -0.34580
  H        -1.91866          0.88799        -0.71609
9
 step=           3     theta[rad]=           0.0314
  C        -0.02069         -0.00645         0.02976
  C         0.02012          0.00007         1.34904
  H         0.90068          0.00420        -0.53739
  H         0.94880         -0.00274         1.89367
  H        -0.88027          0.00036         1.94238
  C        -1.28922         -0.01615        -0.76728
  H        -1.08254          0.24787        -1.83378
  H        -1.85797         -0.86913        -0.34607
  H        -1.91862          0.88797        -0.71582
9
 step=           4     theta[rad]=           0.0419
  C        -0.02069         -0.00643         0.02976
  C         0.02012          0.00007         1.34904
  H         0.90068          0.00418        -0.53739
  H         0.94880         -0.00274         1.89367
  H        -0.88027          0.00036         1.94238
  C        -1.28922         -0.01610        -0.76728
  H        -1.08254          0.24700        -1.83378
  H        -1.85807         -0.86917        -0.34672
  H        -1.91851          0.88794        -0.71517
9
 step=           5     theta[rad]=           0.0524
  C        -0.02069         -0.00638         0.02976
  C         0.02012          0.00007         1.34904
  H         0.90068          0.00416        -0.53739
  H         0.94880         -0.00272         1.89367
  H        -0.88027          0.00035         1.94238
  C        -1.28922         -0.01599        -0.76728
  H        -1.08254          0.24531        -1.83378
  H        -1.85828         -0.86923        -0.34798
  H        -1.91831          0.88787        -0.71390
9
 step=           6     theta[rad]=           0.0628
  C        -0.02069         -0.00631         0.02976
  C         0.02012          0.00007         1.34904
  H         0.90068          0.00411        -0.53739
  H         0.94880         -0.00268         1.89367
  H        -0.88027          0.00035         1.94238
  C        -1.28922         -0.01580        -0.76728
  H        -1.08254          0.24238        -1.83378
  H        -1.85864         -0.86934        -0.35017
  H        -1.91795          0.88776        -0.71172
9
 step=           7     theta[rad]=           0.0733
  C        -0.02069         -0.00619         0.02976
  C         0.02012          0.00006         1.34904
  H         0.90068          0.00403        -0.53739
  H         0.94880         -0.00263         1.89367
  H        -0.88027          0.00034         1.94238
  C        -1.28922         -0.01549        -0.76728
  H        -1.08254          0.23776        -1.83378
  H        -1.85920         -0.86952        -0.35361
  H        -1.91738          0.88759        -0.70827
9
 step=           8     theta[rad]=           0.0838
  C        -0.02069         -0.00601         0.02976
  C         0.02012          0.00006         1.34904
  H         0.90068          0.00391        -0.53739
  H         0.94880         -0.00256         1.89367
  H        -0.88027          0.00033         1.94238
  C        -1.28922         -0.01505        -0.76728
  H        -1.08254          0.23092        -1.83378
  H        -1.86004         -0.86978        -0.35871
  H        -1.91655          0.88733        -0.70317
9
 step=           9     theta[rad]=           0.0942
  C        -0.02069         -0.00576         0.02976
  C         0.02012          0.00006         1.34904
  H         0.90068          0.00375        -0.53739
  H         0.94880         -0.00245         1.89367
  H        -0.88027          0.00032         1.94238
  C        -1.28922         -0.01442        -0.76728
  H        -1.08254          0.22129        -1.83378
  H        -1.86122         -0.87014        -0.36589
  H        -1.91537          0.88696        -0.69599
9
 step=          10     theta[rad]=           0.1047
  C        -0.02069         -0.00542         0.02976
  C         0.02012          0.00006         1.34904
  H         0.90068          0.00353        -0.53739
  H         0.94880         -0.00231         1.89367
  H        -0.88027          0.00030         1.94238
  C        -1.28922         -0.01357        -0.76728
  H        -1.08254          0.20830        -1.83378
  H        -1.86281         -0.87064        -0.37559
  H        -1.91378          0.88647        -0.68630
9
 step=          11     theta[rad]=           0.1152
  C        -0.02069         -0.00498         0.02976
  C         0.02012          0.00005         1.34904
  H         0.90068          0.00324        -0.53739
  H         0.94880         -0.00212         1.89367
  H        -0.88027          0.00028         1.94238
  C        -1.28922         -0.01247        -0.76728
  H        -1.08254          0.19137        -1.83378
  H        -1.86488         -0.87128        -0.38821
  H        -1.91171          0.88583        -0.67367
9
 step=          12     theta[rad]=           0.1257
  C        -0.02069         -0.00442         0.02976
  C         0.02012          0.00005         1.34904
  H         0.90068          0.00288        -0.53739
  H         0.94880         -0.00188         1.89367
  H        -0.88027          0.00024         1.94238
  C        -1.28922         -0.01108        -0.76728
  H        -1.08254          0.17002        -1.83378
  H        -1.86749         -0.87209        -0.40414
  H        -1.90909          0.88501        -0.65775
9
 step=          13     theta[rad]=           0.1361
  C        -0.02069         -0.00374         0.02976
  C         0.02012          0.00004         1.34904
  H         0.90068          0.00244        -0.53739
  H         0.94880         -0.00159         1.89367
  H        -0.88027          0.00021         1.94238
  C        -1.28922         -0.00938        -0.76728
  H        -1.08254          0.14387        -1.83378
  H        -1.87069         -0.87309        -0.42364
  H        -1.90590          0.88402        -0.63825
9
 step=          14     theta[rad]=           0.1466
  C        -0.02069         -0.00293         0.02976
  C         0.02012          0.00003         1.34904
  H         0.90068          0.00191        -0.53739
  H         0.94880         -0.00125         1.89367
  H        -0.88027          0.00016         1.94238
  C        -1.28922         -0.00735        -0.76728
  H        -1.08254          0.11276        -1.83378
  H        -1.87450         -0.87427        -0.44685
  H        -1.90209          0.88284        -0.61504
9
 step=          15     theta[rad]=           0.1571
  C        -0.02069         -0.00200         0.02976
  C         0.02012          0.00002         1.34904
  H         0.90068          0.00130        -0.53739
  H         0.94880         -0.00085         1.89367
  H        -0.88027          0.00011         1.94238
  C        -1.28922         -0.00500        -0.76728
  H        -1.08254          0.07675        -1.83378
  H        -1.87890         -0.87564        -0.47370
  H        -1.89768          0.88147        -0.58818
9
 step=          16     theta[rad]=           0.1676
  C        -0.02069         -0.00094         0.02976
  C         0.02012          0.00001         1.34904
  H         0.90068          0.00061        -0.53739
  H         0.94880         -0.00040         1.89367
  H        -0.88027          0.00005         1.94238
  C        -1.28922         -0.00236        -0.76728
  H        -1.08254          0.03628        -1.83378
  H        -1.88385         -0.87717        -0.50388
  H        -1.89273          0.87993        -0.55800
9
 step=          17     theta[rad]=           0.1780
  C        -0.02069          0.00020         0.02976
  C         0.02012         -0.00000         1.34904
  H         0.90068         -0.00013        -0.53739
  H         0.94880          0.00009         1.89367
  H        -0.88027         -0.00001         1.94238
  C        -1.28922          0.00051        -0.76728
  H        -1.08254         -0.00780        -1.83378
  H        -1.88925         -0.87885        -0.53676
  H        -1.88734          0.87826        -0.52512
9
 step=          18     theta[rad]=           0.1885
  C        -0.02069          0.00141         0.02976
  C         0.02012         -0.00001         1.34904
  H         0.90068         -0.00092        -0.53739
  H         0.94880          0.00060         1.89367
  H        -0.88027         -0.00008         1.94238
  C        -1.28922          0.00353        -0.76728
  H        -1.08254         -0.05418        -1.83378
  H        -1.89492         -0.88061        -0.57135
  H        -1.88166          0.87649        -0.49053
9
 step=          19     theta[rad]=           0.1990
  C        -0.02069          0.00263         0.02976
  C         0.02012         -0.00003         1.34904
  H         0.90068         -0.00171        -0.53739
  H         0.94880          0.00112         1.89367
  H        -0.88027         -0.00015         1.94238
  C        -1.28922          0.00658        -0.76728
  H        -1.08254         -0.10102        -1.83378
  H        -1.90065         -0.88239        -0.60629
  H        -1.87593          0.87471        -0.45560
9
 step=          20     theta[rad]=           0.2094
  C        -0.02069          0.00380         0.02976
  C         0.02012         -0.00004         1.34904
  H         0.90068         -0.00247        -0.53739
  H         0.94880          0.00162         1.89367
  H        -0.88027         -0.00021         1.94238
  C        -1.28922          0.00951        -0.76728
  H        -1.08254         -0.14599        -1.83378
  H        -1.90615         -0.88410        -0.63982
  H        -1.87043          0.87301        -0.42206
9
 step=          21     theta[rad]=           0.2199
  C        -0.02069          0.00485         0.02976
  C         0.02012         -0.00005         1.34904
  H         0.90068         -0.00316        -0.53739
  H         0.94880          0.00206         1.89367
  H        -0.88027         -0.00027         1.94238
  C        -1.28922          0.01214        -0.76728
  H        -1.08254         -0.18630        -1.83378
  H        -1.91109         -0.88563        -0.66989
  H        -1.86550          0.87147        -0.39199
9
 step=          22     theta[rad]=           0.2304
  C        -0.02069          0.00569         0.02976
  C         0.02012         -0.00006         1.34904
  H         0.90068         -0.00371        -0.53739
  H         0.94880          0.00242         1.89367
  H        -0.88027         -0.00031         1.94238
  C        -1.28922          0.01426        -0.76728
  H        -1.08254         -0.21888        -1.83378
  H        -1.91507         -0.88687        -0.69419
  H        -1.86151          0.87024        -0.36769
9
 step=          23     theta[rad]=           0.2409
  C        -0.02069          0.00626         0.02976
  C         0.02012         -0.00006         1.34904
  H         0.90068         -0.00408        -0.53739
  H         0.94880          0.00266         1.89367
  H        -0.88027         -0.00035         1.94238
  C        -1.28922          0.01568        -0.76728
  H        -1.08254         -0.24056        -1.83378
  H        -1.91772         -0.88769        -0.71036
  H        -1.85886          0.86941        -0.35152
9
 step=          24     theta[rad]=           0.2513
  C        -0.02069          0.00646         0.02976
  C         0.02012         -0.00007         1.34904
  H         0.90068         -0.00421        -0.53739
  H         0.94880          0.00275         1.89367
  H        -0.88027         -0.00036         1.94238
  C        -1.28922          0.01619        -0.76728
  H        -1.08254         -0.24836        -1.83378
  H        -1.91868         -0.88799        -0.71618
  H        -1.85791          0.86912        -0.34570
9
 step=          25     theta[rad]=           0.2618
  C        -0.02069          0.00624         0.02976
  C         0.02012         -0.00006         1.34904
  H         0.90068         -0.00406        -0.53739
  H         0.94880          0.00266         1.89367
  H        -0.88027         -0.00034         1.94238
  C        -1.28922          0.01563        -0.76728
  H        -1.08254         -0.23990        -1.83378
  H        -1.91764         -0.88767        -0.70987
  H        -1.85894          0.86944        -0.35202
9
 step=          26     theta[rad]=           0.2723
  C        -0.02069          0.00556         0.02976
  C         0.02012         -0.00006         1.34904
  H         0.90068         -0.00362        -0.53739
  H         0.94880          0.00237         1.89367
  H        -0.88027         -0.00031         1.94238
  C        -1.28922          0.01393        -0.76728
  H        -1.08254         -0.21378        -1.83378
  H        -1.91445         -0.88668        -0.69038
  H        -1.86214          0.87043        -0.37150
9
 step=          27     theta[rad]=           0.2827
  C        -0.02069          0.00442         0.02976
  C         0.02012         -0.00005         1.34904
  H         0.90068         -0.00288        -0.53739
  H         0.94880          0.00188         1.89367
  H        -0.88027         -0.00024         1.94238
  C        -1.28922          0.01108        -0.76728
  H        -1.08254         -0.17002        -1.83378
  H        -1.90909         -0.88501        -0.65775
  H        -1.86749          0.87209        -0.40414
9
 step=          28     theta[rad]=           0.2932
  C        -0.02069          0.00287         0.02976
  C         0.02012         -0.00003         1.34904
  H         0.90068         -0.00187        -0.53739
  H         0.94880          0.00122         1.89367
  H        -0.88027         -0.00016         1.94238
  C        -1.28922          0.00720        -0.76728
  H        -1.08254         -0.11043        -1.83378
  H        -1.90180         -0.88275        -0.61331
  H        -1.87478          0.87436        -0.44858
9
 step=          29     theta[rad]=           0.3037
  C        -0.02069          0.00101         0.02976
  C         0.02012         -0.00001         1.34904
  H         0.90068         -0.00066        -0.53739
  H         0.94880          0.00043         1.89367
  H        -0.88027         -0.00006         1.94238
  C        -1.28922          0.00253        -0.76728
  H        -1.08254         -0.03885        -1.83378
  H        -1.89305         -0.88003        -0.55992
  H        -1.88354          0.87708        -0.50196
9
 step=          30     theta[rad]=           0.3142
  C        -0.02069         -0.00101         0.02976
  C         0.02012          0.00001         1.34904
  H         0.90068          0.00066        -0.53739
  H         0.94880         -0.00043         1.89367
  H        -0.88027          0.00006         1.94238
  C        -1.28922         -0.00253        -0.76728
  H        -1.08254          0.03885        -1.83378
  H        -1.88354         -0.87708        -0.50196
  H        -1.89305          0.88003        -0.55992
9
 step=          31     theta[rad]=           0.3246
  C        -0.02069         -0.00299         0.02976
  C         0.02012          0.00003         1.34904
  H         0.90068          0.00195        -0.53739
  H         0.94880         -0.00127         1.89367
  H        -0.88027          0.00017         1.94238
  C        -1.28922         -0.00750        -0.76728
  H        -1.08254          0.11507        -1.83378
  H        -1.87422         -0.87418        -0.44512
  H        -1.90237          0.88293        -0.61676
9
 step=          32     theta[rad]=           0.3351
  C        -0.02069         -0.00471         0.02976
  C         0.02012          0.00005         1.34904
  H         0.90068          0.00307        -0.53739
  H         0.94880         -0.00200         1.89367
  H        -0.88027          0.00026         1.94238
  C        -1.28922         -0.01180        -0.76728
  H        -1.08254          0.18105        -1.83378
  H        -1.86614         -0.87167        -0.39591
  H        -1.91044          0.88543        -0.66598
9
 step=          33     theta[rad]=           0.3456
  C        -0.02069         -0.00593         0.02976
  C         0.02012          0.00006         1.34904
  H         0.90068          0.00386        -0.53739
  H         0.94880         -0.00252         1.89367
  H        -0.88027          0.00033         1.94238
  C        -1.28922         -0.01485        -0.76728
  H        -1.08254          0.22794        -1.83378
  H        -1.86041         -0.86989        -0.36094
  H        -1.91618          0.88721        -0.70095
9
 step=          34     theta[rad]=           0.3560
  C        -0.02069         -0.00645         0.02976
  C         0.02012          0.00007         1.34904
  H         0.90068          0.00420        -0.53739
  H         0.94880         -0.00275         1.89367
  H        -0.88027          0.00036         1.94238
  C        -1.28922         -0.01616        -0.76728
  H        -1.08254          0.24802        -1.83378
  H        -1.85795         -0.86913        -0.34596
  H        -1.91864          0.88798        -0.71593
9
 step=          35     theta[rad]=           0.3665
  C        -0.02069         -0.00614         0.02976
  C         0.02012          0.00006         1.34904
  H         0.90068          0.00400        -0.53739
  H         0.94880         -0.00262         1.89367
  H        -0.88027          0.00034         1.94238
  C        -1.28922         -0.01539        -0.76728
  H        -1.08254          0.23621        -1.83378
  H        -1.85939         -0.86958        -0.35477
  H        -1.91719          0.88753        -0.70711
9
 step=          36     theta[rad]=           0.3770
  C        -0.02069         -0.00498         0.02976
  C         0.02012          0.00005         1.34904
  H         0.90068          0.00324        -0.53739
  H         0.94880         -0.00212         1.89367
  H        -0.88027          0.00028         1.94238
  C        -1.28922         -0.01247        -0.76728
  H        -1.08254          0.19137        -1.83378
  H        -1.86488         -0.87128        -0.38821
  H        -1.91171          0.88583        -0.67367
9
 step=          37     theta[rad]=           0.3875
  C        -0.02069         -0.00305         0.02976
  C         0.02012          0.00003         1.34904
  H         0.90068          0.00199        -0.53739
  H         0.94880         -0.00130         1.89367
  H        -0.88027          0.00017         1.94238
  C        -1.28922         -0.00765        -0.76728
  H        -1.08254          0.11736        -1.83378
  H        -1.87393         -0.87409        -0.44341
  H        -1.90265          0.88301        -0.61848
9
 step=          38     theta[rad]=           0.3979
  C        -0.02069         -0.00061         0.02976
  C         0.02012          0.00001         1.34904
  H         0.90068          0.00040        -0.53739
  H         0.94880         -0.00026         1.89367
  H        -0.88027          0.00003         1.94238
  C        -1.28922         -0.00152        -0.76728
  H        -1.08254          0.02337        -1.83378
  H        -1.88543         -0.87767        -0.51351
  H        -1.89115          0.87944        -0.54837
9
 step=          39     theta[rad]=           0.4084
  C        -0.02069          0.00200         0.02976
  C         0.02012         -0.00002         1.34904
  H         0.90068         -0.00130        -0.53739
  H         0.94880          0.00085         1.89367
  H        -0.88027         -0.00011         1.94238
  C        -1.28922          0.00500        -0.76728
  H        -1.08254         -0.07675        -1.83378
  H        -1.89768         -0.88147        -0.58818
  H        -1.87890          0.87564        -0.47370
9
 step=          40     theta[rad]=           0.4189
  C        -0.02069          0.00432         0.02976
  C         0.02012         -0.00004         1.34904
  H         0.90068         -0.00282        -0.53739
  H         0.94880          0.00184         1.89367
  H        -0.88027         -0.00024         1.94238
  C        -1.28922          0.01083        -0.76728
  H        -1.08254         -0.16619        -1.83378
  H        -1.90863         -0.88487        -0.65489
  H        -1.86796          0.87224        -0.40699
9
 step=          41     theta[rad]=           0.4294
  C        -0.02069          0.00593         0.02976
  C         0.02012         -0.00006         1.34904
  H         0.90068         -0.00386        -0.53739
  H         0.94880          0.00252         1.89367
  H        -0.88027         -0.00033         1.94238
  C        -1.28922          0.01485        -0.76728
  H        -1.08254         -0.22794        -1.83378
  H        -1.91618         -0.88721        -0.70095
  H        -1.86041          0.86989        -0.36094
9
 step=          42     theta[rad]=           0.4398
  C        -0.02069          0.00646         0.02976
  C         0.02012         -0.00007         1.34904
  H         0.90068         -0.00421        -0.53739
  H         0.94880          0.00275         1.89367
  H        -0.88027         -0.00036         1.94238
  C        -1.28922          0.01618        -0.76728
  H        -1.08254         -0.24824        -1.83378
  H        -1.91866         -0.88799        -0.71609
  H        -1.85792          0.86912        -0.34580
9
 step=          43     theta[rad]=           0.4503
  C        -0.02069          0.00573         0.02976
  C         0.02012         -0.00006         1.34904
  H         0.90068         -0.00373        -0.53739
  H         0.94880          0.00244         1.89367
  H        -0.88027         -0.00032         1.94238
  C        -1.28922          0.01434        -0.76728
  H        -1.08254         -0.22010        -1.83378
  H        -1.91522         -0.88692        -0.69510
  H        -1.86137          0.87019        -0.36678
9
 step=          44     theta[rad]=           0.4608
  C        -0.02069          0.00380         0.02976
  C         0.02012         -0.00004         1.34904
  H         0.90068         -0.00247        -0.53739
  H         0.94880          0.00162         1.89367
  H        -0.88027         -0.00021         1.94238
  C        -1.28922          0.00951        -0.76728
  H        -1.08254         -0.14599        -1.83378
  H        -1.90615         -0.88410        -0.63982
  H        -1.87043          0.87301        -0.42206
9
 step=          45     theta[rad]=           0.4712
  C        -0.02069          0.00101         0.02976
  C         0.02012         -0.00001         1.34904
  H         0.90068         -0.00066        -0.53739
  H         0.94880          0.00043         1.89367
  H        -0.88027         -0.00006         1.94238
  C        -1.28922          0.00253        -0.76728
  H        -1.08254         -0.03885        -1.83378
  H        -1.89305         -0.88003        -0.55992
  H        -1.88354          0.87708        -0.50196
9
 step=          46     theta[rad]=           0.4817
  C        -0.02069         -0.00206         0.02976
  C         0.02012          0.00002         1.34904
  H         0.90068          0.00134        -0.53739
  H         0.94880         -0.00088         1.89367
  H        -0.88027          0.00011         1.94238
  C        -1.28922         -0.00516        -0.76728
  H        -1.08254          0.07922        -1.83378
  H        -1.87860         -0.87554        -0.47186
  H        -1.89799          0.88156        -0.59003
9
 step=          47     theta[rad]=           0.4922
  C        -0.02069         -0.00471         0.02976
  C         0.02012          0.00005         1.34904
  H         0.90068          0.00307        -0.53739
  H         0.94880         -0.00200         1.89367
  H        -0.88027          0.00026         1.94238
  C        -1.28922         -0.01180        -0.76728
  H        -1.08254          0.18105        -1.83378
  H        -1.86614         -0.87167        -0.39591
  H        -1.91044          0.88543        -0.66598
9
 step=          48     theta[rad]=           0.5027
  C        -0.02069         -0.00626         0.02976
  C         0.02012          0.00006         1.34904
  H         0.90068          0.00408        -0.53739
  H         0.94880         -0.00266         1.89367
  H        -0.88027          0.00035         1.94238
  C        -1.28922         -0.01568        -0.76728
  H        -1.08254          0.24056        -1.83378
  H        -1.85886         -0.86941        -0.35152
  H        -1.91772          0.88769        -0.71036
9
 step=          49     theta[rad]=           0.5131
  C        -0.02069         -0.00624         0.02976
  C         0.02012          0.00006         1.34904
  H         0.90068          0.00406        -0.53739
  H         0.94880         -0.00266         1.89367
  H        -0.88027          0.00034         1.94238
  C        -1.28922         -0.01563        -0.76728
  H        -1.08254          0.23990        -1.83378
  H        -1.85894         -0.86944        -0.35202
  H        -1.91764          0.88767        -0.70987
9
 step=          50     theta[rad]=           0.5236
  C        -0.02069         -0.00457         0.02976
  C         0.02012          0.00005         1.34904
  H         0.90068          0.00298        -0.53739
  H         0.94880         -0.00194         1.89367
  H        -0.88027          0.00025         1.94238
  C        -1.28922         -0.01144        -0.76728
  H        -1.08254          0.17562        -1.83378
  H        -1.86681         -0.87188        -0.39996
  H        -1.90978          0.88523        -0.66193
9
 step=          51     theta[rad]=           0.5341
  C        -0.02069         -0.00161         0.02976
  C         0.02012          0.00002         1.34904
  H         0.90068          0.00105        -0.53739
  H         0.94880         -0.00068         1.89367
  H        -0.88027          0.00009         1.94238
  C        -1.28922         -0.00403        -0.76728
  H        -1.08254          0.06177        -1.83378
  H        -1.88074         -0.87621        -0.48488
  H        -1.89585          0.88090        -0.57701
9
 step=          52     theta[rad]=           0.5445
  C        -0.02069          0.00187         0.02976
  C         0.02012         -0.00002         1.34904
  H         0.90068         -0.00122        -0.53739
  H         0.94880          0.00079         1.89367
  H        -0.88027         -0.00010         1.94238
  C        -1.28922          0.00468        -0.76728
  H        -1.08254         -0.07179        -1.83378
  H        -1.89708         -0.88128        -0.58448
  H        -1.87951          0.87583        -0.47740
9
 step=          53     theta[rad]=           0.5550
  C        -0.02069          0.00485         0.02976
  C         0.02012         -0.00005         1.34904
  H         0.90068         -0.00316        -0.53739
  H         0.94880          0.00206         1.89367
  H        -0.88027         -0.00027         1.94238
  C        -1.28922          0.01214        -0.76728
  H        -1.08254         -0.18630        -1.83378
  H        -1.91109         -0.88563        -0.66989
  H        -1.86550          0.87147        -0.39199
9
 step=          54     theta[rad]=           0.5655
  C        -0.02069          0.00638         0.02976
  C         0.02012         -0.00007         1.34904
  H         0.90068         -0.00416        -0.53739
  H         0.94880          0.00272         1.89367
  H        -0.88027         -0.00035         1.94238
  C        -1.28922          0.01599        -0.76728
  H        -1.08254         -0.24531        -1.83378
  H        -1.91831         -0.88787        -0.71390
  H        -1.85828          0.86923        -0.34798
9
 step=          55     theta[rad]=           0.5760
  C        -0.02069          0.00590         0.02976
  C         0.02012         -0.00006         1.34904
  H         0.90068         -0.00384        -0.53739
  H         0.94880          0.00251         1.89367
  H        -0.88027         -0.00033         1.94238
  C        -1.28922          0.01479        -0.76728
  H        -1.08254         -0.22689        -1.83378
  H        -1.91605         -0.88718        -0.70017
  H        -1.86053          0.86993        -0.36172
9
 step=          56     theta[rad]=           0.5864
  C        -0.02069          0.00346         0.02976
  C         0.02012         -0.00004         1.34904
  H         0.90068         -0.00225        -0.53739
  H         0.94880          0.00147         1.89367
  H        -0.88027         -0.00019         1.94238
  C        -1.28922          0.00867        -0.76728
  H        -1.08254         -0.13308        -1.83378
  H        -1.90457         -0.88361        -0.63020
  H        -1.87201          0.87350        -0.43169
9
 step=          57     theta[rad]=           0.5969
  C        -0.02069         -0.00020         0.02976
  C         0.02012          0.00000         1.34904
  H         0.90068          0.00013        -0.53739
  H         0.94880         -0.00009         1.89367
  H        -0.88027          0.00001         1.94238
  C        -1.28922         -0.00051        -0.76728
  H        -1.08254          0.00780        -1.83378
  H        -1.88734         -0.87826        -0.52512
  H        -1.88925          0.87885        -0.53676
9
 step=          58     theta[rad]=           0.6074
  C        -0.02069         -0.00385         0.02976
  C         0.02012          0.00004         1.34904
  H         0.90068          0.00251        -0.53739
  H         0.94880         -0.00164         1.89367
  H        -0.88027          0.00021         1.94238
  C        -1.28922         -0.00965        -0.76728
  H        -1.08254          0.14808        -1.83378
  H        -1.87018         -0.87293        -0.42050
  H        -1.90641          0.88418        -0.64139
9
 step=          59     theta[rad]=           0.6178
  C        -0.02069         -0.00614         0.02976
  C         0.02012          0.00006         1.34904
  H         0.90068          0.00400        -0.53739
  H         0.94880         -0.00262         1.89367
  H        -0.88027          0.00034         1.94238
  C        -1.28922         -0.01539        -0.76728
  H        -1.08254          0.23621        -1.83378
  H        -1.85939         -0.86958        -0.35477
  H        -1.91719          0.88753        -0.70711
9
 step=          60     theta[rad]=           0.6283
  C        -0.02069         -0.00614         0.02976
  C         0.02012          0.00006         1.34904
  H         0.90068          0.00400        -0.53739
  H         0.94880         -0.00262         1.89367
  H        -0.88027          0.00034         1.94238
  C        -1.28922         -0.01539        -0.76728
  H        -1.08254          0.23621        -1.83378
  H        -1.85939         -0.86958        -0.35477
  H        -1.91719          0.88753        -0.70711
9
 step=          61     theta[rad]=           0.6388
  C        -0.02069         -0.00374         0.02976
  C         0.02012          0.00004         1.34904
  H         0.90068          0.00244        -0.53739
  H         0.94880         -0.00159         1.89367
  H        -0.88027          0.00021         1.94238
  C        -1.28922         -0.00938        -0.76728
  H        -1.08254          0.14387        -1.83378
  H        -1.87069         -0.87309        -0.42364
  H        -1.90590          0.88402        -0.63825
9
 step=          62     theta[rad]=           0.6493
  C        -0.02069          0.00020         0.02976
  C         0.02012         -0.00000         1.34904
  H         0.90068         -0.00013        -0.53739
  H         0.94880          0.00009         1.89367
  H        -0.88027         -0.00001         1.94238
  C        -1.28922          0.00051        -0.76728
  H        -1.08254         -0.00780        -1.83378
  H        -1.88925         -0.87885        -0.53676
  H        -1.88734          0.87826        -0.52512
9
 step=          63     theta[rad]=           0.6597
  C        -0.02069          0.00412         0.02976
  C         0.02012         -0.00004         1.34904
  H         0.90068         -0.00268        -0.53739
  H         0.94880          0.00175         1.89367
  H        -0.88027         -0.00023         1.94238
  C        -1.28922          0.01032        -0.76728
  H        -1.08254         -0.15831        -1.83378
  H        -1.90766         -0.88457        -0.64902
  H        -1.86892          0.87254        -0.41287
9
 step=          64     theta[rad]=           0.6702
  C        -0.02069          0.00632         0.02976
  C         0.02012         -0.00007         1.34904
  H         0.90068         -0.00412        -0.53739
  H         0.94880          0.00269         1.89367
  H        -0.88027         -0.00035         1.94238
  C        -1.28922          0.01583        -0.76728
  H        -1.08254         -0.24294        -1.83378
  H        -1.91802         -0.88778        -0.71213
  H        -1.85857          0.86932        -0.34975
9
 step=          65     theta[rad]=           0.6807
  C        -0.02069          0.00576         0.02976
  C         0.02012         -0.00006         1.34904
  H         0.90068         -0.00375        -0.53739
  H         0.94880          0.00245         1.89367
  H        -0.88027         -0.00032         1.94238
  C        -1.28922          0.01442        -0.76728
  H        -1.08254         -0.22129        -1.83378
  H        -1.91537         -0.88696        -0.69599
  H        -1.86122          0.87014        -0.36589
9
 step=          66     theta[rad]=           0.6912
  C        -0.02069          0.00257         0.02976
  C         0.02012         -0.00003         1.34904
  H         0.90068         -0.00167        -0.53739
  H         0.94880          0.00109         1.89367
  H        -0.88027         -0.00014         1.94238
  C        -1.28922          0.00643        -0.76728
  H        -1.08254         -0.09864        -1.83378
  H        -1.90036         -0.88230        -0.60451
  H        -1.87623          0.87481        -0.45738
9
 step=          67     theta[rad]=           0.7016
  C        -0.02069         -0.00187         0.02976
  C         0.02012          0.00002         1.34904
  H         0.90068          0.00122        -0.53739
  H         0.94880         -0.00079         1.89367
  H        -0.88027          0.00010         1.94238
  C        -1.28922         -0.00468        -0.76728
  H        -1.08254          0.07179        -1.83378
  H        -1.87951         -0.87583        -0.47740
  H        -1.89708          0.88128        -0.58448
9
 step=          68     theta[rad]=           0.7121
  C        -0.02069         -0.00546         0.02976
  C         0.02012          0.00006         1.34904
  H         0.90068          0.00355        -0.53739
  H         0.94880         -0.00232         1.89367
  H        -0.88027          0.00030         1.94238
  C        -1.28922         -0.01367        -0.76728
  H        -1.08254          0.20970        -1.83378
  H        -1.86264         -0.87059        -0.37454
  H        -1.91395          0.88652        -0.68734
9
 step=          69     theta[rad]=           0.7226
  C        -0.02069         -0.00638         0.02976
  C         0.02012          0.00007         1.34904
  H         0.90068          0.00416        -0.53739
  H         0.94880         -0.00272         1.89367
  H        -0.88027          0.00035         1.94238
  C        -1.28922         -0.01599        -0.76728
  H        -1.08254          0.24531        -1.83378
  H        -1.85828         -0.86923        -0.34798
  H        -1.91831          0.88787        -0.71390
9
 step=          70     theta[rad]=           0.7330
  C        -0.02069         -0.00407         0.02976
  C         0.02012          0.00004         1.34904
  H         0.90068          0.00265        -0.53739
  H         0.94880         -0.00173         1.89367
  H        -0.88027          0.00022         1.94238
  C        -1.28922         -0.01019        -0.76728
  H        -1.08254          0.15630        -1.83378
  H        -1.86917         -0.87261        -0.41437
  H        -1.90742          0.88449        -0.64752
9
 step=          71     theta[rad]=           0.7435
  C        -0.02069          0.00041         0.02976
  C         0.02012         -0.00000         1.34904
  H         0.90068         -0.00026        -0.53739
  H         0.94880          0.00017         1.89367
  H        -0.88027         -0.00002         1.94238
  C        -1.28922          0.00102        -0.76728
  H        -1.08254         -0.01559        -1.83378
  H        -1.89020         -0.87915        -0.54257
  H        -1.88639          0.87796        -0.51931
9
 step=          72     theta[rad]=           0.7540
  C        -0.02069          0.00471         0.02976
  C         0.02012         -0.00005         1.34904
  H         0.90068         -0.00307        -0.53739
  H         0.94880          0.00200         1.89367
  H        -0.88027         -0.00026         1.94238
  C        -1.28922          0.01180        -0.76728
  H        -1.08254         -0.18105        -1.83378
  H        -1.91044         -0.88543        -0.66598
  H        -1.86614          0.87167        -0.39591
9
 step=          73     theta[rad]=           0.7645
  C        -0.02069          0.00646         0.02976
  C         0.02012         -0.00007         1.34904
  H         0.90068         -0.00421        -0.53739
  H         0.94880          0.00275         1.89367
  H        -0.88027         -0.00036         1.94238
  C        -1.28922          0.01618        -0.76728
  H        -1.08254         -0.24835        -1.83378
  H        -1.91868         -0.88799        -0.71617
  H        -1.85791          0.86912        -0.34571
9
 step=          74     theta[rad]=           0.7749
  C        -0.02069          0.00457         0.02976
  C         0.02012         -0.00005         1.34904
  H         0.90068         -0.00298        -0.53739
  H         0.94880          0.00194         1.89367
  H        -0.88027         -0.00025         1.94238
  C        -1.28922          0.01144        -0.76728
  H        -1.08254         -0.17562        -1.83378
  H        -1.90978         -0.88523        -0.66193
  H        -1.86681          0.87188        -0.39996
9
 step=          75     theta[rad]=           0.7854
  C        -0.02069         -0.00000         0.02976
  C         0.02012          0.00000         1.34904
  H         0.90068         -0.00000        -0.53739
  H         0.94880         -0.00000         1.89367
  H        -0.88027          0.00000         1.94238
  C        -1.28922         -0.00000        -0.76728
  H        -1.08254          0.00000        -1.83378
  H        -1.88829         -0.87855        -0.53094
  H        -1.88829          0.87855        -0.53094
9
 step=          76     theta[rad]=           0.7959
  C        -0.02069         -0.00462         0.02976
  C         0.02012          0.00005         1.34904
  H         0.90068          0.00301        -0.53739
  H         0.94880         -0.00197         1.89367
  H        -0.88027          0.00026         1.94238
  C        -1.28922         -0.01156        -0.76728
  H        -1.08254          0.17745        -1.83378
  H        -1.86658         -0.87181        -0.39859
  H        -1.91000          0.88530        -0.66329
9
 step=          77     theta[rad]=           0.8063
  C        -0.02069         -0.00646         0.02976
  C         0.02012          0.00007         1.34904
  H         0.90068          0.00421        -0.53739
  H         0.94880         -0.00275         1.89367
  H        -0.88027          0.00036         1.94238
  C        -1.28922         -0.01618        -0.76728
  H        -1.08254          0.24824        -1.83378
  H        -1.85792         -0.86912        -0.34580
  H        -1.91866          0.88799        -0.71609
9
 step=          78     theta[rad]=           0.8168
  C        -0.02069         -0.00427         0.02976
  C         0.02012          0.00004         1.34904
  H         0.90068          0.00278        -0.53739
  H         0.94880         -0.00182         1.89367
  H        -0.88027          0.00024         1.94238
  C        -1.28922         -0.01070        -0.76728
  H        -1.08254          0.16425        -1.83378
  H        -1.86820         -0.87231        -0.40844
  H        -1.90839          0.88479        -0.65344
9
 step=          79     theta[rad]=           0.8273
  C        -0.02069          0.00068         0.02976
  C         0.02012         -0.00001         1.34904
  H         0.90068         -0.00044        -0.53739
  H         0.94880          0.00029         1.89367
  H        -0.88027         -0.00004         1.94238
  C        -1.28922          0.00169        -0.76728
  H        -1.08254         -0.02596        -1.83378
  H        -1.89147         -0.87954        -0.55031
  H        -1.88512          0.87757        -0.51158
9
 step=          80     theta[rad]=           0.8378
  C        -0.02069          0.00523         0.02976
  C         0.02012         -0.00005         1.34904
  H         0.90068         -0.00340        -0.53739
  H         0.94880          0.00222         1.89367
  H        -0.88027         -0.00029         1.94238
  C        -1.28922          0.01309        -0.76728
  H        -1.08254         -0.20093        -1.83378
  H        -1.91288         -0.88619        -0.68080
  H        -1.86371          0.87092        -0.38108
9
 step=          81     theta[rad]=           0.8482
  C        -0.02069          0.00631         0.02976
  C         0.02012         -0.00007         1.34904
  H         0.90068         -0.00411        -0.53739
  H         0.94880          0.00268         1.89367
  H        -0.88027         -0.00035         1.94238
  C        -1.28922          0.01580        -0.76728
  H        -1.08254         -0.24238        -1.83378
  H        -1.91795         -0.88776        -0.71172
  H        -1.85864          0.86934        -0.35017
9
 step=          82     theta[rad]=           0.8587
  C        -0.02069          0.00305         0.02976
  C         0.02012         -0.00003         1.34904
  H         0.90068         -0.00199        -0.53739
  H         0.94880          0.00130         1.89367
  H        -0.88027         -0.00017         1.94238
  C        -1.28922          0.00765        -0.76728
  H        -1.08254         -0.11736        -1.83378
  H        -1.90265         -0.88301        -0.61848
  H        -1.87393          0.87409        -0.44341
9
 step=          83     theta[rad]=           0.8692
  C        -0.02069         -0.00238         0.02976
  C         0.02012          0.00002         1.34904
  H         0.90068          0.00155        -0.53739
  H         0.94880         -0.00101         1.89367
  H        -0.88027          0.00013         1.94238
  C        -1.28922         -0.00596        -0.76728
  H        -1.08254          0.09143        -1.83378
  H        -1.87711         -0.87508        -0.46275
  H        -1.89948          0.88203        -0.59913
9
 step=          84     theta[rad]=           0.8796
  C        -0.02069         -0.00614         0.02976
  C         0.02012          0.00006         1.34904
  H         0.90068          0.00400        -0.53739
  H         0.94880         -0.00262         1.89367
  H        -0.88027          0.00034         1.94238
  C        -1.28922         -0.01539        -0.76728
  H        -1.08254          0.23621        -1.83378
  H        -1.85939         -0.86958        -0.35477
  H        -1.91719          0.88753        -0.70711
9
 step=          85     theta[rad]=           0.8901
  C        -0.02069         -0.00542         0.02976
  C         0.02012          0.00006         1.34904
  H         0.90068          0.00353        -0.53739
  H         0.94880         -0.00231         1.89367
  H        -0.88027          0.00030         1.94238
  C        -1.28922         -0.01357        -0.76728
  H        -1.08254          0.20830        -1.83378
  H        -1.86281         -0.87064        -0.37559
  H        -1.91378          0.88647        -0.68630
9
 step=          86     theta[rad]=           0.9006
  C        -0.02069         -0.00061         0.02976
  C         0.02012          0.00001         1.34904
  H         0.90068          0.00040        -0.53739
  H         0.94880         -0.00026         1.89367
  H        -0.88027          0.00003         1.94238
  C        -1.28922         -0.00152        -0.76728
  H        -1.08254          0.02337        -1.83378
  H        -1.88543         -0.87767        -0.51351
  H        -1.89115          0.87944        -0.54837
9
 step=          87     theta[rad]=           0.9111
  C        -0.02069          0.00471         0.02976
  C         0.02012         -0.00005         1.34904
  H         0.90068         -0.00307        -0.53739
  H         0.94880          0.00200         1.89367
  H        -0.88027         -0.00026         1.94238
  C        -1.28922          0.01180        -0.76728
  H        -1.08254         -0.18105        -1.83378
  H        -1.91044         -0.88543        -0.66598
  H        -1.86614          0.87167        -0.39591
9
 step=          88     theta[rad]=           0.9215
  C        -0.02069          0.00637         0.02976
  C         0.02012         -0.00007         1.34904
  H         0.90068         -0.00415        -0.53739
  H         0.94880          0.00271         1.89367
  H        -0.88027         -0.00035         1.94238
  C        -1.28922          0.01596        -0.76728
  H        -1.08254         -0.24489        -1.83378
  H        -1.91825         -0.88786        -0.71359
  H        -1.85833          0.86925        -0.34830
9
 step=          89     theta[rad]=           0.9320
  C        -0.02069          0.00293         0.02976
  C         0.02012         -0.00003         1.34904
  H         0.90068         -0.00191        -0.53739
  H         0.94880          0.00125         1.89367
  H        -0.88027         -0.00016         1.94238
  C        -1.28922          0.00735        -0.76728
  H        -1.08254         -0.11276        -1.83378
  H        -1.90209         -0.88284        -0.61504
  H        -1.87450          0.87427        -0.44685
9
 step=          90     theta[rad]=           0.9425
  C        -0.02069         -0.00293         0.02976
  C         0.02012          0.00003         1.34904
  H         0.90068          0.00191        -0.53739
  H         0.94880         -0.00125         1.89367
  H        -0.88027          0.00016         1.94238
  C        -1.28922         -0.00735        -0.76728
  H        -1.08254          0.11276        -1.83378
  H        -1.87450         -0.87427        -0.44685
  H        -1.90209          0.88284        -0.61504
9
 step=          91     theta[rad]=           0.9529
  C        -0.02069         -0.00639         0.02976
  C         0.02012          0.00007         1.34904
  H         0.90068          0.00416        -0.53739
  H         0.94880         -0.00272         1.89367
  H        -0.88027          0.00035         1.94238
  C        -1.28922         -0.01601        -0.76728
  H        -1.08254          0.24570        -1.83378
  H        -1.85823         -0.86922        -0.34769
  H        -1.91835          0.88789        -0.71419
9
 step=          92     theta[rad]=           0.9634
  C        -0.02069         -0.00442         0.02976
  C         0.02012          0.00005         1.34904
  H         0.90068          0.00288        -0.53739
  H         0.94880         -0.00188         1.89367
  H        -0.88027          0.00024         1.94238
  C        -1.28922         -0.01108        -0.76728
  H        -1.08254          0.17002        -1.83378
  H        -1.86749         -0.87209        -0.40414
  H        -1.90909          0.88501        -0.65775
9
 step=          93     theta[rad]=           0.9739
  C        -0.02069          0.00141         0.02976
  C         0.02012         -0.00001         1.34904
  H         0.90068         -0.00092        -0.53739
  H         0.94880          0.00060         1.89367
  H        -0.88027         -0.00008         1.94238
  C        -1.28922          0.00353        -0.76728
  H        -1.08254         -0.05418        -1.83378
  H        -1.89492         -0.88061        -0.57135
  H        -1.88166          0.87649        -0.49053
9
 step=          94     theta[rad]=           0.9844
  C        -0.02069          0.00603         0.02976
  C         0.02012         -0.00006         1.34904
  H         0.90068         -0.00393        -0.53739
  H         0.94880          0.00257         1.89367
  H        -0.88027         -0.00033         1.94238
  C        -1.28922          0.01511        -0.76728
  H        -1.08254         -0.23187        -1.83378
  H        -1.91666         -0.88736        -0.70388
  H        -1.85993          0.86974        -0.35801
9
 step=          95     theta[rad]=           0.9948
  C        -0.02069          0.00523         0.02976
  C         0.02012         -0.00005         1.34904
  H         0.90068         -0.00340        -0.53739
  H         0.94880          0.00222         1.89367
  H        -0.88027         -0.00029         1.94238
  C        -1.28922          0.01309        -0.76728
  H        -1.08254         -0.20093        -1.83378
  H        -1.91288         -0.88619        -0.68080
  H        -1.86371          0.87092        -0.38108
9
 step=          96     theta[rad]=           1.0053
  C        -0.02069         -0.00041         0.02976
  C         0.02012          0.00000         1.34904
  H         0.90068          0.00026        -0.53739
  H         0.94880         -0.00017         1.89367
  H        -0.88027          0.00002         1.94238
  C        -1.28922         -0.00102        -0.76728
  H        -1.08254          0.01559        -1.83378
  H        -1.88639         -0.87796        -0.51931
  H        -1.89020          0.87915        -0.54257
9
 step=          97     theta[rad]=           1.0158
  C        -0.02069         -0.00569         0.02976
  C         0.02012          0.00006         1.34904
  H         0.90068          0.00371        -0.53739
  H         0.94880         -0.00242         1.89367
  H        -0.88027          0.00031         1.94238
  C        -1.28922         -0.01426        -0.76728
  H        -1.08254          0.21888        -1.83378
  H        -1.86151         -0.87024        -0.36769
  H        -1.91507          0.88687        -0.69419
9
 step=          98     theta[rad]=           1.0263
  C        -0.02069         -0.00556         0.02976
  C         0.02012          0.00006         1.34904
  H         0.90068          0.00362        -0.53739
  H         0.94880         -0.00237         1.89367
  H        -0.88027          0.00031         1.94238
  C        -1.28922         -0.01393        -0.76728
  H        -1.08254          0.21378        -1.83378
  H        -1.86214         -0.87043        -0.37150
  H        -1.91445          0.88668        -0.69038
9
 step=          99     theta[rad]=           1.0367
  C        -0.02069         -0.00000         0.02976
  C         0.02012          0.00000         1.34904
  H         0.90068         -0.00000        -0.53739
  H         0.94880         -0.00000         1.89367
  H        -0.88027          0.00000         1.94238
  C        -1.28922         -0.00000        -0.76728
  H        -1.08254          0.00000        -1.83378
  H        -1.88829         -0.87855        -0.53094
  H        -1.88829          0.87855        -0.53094
9
 step=         100     theta[rad]=           1.0472
  C        -0.02069          0.00560         0.02976
  C         0.02012         -0.00006         1.34904
  H         0.90068         -0.00364        -0.53739
  H         0.94880          0.00238         1.89367
  H        -0.88027         -0.00031         1.94238
  C        -1.28922          0.01402        -0.76728
  H        -1.08254         -0.21509        -1.83378
  H        -1.91461         -0.88673        -0.69136
  H        -1.86198          0.87038        -0.37052
9
 step=         101     theta[rad]=           1.0577
  C        -0.02069          0.00556         0.02976
  C         0.02012         -0.00006         1.34904
  H         0.90068         -0.00362        -0.53739
  H         0.94880          0.00237         1.89367
  H        -0.88027         -0.00031         1.94238
  C        -1.28922          0.01393        -0.76728
  H        -1.08254         -0.21378        -1.83378
  H        -1.91445         -0.88668        -0.69038
  H        -1.86214          0.87043        -0.37150
9
 step=         102     theta[rad]=           1.0681
  C        -0.02069         -0.00020         0.02976
  C         0.02012          0.00000         1.34904
  H         0.90068          0.00013        -0.53739
  H         0.94880         -0.00009         1.89367
  H        -0.88027          0.00001         1.94238
  C        -1.28922         -0.00051        -0.76728
  H        -1.08254          0.00780        -1.83378
  H        -1.88734         -0.87826        -0.52512
  H        -1.88925          0.87885        -0.53676
9
 step=         103     theta[rad]=           1.0786
  C        -0.02069         -0.00579         0.02976
  C         0.02012          0.00006         1.34904
  H         0.90068          0.00377        -0.53739
  H         0.94880         -0.00246         1.89367
  H        -0.88027          0.00032         1.94238
  C        -1.28922         -0.01450        -0.76728
  H        -1.08254          0.22246        -1.83378
  H        -1.86108         -0.87010        -0.36502
  H        -1.91551          0.88701        -0.69686
9
 step=         104     theta[rad]=           1.0891
  C        -0.02069         -0.00523         0.02976
  C         0.02012          0.00005         1.34904
  H         0.90068          0.00340        -0.53739
  H         0.94880         -0.00223         1.89367
  H        -0.88027          0.00029         1.94238
  C        -1.28922         -0.01309        -0.76728
  H        -1.08254          0.20093        -1.83378
  H        -1.86371         -0.87092        -0.38108
  H        -1.91288          0.88619        -0.68080
9
 step=         105     theta[rad]=           1.0996
  C        -0.02069          0.00101         0.02976
  C         0.02012         -0.00001         1.34904
  H         0.90068         -0.00066        -0.53739
  H         0.94880          0.00043         1.89367
  H        -0.88027         -0.00006         1.94238
  C        -1.28922          0.00253        -0.76728
  H        -1.08254         -0.03885        -1.83378
  H        -1.89305         -0.88003        -0.55992
  H        -1.88354          0.87708        -0.50196
9
 step=         106     theta[rad]=           1.1100
  C        -0.02069          0.00617         0.02976
  C         0.02012         -0.00006         1.34904
  H         0.90068         -0.00402        -0.53739
  H         0.94880          0.00262         1.89367
  H        -0.88027         -0.00034         1.94238
  C        -1.28922          0.01544        -0.76728
  H        -1.08254         -0.23700        -1.83378
  H        -1.91729         -0.88756        -0.70770
  H        -1.85930          0.86955        -0.35418
9
 step=         107     theta[rad]=           1.1205
  C        -0.02069          0.00442         0.02976
  C         0.02012         -0.00005         1.34904
  H         0.90068         -0.00288        -0.53739
  H         0.94880          0.00188         1.89367
  H        -0.88027         -0.00024         1.94238
  C        -1.28922          0.01108        -0.76728
  H        -1.08254         -0.17002        -1.83378
  H        -1.90909         -0.88501        -0.65775
  H        -1.86749          0.87209        -0.40414
9
 step=         108     theta[rad]=           1.1310
  C        -0.02069         -0.00238         0.02976
  C         0.02012          0.00002         1.34904
  H         0.90068          0.00155        -0.53739
  H         0.94880         -0.00101         1.89367
  H        -0.88027          0.00013         1.94238
  C        -1.28922         -0.00596        -0.76728
  H        -1.08254          0.09143        -1.83378
  H        -1.87711         -0.87508        -0.46275
  H        -1.89948          0.88203        -0.59913
9
 step=         109     theta[rad]=           1.1414
  C        -0.02069         -0.00645         0.02976
  C         0.02012          0.00007         1.34904
  H         0.90068          0.00420        -0.53739
  H         0.94880         -0.00275         1.89367
  H        -0.88027          0.00036         1.94238
  C        -1.28922         -0.01616        -0.76728
  H        -1.08254          0.24802        -1.83378
  H        -1.85795         -0.86913        -0.34596
  H        -1.91864          0.88798        -0.71593
9
 step=         110     theta[rad]=           1.1519
  C        -0.02069         -0.00293         0.02976
  C         0.02012          0.00003         1.34904
  H         0.90068          0.00191        -0.53739
  H         0.94880         -0.00125         1.89367
  H        -0.88027          0.00016         1.94238
  C        -1.28922         -0.00735        -0.76728
  H        -1.08254          0.11276        -1.83378
  H        -1.87450         -0.87427        -0.44685
  H        -1.90209          0.88284        -0.61504
9
 step=         111     theta[rad]=           1.1624
  C        -0.02069          0.00412         0.02976
  C         0.02012         -0.00004         1.34904
  H         0.90068         -0.00268        -0.53739
  H         0.94880          0.00175         1.89367
  H        -0.88027         -0.00023         1.94238
  C        -1.28922          0.01032        -0.76728
  H        -1.08254         -0.15831        -1.83378
  H        -1.90766         -0.88457        -0.64902
  H        -1.86892          0.87254        -0.41287
9
 step=         112     theta[rad]=           1.1729
  C        -0.02069          0.00619         0.02976
  C         0.02012         -0.00006         1.34904
  H         0.90068         -0.00403        -0.53739
  H         0.94880          0.00263         1.89367
  H        -0.88027         -0.00034         1.94238
  C        -1.28922          0.01549        -0.76728
  H        -1.08254         -0.23776        -1.83378
  H        -1.91738         -0.88759        -0.70827
  H        -1.85920          0.86952        -0.35361
9
 step=         113     theta[rad]=           1.1833
  C        -0.02069          0.00061         0.02976
  C         0.02012         -0.00001         1.34904
  H         0.90068         -0.00040        -0.53739
  H         0.94880          0.00026         1.89367
  H        -0.88027         -0.00003         1.94238
  C        -1.28922          0.00152        -0.76728
  H        -1.08254         -0.02337        -1.83378
  H        -1.89115         -0.87944        -0.54838
  H        -1.88543          0.87767        -0.51351
9
 step=         114     theta[rad]=           1.1938
  C        -0.02069         -0.00576         0.02976
  C         0.02012          0.00006         1.34904
  H         0.90068          0.00375        -0.53739
  H         0.94880         -0.00245         1.89367
  H        -0.88027          0.00032         1.94238
  C        -1.28922         -0.01442        -0.76728
  H        -1.08254          0.22129        -1.83378
  H        -1.86122         -0.87014        -0.36589
  H        -1.91537          0.88696        -0.69599
9
 step=         115     theta[rad]=           1.2043
  C        -0.02069         -0.00480         0.02976
  C         0.02012          0.00005         1.34904
  H         0.90068          0.00313        -0.53739
  H         0.94880         -0.00204         1.89367
  H        -0.88027          0.00027         1.94238
  C        -1.28922         -0.01203        -0.76728
  H        -1.08254          0.18457        -1.83378
  H        -1.86571         -0.87154        -0.39328
  H        -1.91087          0.88557        -0.66860
9
 step=         116     theta[rad]=           1.2147
  C        -0.02069          0.00238         0.02976
  C         0.02012         -0.00002         1.34904
  H         0.90068         -0.00155        -0.53739
  H         0.94880          0.00101         1.89367
  H        -0.88027         -0.00013         1.94238
  C        -1.28922          0.00596        -0.76728
  H        -1.08254         -0.09143        -1.83378
  H        -1.89948         -0.88203        -0.59913
  H        -1.87711          0.87508        -0.46275
9
 step=         117     theta[rad]=           1.2252
  C        -0.02069          0.00646         0.02976
  C         0.02012         -0.00007         1.34904
  H         0.90068         -0.00421        -0.53739
  H         0.94880          0.00275         1.89367
  H        -0.88027         -0.00036         1.94238
  C        -1.28922          0.01618        -0.76728
  H        -1.08254         -0.24824        -1.83378
  H        -1.91866         -0.88799        -0.71609
  H        -1.85792          0.86912        -0.34580
9
 step=         118     theta[rad]=           1.2357
  C        -0.02069          0.00193         0.02976
  C         0.02012         -0.00002         1.34904
  H         0.90068         -0.00126        -0.53739
  H         0.94880          0.00082         1.89367
  H        -0.88027         -0.00011         1.94238
  C        -1.28922          0.00484        -0.76728
  H        -1.08254         -0.07427        -1.83378
  H        -1.89738         -0.88138        -0.58634
  H        -1.87921          0.87573        -0.47555
9
 step=         119     theta[rad]=           1.2462
  C        -0.02069         -0.00523         0.02976
  C         0.02012          0.00005         1.34904
  H         0.90068          0.00340        -0.53739
  H         0.94880         -0.00223         1.89367
  H        -0.88027          0.00029         1.94238
  C        -1.28922         -0.01309        -0.76728
  H        -1.08254          0.20093        -1.83378
  H        -1.86371         -0.87092        -0.38108
  H        -1.91288          0.88619        -0.68080
9
 step=         120     theta[rad]=           1.2566
  C        -0.02069         -0.00523         0.02976
  C         0.02012          0.00005         1.34904
  H         0.90068          0.00340        -0.53739
  H         0.94880         -0.00223         1.89367
  H        -0.88027          0.00029         1.94238
  C        -1.28922         -0.01309        -0.76728
  H        -1.08254          0.20093        -1.83378
  H        -1.86371         -0.87092        -0.38108
  H        -1.91288          0.88619        -0.68080
9
 step=         121     theta[rad]=           1.2671
  C        -0.02069          0.00206         0.02976
  C         0.02012         -0.00002         1.34904
  H         0.90068         -0.00134        -0.53739
  H         0.94880          0.00088         1.89367
  H        -0.88027         -0.00011         1.94238
  C        -1.28922          0.00516        -0.76728
  H        -1.08254         -0.07922        -1.83378
  H        -1.89799         -0.88156        -0.59003
  H        -1.87860          0.87554        -0.47186
9
 step=         122     theta[rad]=           1.2776
  C        -0.02069          0.00646         0.02976
  C         0.02012         -0.00007         1.34904
  H         0.90068         -0.00421        -0.53739
  H         0.94880          0.00275         1.89367
  H        -0.88027         -0.00036         1.94238
  C        -1.28922          0.01618        -0.76728
  H        -1.08254         -0.24824        -1.83378
  H        -1.91866         -0.88799        -0.71609
  H        -1.85792          0.86912        -0.34580
9
 step=         123     theta[rad]=           1.2881
  C        -0.02069          0.00161         0.02976
  C         0.02012         -0.00002         1.34904
  H         0.90068         -0.00105        -0.53739
  H         0.94880          0.00068         1.89367
  H        -0.88027         -0.00009         1.94238
  C        -1.28922          0.00403        -0.76728
  H        -1.08254         -0.06177        -1.83378
  H        -1.89585         -0.88090        -0.57701
  H        -1.88074          0.87621        -0.48488
9
 step=         124     theta[rad]=           1.2985
  C        -0.02069         -0.00560         0.02976
  C         0.02012          0.00006         1.34904
  H         0.90068          0.00364        -0.53739
  H         0.94880         -0.00238         1.89367
  H        -0.88027          0.00031         1.94238
  C        -1.28922         -0.01402        -0.76728
  H        -1.08254          0.21509        -1.83378
  H        -1.86198         -0.87038        -0.37052
  H        -1.91461          0.88673        -0.69136
9
 step=         125     theta[rad]=           1.3090
  C        -0.02069         -0.00457         0.02976
  C         0.02012          0.00005         1.34904
  H         0.90068          0.00298        -0.53739
  H         0.94880         -0.00194         1.89367
  H        -0.88027          0.00025         1.94238
  C        -1.28922         -0.01144        -0.76728
  H        -1.08254          0.17562        -1.83378
  H        -1.86681         -0.87188        -0.39996
  H        -1.90978          0.88523        -0.66193
9
 step=         126     theta[rad]=           1.3195
  C        -0.02069          0.00329         0.02976
  C         0.02012         -0.00003         1.34904
  H         0.90068         -0.00214        -0.53739
  H         0.94880          0.00140         1.89367
  H        -0.88027         -0.00018         1.94238
  C        -1.28922          0.00824        -0.76728
  H        -1.08254         -0.12643        -1.83378
  H        -1.90376         -0.88336        -0.62524
  H        -1.87283          0.87375        -0.43665
9
 step=         127     theta[rad]=           1.3299
  C        -0.02069          0.00619         0.02976
  C         0.02012         -0.00006         1.34904
  H         0.90068         -0.00403        -0.53739
  H         0.94880          0.00263         1.89367
  H        -0.88027         -0.00034         1.94238
  C        -1.28922          0.01549        -0.76728
  H        -1.08254         -0.23776        -1.83378
  H        -1.91738         -0.88759        -0.70827
  H        -1.85920          0.86952        -0.35361
9
 step=         128     theta[rad]=           1.3404
  C        -0.02069         -0.00041         0.02976
  C         0.02012          0.00000         1.34904
  H         0.90068          0.00026        -0.53739
  H         0.94880         -0.00017         1.89367
  H        -0.88027          0.00002         1.94238
  C        -1.28922         -0.00102        -0.76728
  H        -1.08254          0.01559        -1.83378
  H        -1.88639         -0.87796        -0.51931
  H        -1.89020          0.87915        -0.54257
9
 step=         129     theta[rad]=           1.3509
  C        -0.02069         -0.00638         0.02976
  C         0.02012          0.00007         1.34904
  H         0.90068          0.00416        -0.53739
  H         0.94880         -0.00272         1.89367
  H        -0.88027          0.00035         1.94238
  C        -1.28922         -0.01599        -0.76728
  H        -1.08254          0.24531        -1.83378
  H        -1.85828         -0.86923        -0.34798
  H        -1.91831          0.88787        -0.71390
9
 step=         130     theta[rad]=           1.3614
  C        -0.02069         -0.00232         0.02976
  C         0.02012          0.00002         1.34904
  H         0.90068          0.00151        -0.53739
  H         0.94880         -0.00099         1.89367
  H        -0.88027          0.00013         1.94238
  C        -1.28922         -0.00580        -0.76728
  H        -1.08254          0.08901        -1.83378
  H        -1.87740         -0.87517        -0.46456
  H        -1.89918          0.88194        -0.59733
9
 step=         131     theta[rad]=           1.3718
  C        -0.02069          0.00546         0.02976
  C         0.02012         -0.00006         1.34904
  H         0.90068         -0.00355        -0.53739
  H         0.94880          0.00232         1.89367
  H        -0.88027         -0.00030         1.94238
  C        -1.28922          0.01367        -0.76728
  H        -1.08254         -0.20970        -1.83378
  H        -1.91395         -0.88652        -0.68734
  H        -1.86264          0.87059        -0.37454
9
 step=         132     theta[rad]=           1.3823
  C        -0.02069          0.00442         0.02976
  C         0.02012         -0.00005         1.34904
  H         0.90068         -0.00288        -0.53739
  H         0.94880          0.00188         1.89367
  H        -0.88027         -0.00024         1.94238
  C        -1.28922          0.01108        -0.76728
  H        -1.08254         -0.17002        -1.83378
  H        -1.90909         -0.88501        -0.65775
  H        -1.86749          0.87209        -0.40414
9
 step=         133     theta[rad]=           1.3928
  C        -0.02069         -0.00385         0.02976
  C         0.02012          0.00004         1.34904
  H         0.90068          0.00251        -0.53739
  H         0.94880         -0.00164         1.89367
  H        -0.88027          0.00021         1.94238
  C        -1.28922         -0.00965        -0.76728
  H        -1.08254          0.14808        -1.83378
  H        -1.87018         -0.87293        -0.42050
  H        -1.90641          0.88418        -0.64139
9
 step=         134     theta[rad]=           1.4032
  C        -0.02069         -0.00576         0.02976
  C         0.02012          0.00006         1.34904
  H         0.90068          0.00375        -0.53739
  H         0.94880         -0.00245         1.89367
  H        -0.88027          0.00032         1.94238
  C        -1.28922         -0.01442        -0.76728
  H        -1.08254          0.22129        -1.83378
  H        -1.86122         -0.87014        -0.36589
  H        -1.91537          0.88696        -0.69599
9
 step=         135     theta[rad]=           1.4137
  C        -0.02069          0.00200         0.02976
  C         0.02012         -0.00002         1.34904
  H         0.90068         -0.00130        -0.53739
  H         0.94880          0.00085         1.89367
  H        -0.88027         -0.00011         1.94238
  C        -1.28922          0.00500        -0.76728
  H        -1.08254         -0.07675        -1.83378
  H        -1.89768         -0.88147        -0.58818
  H        -1.87890          0.87564        -0.47370
9
 step=         136     theta[rad]=           1.4242
  C        -0.02069          0.00637         0.02976
  C         0.02012         -0.00007         1.34904
  H         0.90068         -0.00415        -0.53739
  H         0.94880          0.00271         1.89367
  H        -0.88027         -0.00035         1.94238
  C        -1.28922          0.01596        -0.76728
  H        -1.08254         -0.24489        -1.83378
  H        -1.91825         -0.88786        -0.71359
  H        -1.85833          0.86925        -0.34830
9
 step=         137     theta[rad]=           1.4347
  C        -0.02069         -0.00020         0.02976
  C         0.02012          0.00000         1.34904
  H         0.90068          0.00013        -0.53739
  H         0.94880         -0.00009         1.89367
  H        -0.88027          0.00001         1.94238
  C        -1.28922         -0.00051        -0.76728
  H        -1.08254          0.00780        -1.83378
  H        -1.88734         -0.87826        -0.52512
  H        -1.88925          0.87885        -0.53676
9
 step=         138     theta[rad]=           1.4451
  C        -0.02069         -0.00643         0.02976
  C         0.02012          0.00007         1.34904
  H         0.90068          0.00419        -0.53739
  H         0.94880         -0.00274         1.89367
  H        -0.88027          0.00036         1.94238
  C        -1.28922         -0.01611        -0.76728
  H        -1.08254          0.24726        -1.83378
  H        -1.85804         -0.86916        -0.34653
  H        -1.91854          0.88795        -0.71536
9
 step=         139     theta[rad]=           1.4556
  C        -0.02069         -0.00134         0.02976
  C         0.02012          0.00001         1.34904
  H         0.90068          0.00087        -0.53739
  H         0.94880         -0.00057         1.89367
  H        -0.88027          0.00007         1.94238
  C        -1.28922         -0.00337        -0.76728
  H        -1.08254          0.05164        -1.83378
  H        -1.88198         -0.87659        -0.49243
  H        -1.89461          0.88052        -0.56946
9
 step=         140     theta[rad]=           1.4661
  C        -0.02069          0.00614         0.02976
  C         0.02012         -0.00006         1.34904
  H         0.90068         -0.00400        -0.53739
  H         0.94880          0.00262         1.89367
  H        -0.88027         -0.00034         1.94238
  C        -1.28922          0.01539        -0.76728
  H        -1.08254         -0.23621        -1.83378
  H        -1.91719         -0.88753        -0.70711
  H        -1.85939          0.86958        -0.35477
9
 step=         141     theta[rad]=           1.4765
  C        -0.02069          0.00257         0.02976
  C         0.02012         -0.00003         1.34904
  H         0.90068         -0.00167        -0.53739
  H         0.94880          0.00109         1.89367
  H        -0.88027         -0.00014         1.94238
  C        -1.28922          0.00643        -0.76728
  H        -1.08254         -0.09864        -1.83378
  H        -1.90036         -0.88230        -0.60451
  H        -1.87623          0.87481        -0.45738
9
 step=         142     theta[rad]=           1.4870
  C        -0.02069         -0.00569         0.02976
  C         0.02012          0.00006         1.34904
  H         0.90068          0.00371        -0.53739
  H         0.94880         -0.00242         1.89367
  H        -0.88027          0.00031         1.94238
  C        -1.28922         -0.01426        -0.76728
  H        -1.08254          0.21888        -1.83378
  H        -1.86151         -0.87024        -0.36769
  H        -1.91507          0.88687        -0.69419
9
 step=         143     theta[rad]=           1.4975
  C        -0.02069         -0.00346         0.02976
  C         0.02012          0.00004         1.34904
  H         0.90068          0.00225        -0.53739
  H         0.94880         -0.00147         1.89367
  H        -0.88027          0.00019         1.94238
  C        -1.28922         -0.00867        -0.76728
  H        -1.08254          0.13308        -1.83378
  H        -1.87201         -0.87350        -0.43169
  H        -1.90458          0.88361        -0.63020
9
 step=         144     theta[rad]=           1.5080
  C        -0.02069          0.00523         0.02976
  C         0.02012         -0.00005         1.34904
  H         0.90068         -0.00340        -0.53739
  H         0.94880          0.00222         1.89367
  H        -0.88027         -0.00029         1.94238
  C        -1.28922          0.01309        -0.76728
  H        -1.08254         -0.20093        -1.83378
  H        -1.91288         -0.88619        -0.68080
  H        -1.86371          0.87092        -0.38108
9
 step=         145     theta[rad]=           1.5184
  C        -0.02069          0.00407         0.02976
  C         0.02012         -0.00004         1.34904
  H         0.90068         -0.00265        -0.53739
  H         0.94880          0.00173         1.89367
  H        -0.88027         -0.00022         1.94238
  C        -1.28922          0.01019        -0.76728
  H        -1.08254         -0.15630        -1.83378
  H        -1.90742         -0.88449        -0.64752
  H        -1.86917          0.87261        -0.41437
9
 step=         146     theta[rad]=           1.5289
  C        -0.02069         -0.00485         0.02976
  C         0.02012          0.00005         1.34904
  H         0.90068          0.00316        -0.53739
  H         0.94880         -0.00206         1.89367
  H        -0.88027          0.00027         1.94238
  C        -1.28922         -0.01214        -0.76728
  H        -1.08254          0.18630        -1.83378
  H        -1.86550         -0.87147        -0.39199
  H        -1.91109          0.88563        -0.66989
9
 step=         147     theta[rad]=           1.5394
  C        -0.02069         -0.00442         0.02976
  C         0.02012          0.00005         1.34904
  H         0.90068          0.00288        -0.53739
  H         0.94880         -0.00188         1.89367
  H        -0.88027          0.00024         1.94238
  C        -1.28922         -0.01108        -0.76728
  H        -1.08254          0.17002        -1.83378
  H        -1.86749         -0.87209        -0.40414
  H        -1.90909          0.88501        -0.65775
9
 step=         148     theta[rad]=           1.5499
  C        -0.02069          0.00462         0.02976
  C         0.02012         -0.00005         1.34904
  H         0.90068         -0.00301        -0.53739
  H         0.94880          0.00196         1.89367
  H        -0.88027         -0.00026         1.94238
  C        -1.28922          0.01156        -0.76728
  H        -1.08254         -0.17745        -1.83378
  H        -1.91000         -0.88530        -0.66329
  H        -1.86658          0.87181        -0.39859
9
 step=         149     theta[rad]=           1.5603
  C        -0.02069          0.00457         0.02976
  C         0.02012         -0.00005         1.34904
  H         0.90068         -0.00298        -0.53739
  H         0.94880          0.00194         1.89367
  H        -0.88027         -0.00025         1.94238
  C        -1.28922          0.01144        -0.76728
  H        -1.08254         -0.17562        -1.83378
  H        -1.90978         -0.88523        -0.66193
  H        -1.86681          0.87188        -0.39996
9
 step=         150     theta[rad]=           1.5708
  C        -0.02069         -0.00457         0.02976
  C         0.02012          0.00005         1.34904
  H         0.90068          0.00298        -0.53739
  H         0.94880         -0.00194         1.89367
  H        -0.88027          0.00025         1.94238
  C        -1.28922         -0.01144        -0.76728
  H        -1.08254          0.17562        -1.83378
  H        -1.86681         -0.87188        -0.39996
  H        -1.90978          0.88523        -0.66193
9
 step=         151     theta[rad]=           1.5813
  C        -0.02069         -0.00452         0.02976
  C         0.02012          0.00005         1.34904
  H         0.90068          0.00294        -0.53739
  H         0.94880         -0.00192         1.89367
  H        -0.88027          0.00025         1.94238
  C        -1.28922         -0.01132        -0.76728
  H        -1.08254          0.17377        -1.83378
  H        -1.86703         -0.87195        -0.40134
  H        -1.90955          0.88516        -0.66055
9
 step=         152     theta[rad]=           1.5917
  C        -0.02069          0.00471         0.02976
  C         0.02012         -0.00005         1.34904
  H         0.90068         -0.00307        -0.53739
  H         0.94880          0.00200         1.89367
  H        -0.88027         -0.00026         1.94238
  C        -1.28922          0.01180        -0.76728
  H        -1.08254         -0.18105        -1.83378
  H        -1.91044         -0.88543        -0.66598
  H        -1.86614          0.87167        -0.39591
9
 step=         153     theta[rad]=           1.6022
  C        -0.02069          0.00427         0.02976
  C         0.02012         -0.00004         1.34904
  H         0.90068         -0.00278        -0.53739
  H         0.94880          0.00182         1.89367
  H        -0.88027         -0.00024         1.94238
  C        -1.28922          0.01070        -0.76728
  H        -1.08254         -0.16425        -1.83378
  H        -1.90839         -0.88479        -0.65344
  H        -1.86820          0.87231        -0.40844
9
 step=         154     theta[rad]=           1.6127
  C        -0.02069         -0.00502         0.02976
  C         0.02012          0.00005         1.34904
  H         0.90068          0.00327        -0.53739
  H         0.94880         -0.00214         1.89367
  H        -0.88027          0.00028         1.94238
  C        -1.28922         -0.01258        -0.76728
  H        -1.08254          0.19302        -1.83378
  H        -1.86468         -0.87122        -0.38699
  H        -1.91191          0.88589        -0.67490
9
 step=         155     theta[rad]=           1.6232
  C        -0.02069         -0.00380         0.02976
  C         0.02012          0.00004         1.34904
  H         0.90068          0.00247        -0.53739
  H         0.94880         -0.00162         1.89367
  H        -0.88027          0.00021         1.94238
  C        -1.28922         -0.00951        -0.76728
  H        -1.08254          0.14599        -1.83378
  H        -1.87043         -0.87301        -0.42206
  H        -1.90615          0.88410        -0.63982
9
 step=         156     theta[rad]=           1.6336
  C        -0.02069          0.00546         0.02976
  C         0.02012         -0.00006         1.34904
  H         0.90068         -0.00355        -0.53739
  H         0.94880          0.00232         1.89367
  H        -0.88027         -0.00030         1.94238
  C        -1.28922          0.01367        -0.76728
  H        -1.08254         -0.20970        -1.83378
  H        -1.91395         -0.88652        -0.68734
  H        -1.86264          0.87059        -0.37454
9
 step=         157     theta[rad]=           1.6441
  C        -0.02069          0.00305         0.02976
  C         0.02012         -0.00003         1.34904
  H         0.90068         -0.00199        -0.53739
  H         0.94880          0.00130         1.89367
  H        -0.88027         -0.00017         1.94238
  C        -1.28922          0.00765        -0.76728
  H        -1.08254         -0.11736        -1.83378
  H        -1.90265         -0.88301        -0.61848
  H        -1.87393          0.87409        -0.44341
9
 step=         158     theta[rad]=           1.6546
  C        -0.02069         -0.00593         0.02976
  C         0.02012          0.00006         1.34904
  H         0.90068          0.00386        -0.53739
  H         0.94880         -0.00252         1.89367
  H        -0.88027          0.00033         1.94238
  C        -1.28922         -0.01485        -0.76728
  H        -1.08254          0.22794        -1.83378
  H        -1.86041         -0.86989        -0.36094
  H        -1.91618          0.88721        -0.70095
9
 step=         159     theta[rad]=           1.6650
  C        -0.02069         -0.00200         0.02976
  C         0.02012          0.00002         1.34904
  H         0.90068          0.00130        -0.53739
  H         0.94880         -0.00085         1.89367
  H        -0.88027          0.00011         1.94238
  C        -1.28922         -0.00500        -0.76728
  H        -1.08254          0.07675        -1.83378
  H        -1.87890         -0.87564        -0.47370
  H        -1.89768          0.88147        -0.58818
9
 step=         160     theta[rad]=           1.6755
  C        -0.02069          0.00632         0.02976
  C         0.02012         -0.00007         1.34904
  H         0.90068         -0.00412        -0.53739
  H         0.94880          0.00269         1.89367
  H        -0.88027         -0.00035         1.94238
  C        -1.28922          0.01583        -0.76728
  H        -1.08254         -0.24294        -1.83378
  H        -1.91802         -0.88778        -0.71213
  H        -1.85857          0.86932        -0.34975
9
 step=         161     theta[rad]=           1.6860
  C        -0.02069          0.00061         0.02976
  C         0.02012         -0.00001         1.34904
  H         0.90068         -0.00040        -0.53739
  H         0.94880          0.00026         1.89367
  H        -0.88027         -0.00003         1.94238
  C        -1.28922          0.00152        -0.76728
  H        -1.08254         -0.02337        -1.83378
  H        -1.89115         -0.87944        -0.54838
  H        -1.88543          0.87767        -0.51351
9
 step=         162     theta[rad]=           1.6965
  C        -0.02069         -0.00646         0.02976
  C         0.02012          0.00007         1.34904
  H         0.90068          0.00421        -0.53739
  H         0.94880         -0.00275         1.89367
  H        -0.88027          0.00036         1.94238
  C        -1.28922         -0.01618        -0.76728
  H        -1.08254          0.24824        -1.83378
  H        -1.85792         -0.86912        -0.34580
  H        -1.91866          0.88799        -0.71609
9
 step=         163     theta[rad]=           1.7069
  C        -0.02069          0.00108         0.02976
  C         0.02012         -0.00001         1.34904
  H         0.90068         -0.00070        -0.53739
  H         0.94880          0.00046         1.89367
  H        -0.88027         -0.00006         1.94238
  C        -1.28922          0.00270        -0.76728
  H        -1.08254         -0.04142        -1.83378
  H        -1.89336         -0.88013        -0.56183
  H        -1.88323          0.87698        -0.50005
9
 step=         164     theta[rad]=           1.7174
  C        -0.02069          0.00614         0.02976
  C         0.02012         -0.00006         1.34904
  H         0.90068         -0.00400        -0.53739
  H         0.94880          0.00262         1.89367
  H        -0.88027         -0.00034         1.94238
  C        -1.28922          0.01539        -0.76728
  H        -1.08254         -0.23621        -1.83378
  H        -1.91719         -0.88753        -0.70711
  H        -1.85939          0.86958        -0.35477
9
 step=         165     theta[rad]=           1.7279
  C        -0.02069         -0.00293         0.02976
  C         0.02012          0.00003         1.34904
  H         0.90068          0.00191        -0.53739
  H         0.94880         -0.00125         1.89367
  H        -0.88027          0.00016         1.94238
  C        -1.28922         -0.00735        -0.76728
  H        -1.08254          0.11276        -1.83378
  H        -1.87450         -0.87427        -0.44685
  H        -1.90209          0.88284        -0.61504
9
 step=         166     theta[rad]=           1.7383
  C        -0.02069         -0.00519         0.02976
  C         0.02012          0.00005         1.34904
  H         0.90068          0.00338        -0.53739
  H         0.94880         -0.00221         1.89367
  H        -0.88027          0.00029         1.94238
  C        -1.28922         -0.01299        -0.76728
  H        -1.08254          0.19939        -1.83378
  H        -1.86390         -0.87098        -0.38223
  H        -1.91269          0.88613        -0.67966
9
 step=         167     theta[rad]=           1.7488
  C        -0.02069          0.00471         0.02976
  C         0.02012         -0.00005         1.34904
  H         0.90068         -0.00307        -0.53739
  H         0.94880          0.00200         1.89367
  H        -0.88027         -0.00026         1.94238
  C        -1.28922          0.01180        -0.76728
  H        -1.08254         -0.18105        -1.83378
  H        -1.91044         -0.88543        -0.66598
  H        -1.86614          0.87167        -0.39591
9
 step=         168     theta[rad]=           1.7593
  C        -0.02069          0.00346         0.02976
  C         0.02012         -0.00004         1.34904
  H         0.90068         -0.00225        -0.53739
  H         0.94880          0.00147         1.89367
  H        -0.88027         -0.00019         1.94238
  C        -1.28922          0.00867        -0.76728
  H        -1.08254         -0.13308        -1.83378
  H        -1.90457         -0.88361        -0.63020
  H        -1.87201          0.87350        -0.43169
9
 step=         169     theta[rad]=           1.7698
  C        -0.02069         -0.00603         0.02976
  C         0.02012          0.00006         1.34904
  H         0.90068          0.00393        -0.53739
  H         0.94880         -0.00257         1.89367
  H        -0.88027          0.00033         1.94238
  C        -1.28922         -0.01511        -0.76728
  H        -1.08254          0.23187        -1.83378
  H        -1.85993         -0.86974        -0.35801
  H        -1.91666          0.88736        -0.70388
9
 step=         170     theta[rad]=           1.7802
  C        -0.02069         -0.00101         0.02976
  C         0.02012          0.00001         1.34904
  H         0.90068          0.00066        -0.53739
  H         0.94880         -0.00043         1.89367
  H        -0.88027          0.00006         1.94238
  C        -1.28922         -0.00253        -0.76728
  H        -1.08254          0.03885        -1.83378
  H        -1.88354         -0.87708        -0.50196
  H        -1.89305          0.88003        -0.55992
9
 step=         171     theta[rad]=           1.7907
  C        -0.02069          0.00645         0.02976
  C         0.02012         -0.00007         1.34904
  H         0.90068         -0.00420        -0.53739
  H         0.94880          0.00274         1.89367
  H        -0.88027         -0.00036         1.94238
  C        -1.28922          0.01615        -0.76728
  H        -1.08254         -0.24787        -1.83378
  H        -1.91862         -0.88797        -0.71582
  H        -1.85797          0.86913        -0.34607
9
 step=         172     theta[rad]=           1.8012
  C        -0.02069         -0.00187         0.02976
  C         0.02012          0.00002         1.34904
  H         0.90068          0.00122        -0.53739
  H         0.94880         -0.00079         1.89367
  H        -0.88027          0.00010         1.94238
  C        -1.28922         -0.00468        -0.76728
  H        -1.08254          0.07179        -1.83378
  H        -1.87951         -0.87583        -0.47740
  H        -1.89708          0.88128        -0.58448
9
 step=         173     theta[rad]=           1.8117
  C        -0.02069         -0.00556         0.02976
  C         0.02012          0.00006         1.34904
  H         0.90068          0.00362        -0.53739
  H         0.94880         -0.00237         1.89367
  H        -0.88027          0.00031         1.94238
  C        -1.28922         -0.01393        -0.76728
  H        -1.08254          0.21378        -1.83378
  H        -1.86214         -0.87043        -0.37150
  H        -1.91445          0.88668        -0.69038
9
 step=         174     theta[rad]=           1.8221
  C        -0.02069          0.00457         0.02976
  C         0.02012         -0.00005         1.34904
  H         0.90068         -0.00298        -0.53739
  H         0.94880          0.00194         1.89367
  H        -0.88027         -0.00025         1.94238
  C        -1.28922          0.01144        -0.76728
  H        -1.08254         -0.17562        -1.83378
  H        -1.90978         -0.88523        -0.66193
  H        -1.86681          0.87188        -0.39996
9
 step=         175     theta[rad]=           1.8326
  C        -0.02069          0.00323         0.02976
  C         0.02012         -0.00003         1.34904
  H         0.90068         -0.00210        -0.53739
  H         0.94880          0.00138         1.89367
  H        -0.88027         -0.00018         1.94238
  C        -1.28922          0.00809        -0.76728
  H        -1.08254         -0.12418        -1.83378
  H        -1.90349         -0.88327        -0.62356
  H        -1.87310          0.87383        -0.43832
9
 step=         176     theta[rad]=           1.8431
  C        -0.02069         -0.00626         0.02976
  C         0.02012          0.00006         1.34904
  H         0.90068          0.00408        -0.53739
  H         0.94880         -0.00266         1.89367
  H        -0.88027          0.00035         1.94238
  C        -1.28922         -0.01568        -0.76728
  H        -1.08254          0.24056        -1.83378
  H        -1.85886         -0.86941        -0.35152
  H        -1.91772          0.88769        -0.71036
9
 step=         177     theta[rad]=           1.8535
  C        -0.02069          0.00020         0.02976
  C         0.02012         -0.00000         1.34904
  H         0.90068         -0.00013        -0.53739
  H         0.94880          0.00009         1.89367
  H        -0.88027         -0.00001         1.94238
  C        -1.28922          0.00051        -0.76728
  H        -1.08254         -0.00780        -1.83378
  H        -1.88925         -0.87885        -0.53676
  H        -1.88734          0.87826        -0.52512
9
 step=         178     theta[rad]=           1.8640
  C        -0.02069          0.00612         0.02976
  C         0.02012         -0.00006         1.34904
  H         0.90068         -0.00399        -0.53739
  H         0.94880          0.00261         1.89367
  H        -0.88027         -0.00034         1.94238
  C        -1.28922          0.01534        -0.76728
  H        -1.08254         -0.23539        -1.83378
  H        -1.91709         -0.88750        -0.70651
  H        -1.85949          0.86961        -0.35538
9
 step=         179     theta[rad]=           1.8745
  C        -0.02069         -0.00380         0.02976
  C         0.02012          0.00004         1.34904
  H         0.90068          0.00247        -0.53739
  H         0.94880         -0.00162         1.89367
  H        -0.88027          0.00021         1.94238
  C        -1.28922         -0.00951        -0.76728
  H        -1.08254          0.14599        -1.83378
  H        -1.87043         -0.87301        -0.42206
  H        -1.90615          0.88410        -0.63982
9
 step=         180     theta[rad]=           1.8850
  C        -0.02069         -0.00380         0.02976
  C         0.02012          0.00004         1.34904
  H         0.90068          0.00247        -0.53739
  H         0.94880         -0.00162         1.89367
  H        -0.88027          0.00021         1.94238
  C        -1.28922         -0.00951        -0.76728
  H        -1.08254          0.14599        -1.83378
  H        -1.87043         -0.87301        -0.42206
  H        -1.90615          0.88410        -0.63982
9
 step=         181     theta[rad]=           1.8954
  C        -0.02069          0.00617         0.02976
  C         0.02012         -0.00006         1.34904
  H         0.90068         -0.00402        -0.53739
  H         0.94880          0.00262         1.89367
  H        -0.88027         -0.00034         1.94238
  C        -1.28922          0.01544        -0.76728
  H        -1.08254         -0.23700        -1.83378
  H        -1.91729         -0.88756        -0.70770
  H        -1.85930          0.86955        -0.35418
9
 step=         182     theta[rad]=           1.9059
  C        -0.02069         -0.00020         0.02976
  C         0.02012          0.00000         1.34904
  H         0.90068          0.00013        -0.53739
  H         0.94880         -0.00009         1.89367
  H        -0.88027          0.00001         1.94238
  C        -1.28922         -0.00051        -0.76728
  H        -1.08254          0.00780        -1.83378
  H        -1.88734         -0.87826        -0.52512
  H        -1.88925          0.87885        -0.53676
9
 step=         183     theta[rad]=           1.9164
  C        -0.02069         -0.00601         0.02976
  C         0.02012          0.00006         1.34904
  H         0.90068          0.00391        -0.53739
  H         0.94880         -0.00256         1.89367
  H        -0.88027          0.00033         1.94238
  C        -1.28922         -0.01505        -0.76728
  H        -1.08254          0.23092        -1.83378
  H        -1.86004         -0.86978        -0.35871
  H        -1.91655          0.88733        -0.70317
9
 step=         184     theta[rad]=           1.9268
  C        -0.02069          0.00432         0.02976
  C         0.02012         -0.00004         1.34904
  H         0.90068         -0.00282        -0.53739
  H         0.94880          0.00184         1.89367
  H        -0.88027         -0.00024         1.94238
  C        -1.28922          0.01083        -0.76728
  H        -1.08254         -0.16619        -1.83378
  H        -1.90863         -0.88487        -0.65489
  H        -1.86796          0.87224        -0.40699
9
 step=         185     theta[rad]=           1.9373
  C        -0.02069          0.00293         0.02976
  C         0.02012         -0.00003         1.34904
  H         0.90068         -0.00191        -0.53739
  H         0.94880          0.00125         1.89367
  H        -0.88027         -0.00016         1.94238
  C        -1.28922          0.00735        -0.76728
  H        -1.08254         -0.11276        -1.83378
  H        -1.90209         -0.88284        -0.61504
  H        -1.87450          0.87427        -0.44685
9
 step=         186     theta[rad]=           1.9478
  C        -0.02069         -0.00643         0.02976
  C         0.02012          0.00007         1.34904
  H         0.90068          0.00419        -0.53739
  H         0.94880         -0.00274         1.89367
  H        -0.88027          0.00036         1.94238
  C        -1.28922         -0.01611        -0.76728
  H        -1.08254          0.24726        -1.83378
  H        -1.85804         -0.86916        -0.34653
  H        -1.91854          0.88795        -0.71536
9
 step=         187     theta[rad]=           1.9583
  C        -0.02069          0.00187         0.02976
  C         0.02012         -0.00002         1.34904
  H         0.90068         -0.00122        -0.53739
  H         0.94880          0.00079         1.89367
  H        -0.88027         -0.00010         1.94238
  C        -1.28922          0.00468        -0.76728
  H        -1.08254         -0.07179        -1.83378
  H        -1.89708         -0.88128        -0.58448
  H        -1.87951          0.87583        -0.47740
9
 step=         188     theta[rad]=           1.9687
  C        -0.02069          0.00498         0.02976
  C         0.02012         -0.00005         1.34904
  H         0.90068         -0.00324        -0.53739
  H         0.94880          0.00212         1.89367
  H        -0.88027         -0.00028         1.94238
  C        -1.28922          0.01247        -0.76728
  H        -1.08254         -0.19137        -1.83378
  H        -1.91171         -0.88583        -0.67367
  H        -1.86488          0.87128        -0.38821
9
 step=         189     theta[rad]=           1.9792
  C        -0.02069         -0.00576         0.02976
  C         0.02012          0.00006         1.34904
  H         0.90068          0.00375        -0.53739
  H         0.94880         -0.00245         1.89367
  H        -0.88027          0.00032         1.94238
  C        -1.28922         -0.01442        -0.76728
  H        -1.08254          0.22129        -1.83378
  H        -1.86122         -0.87014        -0.36589
  H        -1.91537          0.88696        -0.69599
9
 step=         190     theta[rad]=           1.9897
  C        -0.02069         -0.00034         0.02976
  C         0.02012          0.00000         1.34904
  H         0.90068          0.00022        -0.53739
  H         0.94880         -0.00014         1.89367
  H        -0.88027          0.00002         1.94238
  C        -1.28922         -0.00085        -0.76728
  H        -1.08254          0.01300        -1.83378
  H        -1.88670         -0.87806        -0.52125
  H        -1.88988          0.87905        -0.54064
9
 step=         191     theta[rad]=           2.0001
  C        -0.02069          0.00601         0.02976
  C         0.02012         -0.00006         1.34904
  H         0.90068         -0.00391        -0.53739
  H         0.94880          0.00256         1.89367
  H        -0.88027         -0.00033         1.94238
  C        -1.28922          0.01505        -0.76728
  H        -1.08254         -0.23092        -1.83378
  H        -1.91655         -0.88733        -0.70317
  H        -1.86004          0.86978        -0.35871
9
 step=         192     theta[rad]=           2.0106
  C        -0.02069         -0.00471         0.02976
  C         0.02012          0.00005         1.34904
  H         0.90068          0.00307        -0.53739
  H         0.94880         -0.00200         1.89367
  H        -0.88027          0.00026         1.94238
  C        -1.28922         -0.01180        -0.76728
  H        -1.08254          0.18105        -1.83378
  H        -1.86614         -0.87167        -0.39591
  H        -1.91044          0.88543        -0.66598
9
 step=         193     theta[rad]=           2.0211
  C        -0.02069         -0.00193         0.02976
  C         0.02012          0.00002         1.34904
  H         0.90068          0.00126        -0.53739
  H         0.94880         -0.00082         1.89367
  H        -0.88027          0.00011         1.94238
  C        -1.28922         -0.00484        -0.76728
  H        -1.08254          0.07427        -1.83378
  H        -1.87921         -0.87573        -0.47555
  H        -1.89738          0.88138        -0.58634
9
 step=         194     theta[rad]=           2.0316
  C        -0.02069          0.00638         0.02976
  C         0.02012         -0.00007         1.34904
  H         0.90068         -0.00416        -0.53739
  H         0.94880          0.00272         1.89367
  H        -0.88027         -0.00035         1.94238
  C        -1.28922          0.01599        -0.76728
  H        -1.08254         -0.24531        -1.83378
  H        -1.91831         -0.88787        -0.71390
  H        -1.85828          0.86923        -0.34798
9
 step=         195     theta[rad]=           2.0420
  C        -0.02069         -0.00380         0.02976
  C         0.02012          0.00004         1.34904
  H         0.90068          0.00247        -0.53739
  H         0.94880         -0.00162         1.89367
  H        -0.88027          0.00021         1.94238
  C        -1.28922         -0.00951        -0.76728
  H        -1.08254          0.14599        -1.83378
  H        -1.87043         -0.87301        -0.42206
  H        -1.90615          0.88410        -0.63982
9
 step=         196     theta[rad]=           2.0525
  C        -0.02069         -0.00287         0.02976
  C         0.02012          0.00003         1.34904
  H         0.90068          0.00187        -0.53739
  H         0.94880         -0.00122         1.89367
  H        -0.88027          0.00016         1.94238
  C        -1.28922         -0.00720        -0.76728
  H        -1.08254          0.11043        -1.83378
  H        -1.87478         -0.87436        -0.44858
  H        -1.90180          0.88275        -0.61331
9
 step=         197     theta[rad]=           2.0630
  C        -0.02069          0.00646         0.02976
  C         0.02012         -0.00007         1.34904
  H         0.90068         -0.00421        -0.53739
  H         0.94880          0.00275         1.89367
  H        -0.88027         -0.00036         1.94238
  C        -1.28922          0.01618        -0.76728
  H        -1.08254         -0.24824        -1.83378
  H        -1.91866         -0.88799        -0.71609
  H        -1.85792          0.86912        -0.34580
9
 step=         198     theta[rad]=           2.0735
  C        -0.02069         -0.00329         0.02976
  C         0.02012          0.00003         1.34904
  H         0.90068          0.00214        -0.53739
  H         0.94880         -0.00140         1.89367
  H        -0.88027          0.00018         1.94238
  C        -1.28922         -0.00824        -0.76728
  H        -1.08254          0.12643        -1.83378
  H        -1.87283         -0.87375        -0.43665
  H        -1.90376          0.88336        -0.62524
9
 step=         199     theta[rad]=           2.0839
  C        -0.02069         -0.00323         0.02976
  C         0.02012          0.00003         1.34904
  H         0.90068          0.00210        -0.53739
  H         0.94880         -0.00138         1.89367
  H        -0.88027          0.00018         1.94238
  C        -1.28922         -0.00809        -0.76728
  H        -1.08254          0.12418        -1.83378
  H        -1.87310         -0.87383        -0.43832
  H        -1.90349          0.88327        -0.62356
9
 step=         200     theta[rad]=           2.0944
  C        -0.02069          0.00646         0.02976
  C         0.02012         -0.00007         1.34904
  H         0.90068         -0.00421        -0.53739
  H         0.94880          0.00275         1.89367
  H        -0.88027         -0.00036         1.94238
  C        -1.28922          0.01619        -0.76728
  H        -1.08254         -0.24836        -1.83378
  H        -1.91868         -0.88799        -0.71618
  H        -1.85791          0.86912        -0.34570
9
 step=         201     theta[rad]=           2.1049
  C        -0.02069         -0.00329         0.02976
  C         0.02012          0.00003         1.34904
  H         0.90068          0.00214        -0.53739
  H         0.94880         -0.00140         1.89367
  H        -0.88027          0.00018         1.94238
  C        -1.28922         -0.00824        -0.76728
  H        -1.08254          0.12643        -1.83378
  H        -1.87283         -0.87375        -0.43665
  H        -1.90376          0.88336        -0.62524
9
 step=         202     theta[rad]=           2.1153
  C        -0.02069         -0.00305         0.02976
  C         0.02012          0.00003         1.34904
  H         0.90068          0.00199        -0.53739
  H         0.94880         -0.00130         1.89367
  H        -0.88027          0.00017         1.94238
  C        -1.28922         -0.00765        -0.76728
  H        -1.08254          0.11736        -1.83378
  H        -1.87393         -0.87409        -0.44341
  H        -1.90265          0.88301        -0.61848
9
 step=         203     theta[rad]=           2.1258
  C        -0.02069          0.00645         0.02976
  C         0.02012         -0.00007         1.34904
  H         0.90068         -0.00420        -0.53739
  H         0.94880          0.00274         1.89367
  H        -0.88027         -0.00036         1.94238
  C        -1.28922          0.01615        -0.76728
  H        -1.08254         -0.24787        -1.83378
  H        -1.91862         -0.88797        -0.71582
  H        -1.85797          0.86913        -0.34607
9
 step=         204     theta[rad]=           2.1363
  C        -0.02069         -0.00380         0.02976
  C         0.02012          0.00004         1.34904
  H         0.90068          0.00247        -0.53739
  H         0.94880         -0.00162         1.89367
  H        -0.88027          0.00021         1.94238
  C        -1.28922         -0.00951        -0.76728
  H        -1.08254          0.14599        -1.83378
  H        -1.87043         -0.87301        -0.42206
  H        -1.90615          0.88410        -0.63982
9
 step=         205     theta[rad]=           2.1468
  C        -0.02069         -0.00232         0.02976
  C         0.02012          0.00002         1.34904
  H         0.90068          0.00151        -0.53739
  H         0.94880         -0.00099         1.89367
  H        -0.88027          0.00013         1.94238
  C        -1.28922         -0.00580        -0.76728
  H        -1.08254          0.08901        -1.83378
  H        -1.87740         -0.87517        -0.46456
  H        -1.89918          0.88194        -0.59733
9
 step=         206     theta[rad]=           2.1572
  C        -0.02069          0.00631         0.02976
  C         0.02012         -0.00007         1.34904
  H         0.90068         -0.00411        -0.53739
  H         0.94880          0.00268         1.89367
  H        -0.88027         -0.00035         1.94238
  C        -1.28922          0.01580        -0.76728
  H        -1.08254         -0.24238        -1.83378
  H        -1.91795         -0.88776        -0.71172
  H        -1.85864          0.86934        -0.35017
9
 step=         207     theta[rad]=           2.1677
  C        -0.02069         -0.00471         0.02976
  C         0.02012          0.00005         1.34904
  H         0.90068          0.00307        -0.53739
  H         0.94880         -0.00200         1.89367
  H        -0.88027          0.00026         1.94238
  C        -1.28922         -0.01180        -0.76728
  H        -1.08254          0.18105        -1.83378
  H        -1.86614         -0.87167        -0.39591
  H        -1.91044          0.88543        -0.66598
9
 step=         208     theta[rad]=           2.1782
  C        -0.02069         -0.00094         0.02976
  C         0.02012          0.00001         1.34904
  H         0.90068          0.00061        -0.53739
  H         0.94880         -0.00040         1.89367
  H        -0.88027          0.00005         1.94238
  C        -1.28922         -0.00236        -0.76728
  H        -1.08254          0.03628        -1.83378
  H        -1.88385         -0.87717        -0.50388
  H        -1.89273          0.87993        -0.55800
9
 step=         209     theta[rad]=           2.1886
  C        -0.02069          0.00576         0.02976
  C         0.02012         -0.00006         1.34904
  H         0.90068         -0.00375        -0.53739
  H         0.94880          0.00245         1.89367
  H        -0.88027         -0.00032         1.94238
  C        -1.28922          0.01442        -0.76728
  H        -1.08254         -0.22129        -1.83378
  H        -1.91537         -0.88696        -0.69599
  H        -1.86122          0.87014        -0.36589
9
 step=         210     theta[rad]=           2.1991
  C        -0.02069         -0.00576         0.02976
  C         0.02012          0.00006         1.34904
  H         0.90068          0.00375        -0.53739
  H         0.94880         -0.00245         1.89367
  H        -0.88027          0.00032         1.94238
  C        -1.28922         -0.01442        -0.76728
  H        -1.08254          0.22129        -1.83378
  H        -1.86122         -0.87014        -0.36589
  H        -1.91537          0.88696        -0.69599
9
 step=         211     theta[rad]=           2.2096
  C        -0.02069          0.00108         0.02976
  C         0.02012         -0.00001         1.34904
  H         0.90068         -0.00070        -0.53739
  H         0.94880          0.00046         1.89367
  H        -0.88027         -0.00006         1.94238
  C        -1.28922          0.00270        -0.76728
  H        -1.08254         -0.04142        -1.83378
  H        -1.89336         -0.88013        -0.56183
  H        -1.88323          0.87698        -0.50005
9
 step=         212     theta[rad]=           2.2201
  C        -0.02069          0.00442         0.02976
  C         0.02012         -0.00005         1.34904
  H         0.90068         -0.00288        -0.53739
  H         0.94880          0.00188         1.89367
  H        -0.88027         -0.00024         1.94238
  C        -1.28922          0.01108        -0.76728
  H        -1.08254         -0.17002        -1.83378
  H        -1.90909         -0.88501        -0.65775
  H        -1.86749          0.87209        -0.40414
9
 step=         213     theta[rad]=           2.2305
  C        -0.02069         -0.00643         0.02976
  C         0.02012          0.00007         1.34904
  H         0.90068          0.00419        -0.53739
  H         0.94880         -0.00274         1.89367
  H        -0.88027          0.00036         1.94238
  C        -1.28922         -0.01611        -0.76728
  H        -1.08254          0.24726        -1.83378
  H        -1.85804         -0.86916        -0.34653
  H        -1.91854          0.88795        -0.71536
9
 step=         214     theta[rad]=           2.2410
  C        -0.02069          0.00352         0.02976
  C         0.02012         -0.00004         1.34904
  H         0.90068         -0.00229        -0.53739
  H         0.94880          0.00150         1.89367
  H        -0.88027         -0.00019         1.94238
  C        -1.28922          0.00882        -0.76728
  H        -1.08254         -0.13527        -1.83378
  H        -1.90484         -0.88369        -0.63183
  H        -1.87174          0.87341        -0.43005
9
 step=         215     theta[rad]=           2.2515
  C        -0.02069          0.00200         0.02976
  C         0.02012         -0.00002         1.34904
  H         0.90068         -0.00130        -0.53739
  H         0.94880          0.00085         1.89367
  H        -0.88027         -0.00011         1.94238
  C        -1.28922          0.00500        -0.76728
  H        -1.08254         -0.07675        -1.83378
  H        -1.89768         -0.88147        -0.58818
  H        -1.87890          0.87564        -0.47370
9
 step=         216     theta[rad]=           2.2619
  C        -0.02069         -0.00601         0.02976
  C         0.02012          0.00006         1.34904
  H         0.90068          0.00391        -0.53739
  H         0.94880         -0.00256         1.89367
  H        -0.88027          0.00033         1.94238
  C        -1.28922         -0.01505        -0.76728
  H        -1.08254          0.23092        -1.83378
  H        -1.86004         -0.86978        -0.35871
  H        -1.91655          0.88733        -0.70317
9
 step=         217     theta[rad]=           2.2724
  C        -0.02069          0.00569         0.02976
  C         0.02012         -0.00006         1.34904
  H         0.90068         -0.00371        -0.53739
  H         0.94880          0.00242         1.89367
  H        -0.88027         -0.00031         1.94238
  C        -1.28922          0.01426        -0.76728
  H        -1.08254         -0.21888        -1.83378
  H        -1.91507         -0.88687        -0.69419
  H        -1.86151          0.87024        -0.36769
9
 step=         218     theta[rad]=           2.2829
  C        -0.02069         -0.00141         0.02976
  C         0.02012          0.00001         1.34904
  H         0.90068          0.00092        -0.53739
  H         0.94880         -0.00060         1.89367
  H        -0.88027          0.00008         1.94238
  C        -1.28922         -0.00353        -0.76728
  H        -1.08254          0.05418        -1.83378
  H        -1.88166         -0.87649        -0.49053
  H        -1.89492          0.88061        -0.57135
9
 step=         219     theta[rad]=           2.2934
  C        -0.02069         -0.00380         0.02976
  C         0.02012          0.00004         1.34904
  H         0.90068          0.00247        -0.53739
  H         0.94880         -0.00162         1.89367
  H        -0.88027          0.00021         1.94238
  C        -1.28922         -0.00951        -0.76728
  H        -1.08254          0.14599        -1.83378
  H        -1.87043         -0.87301        -0.42206
  H        -1.90615          0.88410        -0.63982
9
 step=         220     theta[rad]=           2.3038
  C        -0.02069          0.00643         0.02976
  C         0.02012         -0.00007         1.34904
  H         0.90068         -0.00418        -0.53739
  H         0.94880          0.00274         1.89367
  H        -0.88027         -0.00036         1.94238
  C        -1.28922          0.01610        -0.76728
  H        -1.08254         -0.24700        -1.83378
  H        -1.91851         -0.88794        -0.71517
  H        -1.85807          0.86917        -0.34672
9
 step=         221     theta[rad]=           2.3143
  C        -0.02069         -0.00485         0.02976
  C         0.02012          0.00005         1.34904
  H         0.90068          0.00316        -0.53739
  H         0.94880         -0.00206         1.89367
  H        -0.88027          0.00027         1.94238
  C        -1.28922         -0.01214        -0.76728
  H        -1.08254          0.18630        -1.83378
  H        -1.86550         -0.87147        -0.39199
  H        -1.91109          0.88563        -0.66989
9
 step=         222     theta[rad]=           2.3248
  C        -0.02069          0.00020         0.02976
  C         0.02012         -0.00000         1.34904
  H         0.90068         -0.00013        -0.53739
  H         0.94880          0.00009         1.89367
  H        -0.88027         -0.00001         1.94238
  C        -1.28922          0.00051        -0.76728
  H        -1.08254         -0.00780        -1.83378
  H        -1.88925         -0.87885        -0.53676
  H        -1.88734          0.87826        -0.52512
9
 step=         223     theta[rad]=           2.3353
  C        -0.02069          0.00452         0.02976
  C         0.02012         -0.00005         1.34904
  H         0.90068         -0.00294        -0.53739
  H         0.94880          0.00192         1.89367
  H        -0.88027         -0.00025         1.94238
  C        -1.28922          0.01132        -0.76728
  H        -1.08254         -0.17377        -1.83378
  H        -1.90955         -0.88516        -0.66055
  H        -1.86703          0.87195        -0.40134
9
 step=         224     theta[rad]=           2.3457
  C        -0.02069         -0.00646         0.02976
  C         0.02012          0.00007         1.34904
  H         0.90068          0.00421        -0.53739
  H         0.94880         -0.00275         1.89367
  H        -0.88027          0.00036         1.94238
  C        -1.28922         -0.01619        -0.76728
  H        -1.08254          0.24836        -1.83378
  H        -1.85791         -0.86912        -0.34570
  H        -1.91868          0.88799        -0.71618
9
 step=         225     theta[rad]=           2.3562
  C        -0.02069          0.00457         0.02976
  C         0.02012         -0.00005         1.34904
  H         0.90068         -0.00298        -0.53739
  H         0.94880          0.00194         1.89367
  H        -0.88027         -0.00025         1.94238
  C        -1.28922          0.01144        -0.76728
  H        -1.08254         -0.17562        -1.83378
  H        -1.90978         -0.88523        -0.66193
  H        -1.86681          0.87188        -0.39996
9
 step=         226     theta[rad]=           2.3667
  C        -0.02069         -0.00007         0.02976
  C         0.02012          0.00000         1.34904
  H         0.90068          0.00004        -0.53739
  H         0.94880         -0.00003         1.89367
  H        -0.88027          0.00000         1.94238
  C        -1.28922         -0.00017        -0.76728
  H        -1.08254          0.00260        -1.83378
  H        -1.88798         -0.87845        -0.52900
  H        -1.88861          0.87865        -0.53288
9
 step=         227     theta[rad]=           2.3771
  C        -0.02069         -0.00442         0.02976
  C         0.02012          0.00005         1.34904
  H         0.90068          0.00288        -0.53739
  H         0.94880         -0.00188         1.89367
  H        -0.88027          0.00024         1.94238
  C        -1.28922         -0.01108        -0.76728
  H        -1.08254          0.17002        -1.83378
  H        -1.86749         -0.87209        -0.40414
  H        -1.90909          0.88501        -0.65775
9
 step=         228     theta[rad]=           2.3876
  C        -0.02069          0.00645         0.02976
  C         0.02012         -0.00007         1.34904
  H         0.90068         -0.00420        -0.53739
  H         0.94880          0.00274         1.89367
  H        -0.88027         -0.00036         1.94238
  C        -1.28922          0.01615        -0.76728
  H        -1.08254         -0.24787        -1.83378
  H        -1.91862         -0.88797        -0.71582
  H        -1.85797          0.86913        -0.34607
9
 step=         229     theta[rad]=           2.3981
  C        -0.02069         -0.00502         0.02976
  C         0.02012          0.00005         1.34904
  H         0.90068          0.00327        -0.53739
  H         0.94880         -0.00214         1.89367
  H        -0.88027          0.00028         1.94238
  C        -1.28922         -0.01258        -0.76728
  H        -1.08254          0.19302        -1.83378
  H        -1.86468         -0.87122        -0.38699
  H        -1.91191          0.88589        -0.67490
9
 step=         230     theta[rad]=           2.4086
  C        -0.02069          0.00101         0.02976
  C         0.02012         -0.00001         1.34904
  H         0.90068         -0.00066        -0.53739
  H         0.94880          0.00043         1.89367
  H        -0.88027         -0.00006         1.94238
  C        -1.28922          0.00253        -0.76728
  H        -1.08254         -0.03885        -1.83378
  H        -1.89305         -0.88003        -0.55992
  H        -1.88354          0.87708        -0.50196
9
 step=         231     theta[rad]=           2.4190
  C        -0.02069          0.00346         0.02976
  C         0.02012         -0.00004         1.34904
  H         0.90068         -0.00225        -0.53739
  H         0.94880          0.00147         1.89367
  H        -0.88027         -0.00019         1.94238
  C        -1.28922          0.00867        -0.76728
  H        -1.08254         -0.13308        -1.83378
  H        -1.90457         -0.88361        -0.63020
  H        -1.87201          0.87350        -0.43169
9
 step=         232     theta[rad]=           2.4295
  C        -0.02069         -0.00619         0.02976
  C         0.02012          0.00006         1.34904
  H         0.90068          0.00403        -0.53739
  H         0.94880         -0.00263         1.89367
  H        -0.88027          0.00034         1.94238
  C        -1.28922         -0.01549        -0.76728
  H        -1.08254          0.23776        -1.83378
  H        -1.85920         -0.86952        -0.35361
  H        -1.91738          0.88759        -0.70827
9
 step=         233     theta[rad]=           2.4400
  C        -0.02069          0.00593         0.02976
  C         0.02012         -0.00006         1.34904
  H         0.90068         -0.00386        -0.53739
  H         0.94880          0.00252         1.89367
  H        -0.88027         -0.00033         1.94238
  C        -1.28922          0.01485        -0.76728
  H        -1.08254         -0.22794        -1.83378
  H        -1.91618         -0.88721        -0.70095
  H        -1.86041          0.86989        -0.36094
9
 step=         234     theta[rad]=           2.4504
  C        -0.02069         -0.00293         0.02976
  C         0.02012          0.00003         1.34904
  H         0.90068          0.00191        -0.53739
  H         0.94880         -0.00125         1.89367
  H        -0.88027          0.00016         1.94238
  C        -1.28922         -0.00735        -0.76728
  H        -1.08254          0.11276        -1.83378
  H        -1.87450         -0.87427        -0.44685
  H        -1.90209          0.88284        -0.61504
9
 step=         235     theta[rad]=           2.4609
  C        -0.02069         -0.00134         0.02976
  C         0.02012          0.00001         1.34904
  H         0.90068          0.00087        -0.53739
  H         0.94880         -0.00057         1.89367
  H        -0.88027          0.00007         1.94238
  C        -1.28922         -0.00337        -0.76728
  H        -1.08254          0.05164        -1.83378
  H        -1.88198         -0.87659        -0.49243
  H        -1.89461          0.88052        -0.56946
9
 step=         236     theta[rad]=           2.4714
  C        -0.02069          0.00498         0.02976
  C         0.02012         -0.00005         1.34904
  H         0.90068         -0.00324        -0.53739
  H         0.94880          0.00212         1.89367
  H        -0.88027         -0.00028         1.94238
  C        -1.28922          0.01247        -0.76728
  H        -1.08254         -0.19137        -1.83378
  H        -1.91171         -0.88583        -0.67367
  H        -1.86488          0.87128        -0.38821
9
 step=         237     theta[rad]=           2.4819
  C        -0.02069         -0.00646         0.02976
  C         0.02012          0.00007         1.34904
  H         0.90068          0.00421        -0.53739
  H         0.94880         -0.00275         1.89367
  H        -0.88027          0.00036         1.94238
  C        -1.28922         -0.01618        -0.76728
  H        -1.08254          0.24824        -1.83378
  H        -1.85792         -0.86912        -0.34580
  H        -1.91866          0.88799        -0.71609
9
 step=         238     theta[rad]=           2.4923
  C        -0.02069          0.00527         0.02976
  C         0.02012         -0.00005         1.34904
  H         0.90068         -0.00343        -0.53739
  H         0.94880          0.00224         1.89367
  H        -0.88027         -0.00029         1.94238
  C        -1.28922          0.01319        -0.76728
  H        -1.08254         -0.20245        -1.83378
  H        -1.91306         -0.88625        -0.68194
  H        -1.86352          0.87086        -0.37995
9
 step=         239     theta[rad]=           2.5028
  C        -0.02069         -0.00200         0.02976
  C         0.02012          0.00002         1.34904
  H         0.90068          0.00130        -0.53739
  H         0.94880         -0.00085         1.89367
  H        -0.88027          0.00011         1.94238
  C        -1.28922         -0.00500        -0.76728
  H        -1.08254          0.07675        -1.83378
  H        -1.87890         -0.87564        -0.47370
  H        -1.89768          0.88147        -0.58818
9
 step=         240     theta[rad]=           2.5133
  C        -0.02069         -0.00200         0.02976
  C         0.02012          0.00002         1.34904
  H         0.90068          0.00130        -0.53739
  H         0.94880         -0.00085         1.89367
  H        -0.88027          0.00011         1.94238
  C        -1.28922         -0.00500        -0.76728
  H        -1.08254          0.07675        -1.83378
  H        -1.87890         -0.87564        -0.47370
  H        -1.89768          0.88147        -0.58818
9
 step=         241     theta[rad]=           2.5237
  C        -0.02069          0.00519         0.02976
  C         0.02012         -0.00005         1.34904
  H         0.90068         -0.00338        -0.53739
  H         0.94880          0.00221         1.89367
  H        -0.88027         -0.00029         1.94238
  C        -1.28922          0.01299        -0.76728
  H        -1.08254         -0.19939        -1.83378
  H        -1.91269         -0.88613        -0.67966
  H        -1.86390          0.87098        -0.38223
9
 step=         242     theta[rad]=           2.5342
  C        -0.02069         -0.00646         0.02976
  C         0.02012          0.00007         1.34904
  H         0.90068          0.00421        -0.53739
  H         0.94880         -0.00275         1.89367
  H        -0.88027          0.00036         1.94238
  C        -1.28922         -0.01618        -0.76728
  H        -1.08254          0.24824        -1.83378
  H        -1.85792         -0.86912        -0.34580
  H        -1.91866          0.88799        -0.71609
9
 step=         243     theta[rad]=           2.5447
  C        -0.02069          0.00546         0.02976
  C         0.02012         -0.00006         1.34904
  H         0.90068         -0.00355        -0.53739
  H         0.94880          0.00232         1.89367
  H        -0.88027         -0.00030         1.94238
  C        -1.28922          0.01367        -0.76728
  H        -1.08254         -0.20970        -1.83378
  H        -1.91395         -0.88652        -0.68734
  H        -1.86264          0.87059        -0.37454
9
 step=         244     theta[rad]=           2.5552
  C        -0.02069         -0.00263         0.02976
  C         0.02012          0.00003         1.34904
  H         0.90068          0.00171        -0.53739
  H         0.94880         -0.00112         1.89367
  H        -0.88027          0.00015         1.94238
  C        -1.28922         -0.00658        -0.76728
  H        -1.08254          0.10102        -1.83378
  H        -1.87593         -0.87472        -0.45560
  H        -1.90065          0.88239        -0.60629
9
 step=         245     theta[rad]=           2.5656
  C        -0.02069         -0.00101         0.02976
  C         0.02012          0.00001         1.34904
  H         0.90068          0.00066        -0.53739
  H         0.94880         -0.00043         1.89367
  H        -0.88027          0.00006         1.94238
  C        -1.28922         -0.00253        -0.76728
  H        -1.08254          0.03885        -1.83378
  H        -1.88354         -0.87708        -0.50196
  H        -1.89305          0.88003        -0.55992
9
 step=         246     theta[rad]=           2.5761
  C        -0.02069          0.00427         0.02976
  C         0.02012         -0.00004         1.34904
  H         0.90068         -0.00278        -0.53739
  H         0.94880          0.00182         1.89367
  H        -0.88027         -0.00024         1.94238
  C        -1.28922          0.01070        -0.76728
  H        -1.08254         -0.16425        -1.83378
  H        -1.90839         -0.88479        -0.65344
  H        -1.86820          0.87231        -0.40844
9
 step=         247     theta[rad]=           2.5866
  C        -0.02069         -0.00619         0.02976
  C         0.02012          0.00006         1.34904
  H         0.90068          0.00403        -0.53739
  H         0.94880         -0.00263         1.89367
  H        -0.88027          0.00034         1.94238
  C        -1.28922         -0.01549        -0.76728
  H        -1.08254          0.23776        -1.83378
  H        -1.85920         -0.86952        -0.35361
  H        -1.91738          0.88759        -0.70827
9
 step=         248     theta[rad]=           2.5970
  C        -0.02069          0.00626         0.02976
  C         0.02012         -0.00006         1.34904
  H         0.90068         -0.00408        -0.53739
  H         0.94880          0.00266         1.89367
  H        -0.88027         -0.00035         1.94238
  C        -1.28922          0.01568        -0.76728
  H        -1.08254         -0.24056        -1.83378
  H        -1.91772         -0.88769        -0.71036
  H        -1.85886          0.86941        -0.35152
9
 step=         249     theta[rad]=           2.6075
  C        -0.02069         -0.00457         0.02976
  C         0.02012          0.00005         1.34904
  H         0.90068          0.00298        -0.53739
  H         0.94880         -0.00194         1.89367
  H        -0.88027          0.00025         1.94238
  C        -1.28922         -0.01144        -0.76728
  H        -1.08254          0.17562        -1.83378
  H        -1.86681         -0.87188        -0.39996
  H        -1.90978          0.88523        -0.66193
9
 step=         250     theta[rad]=           2.6180
  C        -0.02069          0.00167         0.02976
  C         0.02012         -0.00002         1.34904
  H         0.90068         -0.00109        -0.53739
  H         0.94880          0.00071         1.89367
  H        -0.88027         -0.00009         1.94238
  C        -1.28922          0.00419        -0.76728
  H        -1.08254         -0.06428        -1.83378
  H        -1.89616         -0.88100        -0.57889
  H        -1.88043          0.87611        -0.48300
9
 step=         251     theta[rad]=           2.6285
  C        -0.02069          0.00161         0.02976
  C         0.02012         -0.00002         1.34904
  H         0.90068         -0.00105        -0.53739
  H         0.94880          0.00068         1.89367
  H        -0.88027         -0.00009         1.94238
  C        -1.28922          0.00403        -0.76728
  H        -1.08254         -0.06177        -1.83378
  H        -1.89585         -0.88090        -0.57701
  H        -1.88074          0.87621        -0.48488
9
 step=         252     theta[rad]=           2.6389
  C        -0.02069         -0.00442         0.02976
  C         0.02012          0.00005         1.34904
  H         0.90068          0.00288        -0.53739
  H         0.94880         -0.00188         1.89367
  H        -0.88027          0.00024         1.94238
  C        -1.28922         -0.01108        -0.76728
  H        -1.08254          0.17002        -1.83378
  H        -1.86749         -0.87209        -0.40414
  H        -1.90909          0.88501        -0.65775
9
 step=         253     theta[rad]=           2.6494
  C        -0.02069          0.00612         0.02976
  C         0.02012         -0.00006         1.34904
  H         0.90068         -0.00399        -0.53739
  H         0.94880          0.00261         1.89367
  H        -0.88027         -0.00034         1.94238
  C        -1.28922          0.01534        -0.76728
  H        -1.08254         -0.23539        -1.83378
  H        -1.91709         -0.88750        -0.70651
  H        -1.85949          0.86961        -0.35538
9
 step=         254     theta[rad]=           2.6599
  C        -0.02069         -0.00638         0.02976
  C         0.02012          0.00007         1.34904
  H         0.90068          0.00416        -0.53739
  H         0.94880         -0.00272         1.89367
  H        -0.88027          0.00035         1.94238
  C        -1.28922         -0.01599        -0.76728
  H        -1.08254          0.24531        -1.83378
  H        -1.85828         -0.86923        -0.34798
  H        -1.91831          0.88787        -0.71390
9
 step=         255     theta[rad]=           2.6704
  C        -0.02069          0.00523         0.02976
  C         0.02012         -0.00005         1.34904
  H         0.90068         -0.00340        -0.53739
  H         0.94880          0.00222         1.89367
  H        -0.88027         -0.00029         1.94238
  C        -1.28922          0.01309        -0.76728
  H        -1.08254         -0.20093        -1.83378
  H        -1.91288         -0.88619        -0.68080
  H        -1.86371          0.87092        -0.38108
9
 step=         256     theta[rad]=           2.6808
  C        -0.02069         -0.00299         0.02976
  C         0.02012          0.00003         1.34904
  H         0.90068          0.00195        -0.53739
  H         0.94880         -0.00127         1.89367
  H        -0.88027          0.00017         1.94238
  C        -1.28922         -0.00750        -0.76728
  H        -1.08254          0.11507        -1.83378
  H        -1.87422         -0.87418        -0.44512
  H        -1.90237          0.88293        -0.61676
9
 step=         257     theta[rad]=           2.6913
  C        -0.02069          0.00020         0.02976
  C         0.02012         -0.00000         1.34904
  H         0.90068         -0.00013        -0.53739
  H         0.94880          0.00009         1.89367
  H        -0.88027         -0.00001         1.94238
  C        -1.28922          0.00051        -0.76728
  H        -1.08254         -0.00780        -1.83378
  H        -1.88925         -0.87885        -0.53676
  H        -1.88734          0.87826        -0.52512
9
 step=         258     theta[rad]=           2.7018
  C        -0.02069          0.00257         0.02976
  C         0.02012         -0.00003         1.34904
  H         0.90068         -0.00167        -0.53739
  H         0.94880          0.00109         1.89367
  H        -0.88027         -0.00014         1.94238
  C        -1.28922          0.00643        -0.76728
  H        -1.08254         -0.09864        -1.83378
  H        -1.90036         -0.88230        -0.60451
  H        -1.87623          0.87481        -0.45738
9
 step=         259     theta[rad]=           2.7122
  C        -0.02069         -0.00480         0.02976
  C         0.02012          0.00005         1.34904
  H         0.90068          0.00313        -0.53739
  H         0.94880         -0.00204         1.89367
  H        -0.88027          0.00027         1.94238
  C        -1.28922         -0.01203        -0.76728
  H        -1.08254          0.18457        -1.83378
  H        -1.86571         -0.87154        -0.39328
  H        -1.91087          0.88557        -0.66860
9
 step=         260     theta[rad]=           2.7227
  C        -0.02069          0.00614         0.02976
  C         0.02012         -0.00006         1.34904
  H         0.90068         -0.00400        -0.53739
  H         0.94880          0.00262         1.89367
  H        -0.88027         -0.00034         1.94238
  C        -1.28922          0.01539        -0.76728
  H        -1.08254         -0.23621        -1.83378
  H        -1.91719         -0.88753        -0.70711
  H        -1.85939          0.86958        -0.35477
9
 step=         261     theta[rad]=           2.7332
  C        -0.02069         -0.00643         0.02976
  C         0.02012          0.00007         1.34904
  H         0.90068          0.00419        -0.53739
  H         0.94880         -0.00274         1.89367
  H        -0.88027          0.00036         1.94238
  C        -1.28922         -0.01611        -0.76728
  H        -1.08254          0.24726        -1.83378
  H        -1.85804         -0.86916        -0.34653
  H        -1.91854          0.88795        -0.71536
9
 step=         262     theta[rad]=           2.7437
  C        -0.02069          0.00569         0.02976
  C         0.02012         -0.00006         1.34904
  H         0.90068         -0.00371        -0.53739
  H         0.94880          0.00242         1.89367
  H        -0.88027         -0.00031         1.94238
  C        -1.28922          0.01426        -0.76728
  H        -1.08254         -0.21888        -1.83378
  H        -1.91507         -0.88687        -0.69419
  H        -1.86151          0.87024        -0.36769
9
 step=         263     theta[rad]=           2.7541
  C        -0.02069         -0.00412         0.02976
  C         0.02012          0.00004         1.34904
  H         0.90068          0.00268        -0.53739
  H         0.94880         -0.00175         1.89367
  H        -0.88027          0.00023         1.94238
  C        -1.28922         -0.01032        -0.76728
  H        -1.08254          0.15831        -1.83378
  H        -1.86892         -0.87254        -0.41287
  H        -1.90766          0.88457        -0.64902
9
 step=         264     theta[rad]=           2.7646
  C        -0.02069          0.00200         0.02976
  C         0.02012         -0.00002         1.34904
  H         0.90068         -0.00130        -0.53739
  H         0.94880          0.00085         1.89367
  H        -0.88027         -0.00011         1.94238
  C        -1.28922          0.00500        -0.76728
  H        -1.08254         -0.07675        -1.83378
  H        -1.89768         -0.88147        -0.58818
  H        -1.87890          0.87564        -0.47370
9
 step=         265     theta[rad]=           2.7751
  C        -0.02069          0.00034         0.02976
  C         0.02012         -0.00000         1.34904
  H         0.90068         -0.00022        -0.53739
  H         0.94880          0.00014         1.89367
  H        -0.88027         -0.00002         1.94238
  C        -1.28922          0.00085        -0.76728
  H        -1.08254         -0.01300        -1.83378
  H        -1.88988         -0.87905        -0.54064
  H        -1.88670          0.87806        -0.52125
9
 step=         266     theta[rad]=           2.7855
  C        -0.02069         -0.00257         0.02976
  C         0.02012          0.00003         1.34904
  H         0.90068          0.00167        -0.53739
  H         0.94880         -0.00109         1.89367
  H        -0.88027          0.00014         1.94238
  C        -1.28922         -0.00643        -0.76728
  H        -1.08254          0.09864        -1.83378
  H        -1.87623         -0.87481        -0.45738
  H        -1.90036          0.88230        -0.60451
9
 step=         267     theta[rad]=           2.7960
  C        -0.02069          0.00442         0.02976
  C         0.02012         -0.00005         1.34904
  H         0.90068         -0.00288        -0.53739
  H         0.94880          0.00188         1.89367
  H        -0.88027         -0.00024         1.94238
  C        -1.28922          0.01108        -0.76728
  H        -1.08254         -0.17002        -1.83378
  H        -1.90909         -0.88501        -0.65775
  H        -1.86749          0.87209        -0.40414
9
 step=         268     theta[rad]=           2.8065
  C        -0.02069         -0.00573         0.02976
  C         0.02012          0.00006         1.34904
  H         0.90068          0.00373        -0.53739
  H         0.94880         -0.00244         1.89367
  H        -0.88027          0.00032         1.94238
  C        -1.28922         -0.01434        -0.76728
  H        -1.08254          0.22010        -1.83378
  H        -1.86137         -0.87019        -0.36678
  H        -1.91522          0.88692        -0.69510
9
 step=         269     theta[rad]=           2.8170
  C        -0.02069          0.00638         0.02976
  C         0.02012         -0.00007         1.34904
  H         0.90068         -0.00416        -0.53739
  H         0.94880          0.00272         1.89367
  H        -0.88027         -0.00035         1.94238
  C        -1.28922          0.01599        -0.76728
  H        -1.08254         -0.24531        -1.83378
  H        -1.91831         -0.88787        -0.71390
  H        -1.85828          0.86923        -0.34798
9
 step=         270     theta[rad]=           2.8274
  C        -0.02069         -0.00638         0.02976
  C         0.02012          0.00007         1.34904
  H         0.90068          0.00416        -0.53739
  H         0.94880         -0.00272         1.89367
  H        -0.88027          0.00035         1.94238
  C        -1.28922         -0.01599        -0.76728
  H        -1.08254          0.24531        -1.83378
  H        -1.85828         -0.86923        -0.34798
  H        -1.91831          0.88787        -0.71390
9
 step=         271     theta[rad]=           2.8379
  C        -0.02069          0.00579         0.02976
  C         0.02012         -0.00006         1.34904
  H         0.90068         -0.00377        -0.53739
  H         0.94880          0.00246         1.89367
  H        -0.88027         -0.00032         1.94238
  C        -1.28922          0.01450        -0.76728
  H        -1.08254         -0.22246        -1.83378
  H        -1.91551         -0.88701        -0.69686
  H        -1.86108          0.87010        -0.36502
9
 step=         272     theta[rad]=           2.8484
  C        -0.02069         -0.00471         0.02976
  C         0.02012          0.00005         1.34904
  H         0.90068          0.00307        -0.53739
  H         0.94880         -0.00200         1.89367
  H        -0.88027          0.00026         1.94238
  C        -1.28922         -0.01180        -0.76728
  H        -1.08254          0.18105        -1.83378
  H        -1.86614         -0.87167        -0.39591
  H        -1.91044          0.88543        -0.66598
9
 step=         273     theta[rad]=           2.8588
  C        -0.02069          0.00329         0.02976
  C         0.02012         -0.00003         1.34904
  H         0.90068         -0.00214        -0.53739
  H         0.94880          0.00140         1.89367
  H        -0.88027         -0.00018         1.94238
  C        -1.28922          0.00824        -0.76728
  H        -1.08254         -0.12643        -1.83378
  H        -1.90376         -0.88336        -0.62524
  H        -1.87283          0.87375        -0.43665
9
 step=         274     theta[rad]=           2.8693
  C        -0.02069         -0.00167         0.02976
  C         0.02012          0.00002         1.34904
  H         0.90068          0.00109        -0.53739
  H         0.94880         -0.00071         1.89367
  H        -0.88027          0.00009         1.94238
  C        -1.28922         -0.00419        -0.76728
  H        -1.08254          0.06428        -1.83378
  H        -1.88043         -0.87611        -0.48300
  H        -1.89616          0.88100        -0.57889
9
 step=         275     theta[rad]=           2.8798
  C        -0.02069         -0.00000         0.02976
  C         0.02012          0.00000         1.34904
  H         0.90068         -0.00000        -0.53739
  H         0.94880         -0.00000         1.89367
  H        -0.88027          0.00000         1.94238
  C        -1.28922         -0.00000        -0.76728
  H        -1.08254          0.00000        -1.83378
  H        -1.88829         -0.87855        -0.53094
  H        -1.88829          0.87855        -0.53094
9
 step=         276     theta[rad]=           2.8903
  C        -0.02069          0.00161         0.02976
  C         0.02012         -0.00002         1.34904
  H         0.90068         -0.00105        -0.53739
  H         0.94880          0.00068         1.89367
  H        -0.88027         -0.00009         1.94238
  C        -1.28922          0.00403        -0.76728
  H        -1.08254         -0.06177        -1.83378
  H        -1.89585         -0.88090        -0.57701
  H        -1.88074          0.87621        -0.48488
9
 step=         277     theta[rad]=           2.9007
  C        -0.02069         -0.00305         0.02976
  C         0.02012          0.00003         1.34904
  H         0.90068          0.00199        -0.53739
  H         0.94880         -0.00130         1.89367
  H        -0.88027          0.00017         1.94238
  C        -1.28922         -0.00765        -0.76728
  H        -1.08254          0.11736        -1.83378
  H        -1.87393         -0.87409        -0.44341
  H        -1.90265          0.88301        -0.61848
9
 step=         278     theta[rad]=           2.9112
  C        -0.02069          0.00427         0.02976
  C         0.02012         -0.00004         1.34904
  H         0.90068         -0.00278        -0.53739
  H         0.94880          0.00182         1.89367
  H        -0.88027         -0.00024         1.94238
  C        -1.28922          0.01070        -0.76728
  H        -1.08254         -0.16425        -1.83378
  H        -1.90839         -0.88479        -0.65344
  H        -1.86820          0.87231        -0.40844
9
 step=         279     theta[rad]=           2.9217
  C        -0.02069         -0.00523         0.02976
  C         0.02012          0.00005         1.34904
  H         0.90068          0.00340        -0.53739
  H         0.94880         -0.00223         1.89367
  H        -0.88027          0.00029         1.94238
  C        -1.28922         -0.01309        -0.76728
  H        -1.08254          0.20093        -1.83378
  H        -1.86371         -0.87092        -0.38108
  H        -1.91288          0.88619        -0.68080
9
 step=         280     theta[rad]=           2.9322
  C        -0.02069          0.00590         0.02976
  C         0.02012         -0.00006         1.34904
  H         0.90068         -0.00384        -0.53739
  H         0.94880          0.00251         1.89367
  H        -0.88027         -0.00033         1.94238
  C        -1.28922          0.01479        -0.76728
  H        -1.08254         -0.22689        -1.83378
  H        -1.91605         -0.88718        -0.70017
  H        -1.86053          0.86993        -0.36172
9
 step=         281     theta[rad]=           2.9426
  C        -0.02069         -0.00631         0.02976
  C         0.02012          0.00007         1.34904
  H         0.90068          0.00411        -0.53739
  H         0.94880         -0.00268         1.89367
  H        -0.88027          0.00035         1.94238
  C        -1.28922         -0.01580        -0.76728
  H        -1.08254          0.24238        -1.83378
  H        -1.85864         -0.86934        -0.35017
  H        -1.91795          0.88776        -0.71172
9
 step=         282     theta[rad]=           2.9531
  C        -0.02069          0.00646         0.02976
  C         0.02012         -0.00007         1.34904
  H         0.90068         -0.00421        -0.53739
  H         0.94880          0.00275         1.89367
  H        -0.88027         -0.00036         1.94238
  C        -1.28922          0.01618        -0.76728
  H        -1.08254         -0.24824        -1.83378
  H        -1.91866         -0.88799        -0.71609
  H        -1.85792          0.86912        -0.34580
9
 step=         283     theta[rad]=           2.9636
  C        -0.02069         -0.00639         0.02976
  C         0.02012          0.00007         1.34904
  H         0.90068          0.00416        -0.53739
  H         0.94880         -0.00272         1.89367
  H        -0.88027          0.00035         1.94238
  C        -1.28922         -0.01601        -0.76728
  H        -1.08254          0.24570        -1.83378
  H        -1.85823         -0.86922        -0.34769
  H        -1.91835          0.88789        -0.71419
9
 step=         284     theta[rad]=           2.9740
  C        -0.02069          0.00614         0.02976
  C         0.02012         -0.00006         1.34904
  H         0.90068         -0.00400        -0.53739
  H         0.94880          0.00262         1.89367
  H        -0.88027         -0.00034         1.94238
  C        -1.28922          0.01539        -0.76728
  H        -1.08254         -0.23621        -1.83378
  H        -1.91719         -0.88753        -0.70711
  H        -1.85939          0.86958        -0.35477
9
 step=         285     theta[rad]=           2.9845
  C        -0.02069         -0.00576         0.02976
  C         0.02012          0.00006         1.34904
  H         0.90068          0.00375        -0.53739
  H         0.94880         -0.00245         1.89367
  H        -0.88027          0.00032         1.94238
  C        -1.28922         -0.01442        -0.76728
  H        -1.08254          0.22129        -1.83378
  H        -1.86122         -0.87014        -0.36589
  H        -1.91537          0.88696        -0.69599
9
 step=         286     theta[rad]=           2.9950
  C        -0.02069          0.00527         0.02976
  C         0.02012         -0.00005         1.34904
  H         0.90068         -0.00343        -0.53739
  H         0.94880          0.00224         1.89367
  H        -0.88027         -0.00029         1.94238
  C        -1.28922          0.01319        -0.76728
  H        -1.08254         -0.20245        -1.83378
  H        -1.91306         -0.88625        -0.68194
  H        -1.86352          0.87086        -0.37995
9
 step=         287     theta[rad]=           3.0055
  C        -0.02069         -0.00471         0.02976
  C         0.02012          0.00005         1.34904
  H         0.90068          0.00307        -0.53739
  H         0.94880         -0.00200         1.89367
  H        -0.88027          0.00026         1.94238
  C        -1.28922         -0.01180        -0.76728
  H        -1.08254          0.18105        -1.83378
  H        -1.86614         -0.87167        -0.39591
  H        -1.91044          0.88543        -0.66598
9
 step=         288     theta[rad]=           3.0159
  C        -0.02069          0.00412         0.02976
  C         0.02012         -0.00004         1.34904
  H         0.90068         -0.00268        -0.53739
  H         0.94880          0.00175         1.89367
  H        -0.88027         -0.00023         1.94238
  C        -1.28922          0.01032        -0.76728
  H        -1.08254         -0.15831        -1.83378
  H        -1.90766         -0.88457        -0.64902
  H        -1.86892          0.87254        -0.41287
9
 step=         289     theta[rad]=           3.0264
  C        -0.02069         -0.00352         0.02976
  C         0.02012          0.00004         1.34904
  H         0.90068          0.00229        -0.53739
  H         0.94880         -0.00150         1.89367
  H        -0.88027          0.00019         1.94238
  C        -1.28922         -0.00882        -0.76728
  H        -1.08254          0.13527        -1.83378
  H        -1.87174         -0.87341        -0.43005
  H        -1.90484          0.88369        -0.63183
9
 step=         290     theta[rad]=           3.0369
  C        -0.02069          0.00293         0.02976
  C         0.02012         -0.00003         1.34904
  H         0.90068         -0.00191        -0.53739
  H         0.94880          0.00125         1.89367
  H        -0.88027         -0.00016         1.94238
  C        -1.28922          0.00735        -0.76728
  H        -1.08254         -0.11276        -1.83378
  H        -1.90209         -0.88284        -0.61504
  H        -1.87450          0.87427        -0.44685
9
 step=         291     theta[rad]=           3.0473
  C        -0.02069         -0.00238         0.02976
  C         0.02012          0.00002         1.34904
  H         0.90068          0.00155        -0.53739
  H         0.94880         -0.00101         1.89367
  H        -0.88027          0.00013         1.94238
  C        -1.28922         -0.00596        -0.76728
  H        -1.08254          0.09143        -1.83378
  H        -1.87711         -0.87508        -0.46275
  H        -1.89948          0.88203        -0.59913
9
 step=         292     theta[rad]=           3.0578
  C        -0.02069          0.00187         0.02976
  C         0.02012         -0.00002         1.34904
  H         0.90068         -0.00122        -0.53739
  H         0.94880          0.00079         1.89367
  H        -0.88027         -0.00010         1.94238
  C        -1.28922          0.00468        -0.76728
  H        -1.08254         -0.07179        -1.83378
  H        -1.89708         -0.88128        -0.58448
  H        -1.87951          0.87583        -0.47740
9
 step=         293     theta[rad]=           3.0683
  C        -0.02069         -0.00141         0.02976
  C         0.02012          0.00001         1.34904
  H         0.90068          0.00092        -0.53739
  H         0.94880         -0.00060         1.89367
  H        -0.88027          0.00008         1.94238
  C        -1.28922         -0.00353        -0.76728
  H        -1.08254          0.05418        -1.83378
  H        -1.88166         -0.87649        -0.49053
  H        -1.89492          0.88061        -0.57135
9
 step=         294     theta[rad]=           3.0788
  C        -0.02069          0.00101         0.02976
  C         0.02012         -0.00001         1.34904
  H         0.90068         -0.00066        -0.53739
  H         0.94880          0.00043         1.89367
  H        -0.88027         -0.00006         1.94238
  C        -1.28922          0.00253        -0.76728
  H        -1.08254         -0.03885        -1.83378
  H        -1.89305         -0.88003        -0.55992
  H        -1.88354          0.87708        -0.50196
9
 step=         295     theta[rad]=           3.0892
  C        -0.02069         -0.00068         0.02976
  C         0.02012          0.00001         1.34904
  H         0.90068          0.00044        -0.53739
  H         0.94880         -0.00029         1.89367
  H        -0.88027          0.00004         1.94238
  C        -1.28922         -0.00169        -0.76728
  H        -1.08254          0.02596        -1.83378
  H        -1.88512         -0.87757        -0.51158
  H        -1.89147          0.87954        -0.55031
9
 step=         296     theta[rad]=           3.0997
  C        -0.02069          0.00041         0.02976
  C         0.02012         -0.00000         1.34904
  H         0.90068         -0.00026        -0.53739
  H         0.94880          0.00017         1.89367
  H        -0.88027         -0.00002         1.94238
  C        -1.28922          0.00102        -0.76728
  H        -1.08254         -0.01559        -1.83378
  H        -1.89020         -0.87915        -0.54257
  H        -1.88639          0.87796        -0.51931
9
 step=         297     theta[rad]=           3.1102
  C        -0.02069         -0.00020         0.02976
  C         0.02012          0.00000         1.34904
  H         0.90068          0.00013        -0.53739
  H         0.94880         -0.00009         1.89367
  H        -0.88027          0.00001         1.94238
  C        -1.28922         -0.00051        -0.76728
  H        -1.08254          0.00780        -1.83378
  H        -1.88734         -0.87826        -0.52512
  H        -1.88925          0.87885        -0.53676
9
 step=         298     theta[rad]=           3.1206
  C        -0.02069          0.00007         0.02976
  C         0.02012         -0.00000         1.34904
  H         0.90068         -0.00004        -0.53739
  H         0.94880          0.00003         1.89367
  H        -0.88027         -0.00000         1.94238
  C        -1.28922          0.00017        -0.76728
  H        -1.08254         -0.00260        -1.83378
  H        -1.88861         -0.87865        -0.53288
  H        -1.88798          0.87845        -0.52900
9
 step=         299     theta[rad]=           3.1311
  C        -0.02069         -0.00000         0.02976
  C         0.02012          0.00000         1.34904
  H         0.90068         -0.00000        -0.53739
  H         0.94880         -0.00000         1.89367
  H        -0.88027          0.00000         1.94238
  C        -1.28922         -0.00000        -0.76728
  H        -1.08254          0.00000        -1.83378
  H        -1.88829         -0.87855        -0.53094
  H        -1.88829          0.87855        -0.53094
9
 step=         300     theta[rad]=           3.1416
  C        -0.02069         -0.00000         0.02976
  C         0.02012          0.00000         1.34904
  H         0.90068         -0.00000        -0.53739
  H         0.94880         -0.00000         1.89367
  H        -0.88027          0.00000         1.94238
  C        -1.28922         -0.00000        -0.76728
  H        -1.08254          0.00000        -1.83378
  H        -1.88829         -0.87855        -0.53094
  H        -1.88829          0.87855        -0.53094
9
 step=         301     theta[rad]=           3.1521
  C        -0.02069         -0.00007         0.02976
  C         0.02012          0.00000         1.34904
  H         0.90068          0.00004        -0.53739
  H         0.94880         -0.00003         1.89367
  H        -0.88027          0.00000         1.94238
  C        -1.28922         -0.00017        -0.76728
  H        -1.08254          0.00260        -1.83378
  H        -1.88798         -0.87845        -0.52900
  H        -1.88861          0.87865        -0.53288
9
 step=         302     theta[rad]=           3.1625
  C        -0.02069          0.00020         0.02976
  C         0.02012         -0.00000         1.34904
  H         0.90068         -0.00013        -0.53739
  H         0.94880          0.00009         1.89367
  H        -0.88027         -0.00001         1.94238
  C        -1.28922          0.00051        -0.76728
  H        -1.08254         -0.00780        -1.83378
  H        -1.88925         -0.87885        -0.53676
  H        -1.88734          0.87826        -0.52512
9
 step=         303     theta[rad]=           3.1730
  C        -0.02069         -0.00041         0.02976
  C         0.02012          0.00000         1.34904
  H         0.90068          0.00026        -0.53739
  H         0.94880         -0.00017         1.89367
  H        -0.88027          0.00002         1.94238
  C        -1.28922         -0.00102        -0.76728
  H        -1.08254          0.01559        -1.83378
  H        -1.88639         -0.87796        -0.51931
  H        -1.89020          0.87915        -0.54257
9
 step=         304     theta[rad]=           3.1835
  C        -0.02069          0.00068         0.02976
  C         0.02012         -0.00001         1.34904
  H         0.90068         -0.00044        -0.53739
  H         0.94880          0.00029         1.89367
  H        -0.88027         -0.00004         1.94238
  C        -1.28922          0.00169        -0.76728
  H        -1.08254         -0.02596        -1.83378
  H        -1.89147         -0.87954        -0.55031
  H        -1.88512          0.87757        -0.51158
9
 step=         305     theta[rad]=           3.1940
  C        -0.02069         -0.00101         0.02976
  C         0.02012          0.00001         1.34904
  H         0.90068          0.00066        -0.53739
  H         0.94880         -0.00043         1.89367
  H        -0.88027          0.00006         1.94238
  C        -1.28922         -0.00253        -0.76728
  H        -1.08254          0.03885        -1.83378
  H        -1.88354         -0.87708        -0.50196
  H        -1.89305          0.88003        -0.55992
9
 step=         306     theta[rad]=           3.2044
  C        -0.02069          0.00141         0.02976
  C         0.02012         -0.00001         1.34904
  H         0.90068         -0.00092        -0.53739
  H         0.94880          0.00060         1.89367
  H        -0.88027         -0.00008         1.94238
  C        -1.28922          0.00353        -0.76728
  H        -1.08254         -0.05418        -1.83378
  H        -1.89492         -0.88061        -0.57135
  H        -1.88166          0.87649        -0.49053
9
 step=         307     theta[rad]=           3.2149
  C        -0.02069         -0.00187         0.02976
  C         0.02012          0.00002         1.34904
  H         0.90068          0.00122        -0.53739
  H         0.94880         -0.00079         1.89367
  H        -0.88027          0.00010         1.94238
  C        -1.28922         -0.00468        -0.76728
  H        -1.08254          0.07179        -1.83378
  H        -1.87951         -0.87583        -0.47740
  H        -1.89708          0.88128        -0.58448
9
 step=         308     theta[rad]=           3.2254
  C        -0.02069          0.00238         0.02976
  C         0.02012         -0.00002         1.34904
  H         0.90068         -0.00155        -0.53739
  H         0.94880          0.00101         1.89367
  H        -0.88027         -0.00013         1.94238
  C        -1.28922          0.00596        -0.76728
  H        -1.08254         -0.09143        -1.83378
  H        -1.89948         -0.88203        -0.59913
  H        -1.87711          0.87508        -0.46275
9
 step=         309     theta[rad]=           3.2358
  C        -0.02069         -0.00293         0.02976
  C         0.02012          0.00003         1.34904
  H         0.90068          0.00191        -0.53739
  H         0.94880         -0.00125         1.89367
  H        -0.88027          0.00016         1.94238
  C        -1.28922         -0.00735        -0.76728
  H        -1.08254          0.11276        -1.83378
  H        -1.87450         -0.87427        -0.44685
  H        -1.90209          0.88284        -0.61504
9
 step=         310     theta[rad]=           3.2463
  C        -0.02069          0.00352         0.02976
  C         0.02012         -0.00004         1.34904
  H         0.90068         -0.00229        -0.53739
  H         0.94880          0.00150         1.89367
  H        -0.88027         -0.00019         1.94238
  C        -1.28922          0.00882        -0.76728
  H        -1.08254         -0.13527        -1.83378
  H        -1.90484         -0.88369        -0.63183
  H        -1.87174          0.87341        -0.43005
9
 step=         311     theta[rad]=           3.2568
  C        -0.02069         -0.00412         0.02976
  C         0.02012          0.00004         1.34904
  H         0.90068          0.00268        -0.53739
  H         0.94880         -0.00175         1.89367
  H        -0.88027          0.00023         1.94238
  C        -1.28922         -0.01032        -0.76728
  H        -1.08254          0.15831        -1.83378
  H        -1.86892         -0.87254        -0.41287
  H        -1.90766          0.88457        -0.64902
9
 step=         312     theta[rad]=           3.2673
  C        -0.02069          0.00471         0.02976
  C         0.02012         -0.00005         1.34904
  H         0.90068         -0.00307        -0.53739
  H         0.94880          0.00200         1.89367
  H        -0.88027         -0.00026         1.94238
  C        -1.28922          0.01180        -0.76728
  H        -1.08254         -0.18105        -1.83378
  H        -1.91044         -0.88543        -0.66598
  H        -1.86614          0.87167        -0.39591
9
 step=         313     theta[rad]=           3.2777
  C        -0.02069         -0.00527         0.02976
  C         0.02012          0.00005         1.34904
  H         0.90068          0.00343        -0.53739
  H         0.94880         -0.00224         1.89367
  H        -0.88027          0.00029         1.94238
  C        -1.28922         -0.01319        -0.76728
  H        -1.08254          0.20245        -1.83378
  H        -1.86352         -0.87086        -0.37995
  H        -1.91306          0.88625        -0.68194
9
 step=         314     theta[rad]=           3.2882
  C        -0.02069          0.00576         0.02976
  C         0.02012         -0.00006         1.34904
  H         0.90068         -0.00375        -0.53739
  H         0.94880          0.00245         1.89367
  H        -0.88027         -0.00032         1.94238
  C        -1.28922          0.01442        -0.76728
  H        -1.08254         -0.22129        -1.83378
  H        -1.91537         -0.88696        -0.69599
  H        -1.86122          0.87014        -0.36589
9
 step=         315     theta[rad]=           3.2987
  C        -0.02069         -0.00614         0.02976
  C         0.02012          0.00006         1.34904
  H         0.90068          0.00400        -0.53739
  H         0.94880         -0.00262         1.89367
  H        -0.88027          0.00034         1.94238
  C        -1.28922         -0.01539        -0.76728
  H        -1.08254          0.23621        -1.83378
  H        -1.85939         -0.86958        -0.35477
  H        -1.91719          0.88753        -0.70711
9
 step=         316     theta[rad]=           3.3091
  C        -0.02069          0.00639         0.02976
  C         0.02012         -0.00007         1.34904
  H         0.90068         -0.00416        -0.53739
  H         0.94880          0.00272         1.89367
  H        -0.88027         -0.00035         1.94238
  C        -1.28922          0.01601        -0.76728
  H        -1.08254         -0.24570        -1.83378
  H        -1.91835         -0.88789        -0.71419
  H        -1.85823          0.86922        -0.34769
9
 step=         317     theta[rad]=           3.3196
  C        -0.02069         -0.00646         0.02976
  C         0.02012          0.00007         1.34904
  H         0.90068          0.00421        -0.53739
  H         0.94880         -0.00275         1.89367
  H        -0.88027          0.00036         1.94238
  C        -1.28922         -0.01618        -0.76728
  H        -1.08254          0.24824        -1.83378
  H        -1.85792         -0.86912        -0.34580
  H        -1.91866          0.88799        -0.71609
9
 step=         318     theta[rad]=           3.3301
  C        -0.02069          0.00631         0.02976
  C         0.02012         -0.00007         1.34904
  H         0.90068         -0.00411        -0.53739
  H         0.94880          0.00268         1.89367
  H        -0.88027         -0.00035         1.94238
  C        -1.28922          0.01580        -0.76728
  H        -1.08254         -0.24238        -1.83378
  H        -1.91795         -0.88776        -0.71172
  H        -1.85864          0.86934        -0.35017
9
 step=         319     theta[rad]=           3.3406
  C        -0.02069         -0.00590         0.02976
  C         0.02012          0.00006         1.34904
  H         0.90068          0.00384        -0.53739
  H         0.94880         -0.00251         1.89367
  H        -0.88027          0.00033         1.94238
  C        -1.28922         -0.01479        -0.76728
  H        -1.08254          0.22689        -1.83378
  H        -1.86053         -0.86993        -0.36172
  H        -1.91605          0.88718        -0.70017
9
 step=         320     theta[rad]=           3.3510
  C        -0.02069          0.00523         0.02976
  C         0.02012         -0.00005         1.34904
  H         0.90068         -0.00340        -0.53739
  H         0.94880          0.00222         1.89367
  H        -0.88027         -0.00029         1.94238
  C        -1.28922          0.01309        -0.76728
  H        -1.08254         -0.20093        -1.83378
  H        -1.91288         -0.88619        -0.68080
  H        -1.86371          0.87092        -0.38108
9
 step=         321     theta[rad]=           3.3615
  C        -0.02069         -0.00427         0.02976
  C         0.02012          0.00004         1.34904
  H         0.90068          0.00278        -0.53739
  H         0.94880         -0.00182         1.89367
  H        -0.88027          0.00024         1.94238
  C        -1.28922         -0.01070        -0.76728
  H        -1.08254          0.16425        -1.83378
  H        -1.86820         -0.87231        -0.40844
  H        -1.90839          0.88479        -0.65344
9
 step=         322     theta[rad]=           3.3720
  C        -0.02069          0.00305         0.02976
  C         0.02012         -0.00003         1.34904
  H         0.90068         -0.00199        -0.53739
  H         0.94880          0.00130         1.89367
  H        -0.88027         -0.00017         1.94238
  C        -1.28922          0.00765        -0.76728
  H        -1.08254         -0.11736        -1.83378
  H        -1.90265         -0.88301        -0.61848
  H        -1.87393          0.87409        -0.44341
9
 step=         323     theta[rad]=           3.3824
  C        -0.02069         -0.00161         0.02976
  C         0.02012          0.00002         1.34904
  H         0.90068          0.00105        -0.53739
  H         0.94880         -0.00068         1.89367
  H        -0.88027          0.00009         1.94238
  C        -1.28922         -0.00403        -0.76728
  H        -1.08254          0.06177        -1.83378
  H        -1.88074         -0.87621        -0.48488
  H        -1.89585          0.88090        -0.57701
9
 step=         324     theta[rad]=           3.3929
  C        -0.02069         -0.00000         0.02976
  C         0.02012          0.00000         1.34904
  H         0.90068         -0.00000        -0.53739
  H         0.94880         -0.00000         1.89367
  H        -0.88027          0.00000         1.94238
  C        -1.28922         -0.00000        -0.76728
  H        -1.08254          0.00000        -1.83378
  H        -1.88829         -0.87855        -0.53094
  H        -1.88829          0.87855        -0.53094
9
 step=         325     theta[rad]=           3.4034
  C        -0.02069          0.00167         0.02976
  C         0.02012         -0.00002         1.34904
  H         0.90068         -0.00109        -0.53739
  H         0.94880          0.00071         1.89367
  H        -0.88027         -0.00009         1.94238
  C        -1.28922          0.00419        -0.76728
  H        -1.08254         -0.06428        -1.83378
  H        -1.89616         -0.88100        -0.57889
  H        -1.88043          0.87611        -0.48300
9
 step=         326     theta[rad]=           3.4139
  C        -0.02069         -0.00329         0.02976
  C         0.02012          0.00003         1.34904
  H         0.90068          0.00214        -0.53739
  H         0.94880         -0.00140         1.89367
  H        -0.88027          0.00018         1.94238
  C        -1.28922         -0.00824        -0.76728
  H        -1.08254          0.12643        -1.83378
  H        -1.87283         -0.87375        -0.43665
  H        -1.90376          0.88336        -0.62524
9
 step=         327     theta[rad]=           3.4243
  C        -0.02069          0.00471         0.02976
  C         0.02012         -0.00005         1.34904
  H         0.90068         -0.00307        -0.53739
  H         0.94880          0.00200         1.89367
  H        -0.88027         -0.00026         1.94238
  C        -1.28922          0.01180        -0.76728
  H        -1.08254         -0.18105        -1.83378
  H        -1.91044         -0.88543        -0.66598
  H        -1.86614          0.87167        -0.39591
9
 step=         328     theta[rad]=           3.4348
  C        -0.02069         -0.00579         0.02976
  C         0.02012          0.00006         1.34904
  H         0.90068          0.00377        -0.53739
  H         0.94880         -0.00246         1.89367
  H        -0.88027          0.00032         1.94238
  C        -1.28922         -0.01450        -0.76728
  H        -1.08254          0.22246        -1.83378
  H        -1.86108         -0.87010        -0.36502
  H        -1.91551          0.88701        -0.69686
9
 step=         329     theta[rad]=           3.4453
  C        -0.02069          0.00638         0.02976
  C         0.02012         -0.00007         1.34904
  H         0.90068         -0.00416        -0.53739
  H         0.94880          0.00272         1.89367
  H        -0.88027         -0.00035         1.94238
  C        -1.28922          0.01599        -0.76728
  H        -1.08254         -0.24531        -1.83378
  H        -1.91831         -0.88787        -0.71390
  H        -1.85828          0.86923        -0.34798
9
 step=         330     theta[rad]=           3.4558
  C        -0.02069         -0.00638         0.02976
  C         0.02012          0.00007         1.34904
  H         0.90068          0.00416        -0.53739
  H         0.94880         -0.00272         1.89367
  H        -0.88027          0.00035         1.94238
  C        -1.28922         -0.01599        -0.76728
  H        -1.08254          0.24531        -1.83378
  H        -1.85828         -0.86923        -0.34798
  H        -1.91831          0.88787        -0.71390
9
 step=         331     theta[rad]=           3.4662
  C        -0.02069          0.00573         0.02976
  C         0.02012         -0.00006         1.34904
  H         0.90068         -0.00373        -0.53739
  H         0.94880          0.00244         1.89367
  H        -0.88027         -0.00032         1.94238
  C        -1.28922          0.01434        -0.76728
  H        -1.08254         -0.22010        -1.83378
  H        -1.91522         -0.88692        -0.69510
  H        -1.86137          0.87019        -0.36678
9
 step=         332     theta[rad]=           3.4767
  C        -0.02069         -0.00442         0.02976
  C         0.02012          0.00005         1.34904
  H         0.90068          0.00288        -0.53739
  H         0.94880         -0.00188         1.89367
  H        -0.88027          0.00024         1.94238
  C        -1.28922         -0.01108        -0.76728
  H        -1.08254          0.17002        -1.83378
  H        -1.86749         -0.87209        -0.40414
  H        -1.90909          0.88501        -0.65775
9
 step=         333     theta[rad]=           3.4872
  C        -0.02069          0.00257         0.02976
  C         0.02012         -0.00003         1.34904
  H         0.90068         -0.00167        -0.53739
  H         0.94880          0.00109         1.89367
  H        -0.88027         -0.00014         1.94238
  C        -1.28922          0.00643        -0.76728
  H        -1.08254         -0.09864        -1.83378
  H        -1.90036         -0.88230        -0.60451
  H        -1.87623          0.87481        -0.45738
9
 step=         334     theta[rad]=           3.4976
  C        -0.02069         -0.00034         0.02976
  C         0.02012          0.00000         1.34904
  H         0.90068          0.00022        -0.53739
  H         0.94880         -0.00014         1.89367
  H        -0.88027          0.00002         1.94238
  C        -1.28922         -0.00085        -0.76728
  H        -1.08254          0.01300        -1.83378
  H        -1.88670         -0.87806        -0.52125
  H        -1.88988          0.87905        -0.54064
9
 step=         335     theta[rad]=           3.5081
  C        -0.02069         -0.00200         0.02976
  C         0.02012          0.00002         1.34904
  H         0.90068          0.00130        -0.53739
  H         0.94880         -0.00085         1.89367
  H        -0.88027          0.00011         1.94238
  C        -1.28922         -0.00500        -0.76728
  H        -1.08254          0.07675        -1.83378
  H        -1.87890         -0.87564        -0.47370
  H        -1.89768          0.88147        -0.58818
9
 step=         336     theta[rad]=           3.5186
  C        -0.02069          0.00412         0.02976
  C         0.02012         -0.00004         1.34904
  H         0.90068         -0.00268        -0.53739
  H         0.94880          0.00175         1.89367
  H        -0.88027         -0.00023         1.94238
  C        -1.28922          0.01032        -0.76728
  H        -1.08254         -0.15831        -1.83378
  H        -1.90766         -0.88457        -0.64902
  H        -1.86892          0.87254        -0.41287
9
 step=         337     theta[rad]=           3.5291
  C        -0.02069         -0.00569         0.02976
  C         0.02012          0.00006         1.34904
  H         0.90068          0.00371        -0.53739
  H         0.94880         -0.00242         1.89367
  H        -0.88027          0.00031         1.94238
  C        -1.28922         -0.01426        -0.76728
  H        -1.08254          0.21888        -1.83378
  H        -1.86151         -0.87024        -0.36769
  H        -1.91507          0.88687        -0.69419
9
 step=         338     theta[rad]=           3.5395
  C        -0.02069          0.00643         0.02976
  C         0.02012         -0.00007         1.34904
  H         0.90068         -0.00419        -0.53739
  H         0.94880          0.00274         1.89367
  H        -0.88027         -0.00036         1.94238
  C        -1.28922          0.01611        -0.76728
  H        -1.08254         -0.24726        -1.83378
  H        -1.91854         -0.88795        -0.71536
  H        -1.85804          0.86916        -0.34653
9
 step=         339     theta[rad]=           3.5500
  C        -0.02069         -0.00614         0.02976
  C         0.02012          0.00006         1.34904
  H         0.90068          0.00400        -0.53739
  H         0.94880         -0.00262         1.89367
  H        -0.88027          0.00034         1.94238
  C        -1.28922         -0.01539        -0.76728
  H        -1.08254          0.23621        -1.83378
  H        -1.85939         -0.86958        -0.35477
  H        -1.91719          0.88753        -0.70711
9
 step=         340     theta[rad]=           3.5605
  C        -0.02069          0.00480         0.02976
  C         0.02012         -0.00005         1.34904
  H         0.90068         -0.00313        -0.53739
  H         0.94880          0.00204         1.89367
  H        -0.88027         -0.00027         1.94238
  C        -1.28922          0.01203        -0.76728
  H        -1.08254         -0.18457        -1.83378
  H        -1.91087         -0.88557        -0.66860
  H        -1.86571          0.87154        -0.39328
9
 step=         341     theta[rad]=           3.5709
  C        -0.02069         -0.00257         0.02976
  C         0.02012          0.00003         1.34904
  H         0.90068          0.00167        -0.53739
  H         0.94880         -0.00109         1.89367
  H        -0.88027          0.00014         1.94238
  C        -1.28922         -0.00643        -0.76728
  H        -1.08254          0.09864        -1.83378
  H        -1.87623         -0.87481        -0.45738
  H        -1.90036          0.88230        -0.60451
9
 step=         342     theta[rad]=           3.5814
  C        -0.02069         -0.00020         0.02976
  C         0.02012          0.00000         1.34904
  H         0.90068          0.00013        -0.53739
  H         0.94880         -0.00009         1.89367
  H        -0.88027          0.00001         1.94238
  C        -1.28922         -0.00051        -0.76728
  H        -1.08254          0.00780        -1.83378
  H        -1.88734         -0.87826        -0.52512
  H        -1.88925          0.87885        -0.53676
9
 step=         343     theta[rad]=           3.5919
  C        -0.02069          0.00299         0.02976
  C         0.02012         -0.00003         1.34904
  H         0.90068         -0.00195        -0.53739
  H         0.94880          0.00127         1.89367
  H        -0.88027         -0.00017         1.94238
  C        -1.28922          0.00750        -0.76728
  H        -1.08254         -0.11507        -1.83378
  H        -1.90237         -0.88293        -0.61676
  H        -1.87422          0.87418        -0.44512
9
 step=         344     theta[rad]=           3.6024
  C        -0.02069         -0.00523         0.02976
  C         0.02012          0.00005         1.34904
  H         0.90068          0.00340        -0.53739
  H         0.94880         -0.00223         1.89367
  H        -0.88027          0.00029         1.94238
  C        -1.28922         -0.01309        -0.76728
  H        -1.08254          0.20093        -1.83378
  H        -1.86371         -0.87092        -0.38108
  H        -1.91288          0.88619        -0.68080
9
 step=         345     theta[rad]=           3.6128
  C        -0.02069          0.00638         0.02976
  C         0.02012         -0.00007         1.34904
  H         0.90068         -0.00416        -0.53739
  H         0.94880          0.00272         1.89367
  H        -0.88027         -0.00035         1.94238
  C        -1.28922          0.01599        -0.76728
  H        -1.08254         -0.24531        -1.83378
  H        -1.91831         -0.88787        -0.71390
  H        -1.85828          0.86923        -0.34798
9
 step=         346     theta[rad]=           3.6233
  C        -0.02069         -0.00612         0.02976
  C         0.02012          0.00006         1.34904
  H         0.90068          0.00399        -0.53739
  H         0.94880         -0.00261         1.89367
  H        -0.88027          0.00034         1.94238
  C        -1.28922         -0.01534        -0.76728
  H        -1.08254          0.23539        -1.83378
  H        -1.85949         -0.86961        -0.35538
  H        -1.91709          0.88750        -0.70651
9
 step=         347     theta[rad]=           3.6338
  C        -0.02069          0.00442         0.02976
  C         0.02012         -0.00005         1.34904
  H         0.90068         -0.00288        -0.53739
  H         0.94880          0.00188         1.89367
  H        -0.88027         -0.00024         1.94238
  C        -1.28922          0.01108        -0.76728
  H        -1.08254         -0.17002        -1.83378
  H        -1.90909         -0.88501        -0.65775
  H        -1.86749          0.87209        -0.40414
9
 step=         348     theta[rad]=           3.6442
  C        -0.02069         -0.00161         0.02976
  C         0.02012          0.00002         1.34904
  H         0.90068          0.00105        -0.53739
  H         0.94880         -0.00068         1.89367
  H        -0.88027          0.00009         1.94238
  C        -1.28922         -0.00403        -0.76728
  H        -1.08254          0.06177        -1.83378
  H        -1.88074         -0.87621        -0.48488
  H        -1.89585          0.88090        -0.57701
9
 step=         349     theta[rad]=           3.6547
  C        -0.02069         -0.00167         0.02976
  C         0.02012          0.00002         1.34904
  H         0.90068          0.00109        -0.53739
  H         0.94880         -0.00071         1.89367
  H        -0.88027          0.00009         1.94238
  C        -1.28922         -0.00419        -0.76728
  H        -1.08254          0.06428        -1.83378
  H        -1.88043         -0.87611        -0.48300
  H        -1.89616          0.88100        -0.57889
9
 step=         350     theta[rad]=           3.6652
  C        -0.02069          0.00457         0.02976
  C         0.02012         -0.00005         1.34904
  H         0.90068         -0.00298        -0.53739
  H         0.94880          0.00194         1.89367
  H        -0.88027         -0.00025         1.94238
  C        -1.28922          0.01144        -0.76728
  H        -1.08254         -0.17562        -1.83378
  H        -1.90978         -0.88523        -0.66193
  H        -1.86681          0.87188        -0.39996
9
 step=         351     theta[rad]=           3.6757
  C        -0.02069         -0.00626         0.02976
  C         0.02012          0.00006         1.34904
  H         0.90068          0.00408        -0.53739
  H         0.94880         -0.00266         1.89367
  H        -0.88027          0.00035         1.94238
  C        -1.28922         -0.01568        -0.76728
  H        -1.08254          0.24056        -1.83378
  H        -1.85886         -0.86941        -0.35152
  H        -1.91772          0.88769        -0.71036
9
 step=         352     theta[rad]=           3.6861
  C        -0.02069          0.00619         0.02976
  C         0.02012         -0.00006         1.34904
  H         0.90068         -0.00403        -0.53739
  H         0.94880          0.00263         1.89367
  H        -0.88027         -0.00034         1.94238
  C        -1.28922          0.01549        -0.76728
  H        -1.08254         -0.23776        -1.83378
  H        -1.91738         -0.88759        -0.70827
  H        -1.85920          0.86952        -0.35361
9
 step=         353     theta[rad]=           3.6966
  C        -0.02069         -0.00427         0.02976
  C         0.02012          0.00004         1.34904
  H         0.90068          0.00278        -0.53739
  H         0.94880         -0.00182         1.89367
  H        -0.88027          0.00024         1.94238
  C        -1.28922         -0.01070        -0.76728
  H        -1.08254          0.16425        -1.83378
  H        -1.86820         -0.87231        -0.40844
  H        -1.90839          0.88479        -0.65344
9
 step=         354     theta[rad]=           3.7071
  C        -0.02069          0.00101         0.02976
  C         0.02012         -0.00001         1.34904
  H         0.90068         -0.00066        -0.53739
  H         0.94880          0.00043         1.89367
  H        -0.88027         -0.00006         1.94238
  C        -1.28922          0.00253        -0.76728
  H        -1.08254         -0.03885        -1.83378
  H        -1.89305         -0.88003        -0.55992
  H        -1.88354          0.87708        -0.50196
9
 step=         355     theta[rad]=           3.7176
  C        -0.02069          0.00263         0.02976
  C         0.02012         -0.00003         1.34904
  H         0.90068         -0.00171        -0.53739
  H         0.94880          0.00112         1.89367
  H        -0.88027         -0.00015         1.94238
  C        -1.28922          0.00658        -0.76728
  H        -1.08254         -0.10102        -1.83378
  H        -1.90065         -0.88239        -0.60629
  H        -1.87593          0.87471        -0.45560
9
 step=         356     theta[rad]=           3.7280
  C        -0.02069         -0.00546         0.02976
  C         0.02012          0.00006         1.34904
  H         0.90068          0.00355        -0.53739
  H         0.94880         -0.00232         1.89367
  H        -0.88027          0.00030         1.94238
  C        -1.28922         -0.01367        -0.76728
  H        -1.08254          0.20970        -1.83378
  H        -1.86264         -0.87059        -0.37454
  H        -1.91395          0.88652        -0.68734
9
 step=         357     theta[rad]=           3.7385
  C        -0.02069          0.00646         0.02976
  C         0.02012         -0.00007         1.34904
  H         0.90068         -0.00421        -0.53739
  H         0.94880          0.00275         1.89367
  H        -0.88027         -0.00036         1.94238
  C        -1.28922          0.01618        -0.76728
  H        -1.08254         -0.24824        -1.83378
  H        -1.91866         -0.88799        -0.71609
  H        -1.85792          0.86912        -0.34580
9
 step=         358     theta[rad]=           3.7490
  C        -0.02069         -0.00519         0.02976
  C         0.02012          0.00005         1.34904
  H         0.90068          0.00338        -0.53739
  H         0.94880         -0.00221         1.89367
  H        -0.88027          0.00029         1.94238
  C        -1.28922         -0.01299        -0.76728
  H        -1.08254          0.19939        -1.83378
  H        -1.86390         -0.87098        -0.38223
  H        -1.91269          0.88613        -0.67966
9
 step=         359     theta[rad]=           3.7594
  C        -0.02069          0.00200         0.02976
  C         0.02012         -0.00002         1.34904
  H         0.90068         -0.00130        -0.53739
  H         0.94880          0.00085         1.89367
  H        -0.88027         -0.00011         1.94238
  C        -1.28922          0.00500        -0.76728
  H        -1.08254         -0.07675        -1.83378
  H        -1.89768         -0.88147        -0.58818
  H        -1.87890          0.87564        -0.47370
9
 step=         360     theta[rad]=           3.7699
  C        -0.02069          0.00200         0.02976
  C         0.02012         -0.00002         1.34904
  H         0.90068         -0.00130        -0.53739
  H         0.94880          0.00085         1.89367
  H        -0.88027         -0.00011         1.94238
  C        -1.28922          0.00500        -0.76728
  H        -1.08254         -0.07675        -1.83378
  H        -1.89768         -0.88147        -0.58818
  H        -1.87890          0.87564        -0.47370
9
 step=         361     theta[rad]=           3.7804
  C        -0.02069         -0.00527         0.02976
  C         0.02012          0.00005         1.34904
  H         0.90068          0.00343        -0.53739
  H         0.94880         -0.00224         1.89367
  H        -0.88027          0.00029         1.94238
  C        -1.28922         -0.01319        -0.76728
  H        -1.08254          0.20245        -1.83378
  H        -1.86352         -0.87086        -0.37995
  H        -1.91306          0.88625        -0.68194
9
 step=         362     theta[rad]=           3.7909
  C        -0.02069          0.00646         0.02976
  C         0.02012         -0.00007         1.34904
  H         0.90068         -0.00421        -0.53739
  H         0.94880          0.00275         1.89367
  H        -0.88027         -0.00036         1.94238
  C        -1.28922          0.01618        -0.76728
  H        -1.08254         -0.24824        -1.83378
  H        -1.91866         -0.88799        -0.71609
  H        -1.85792          0.86912        -0.34580
9
 step=         363     theta[rad]=           3.8013
  C        -0.02069         -0.00498         0.02976
  C         0.02012          0.00005         1.34904
  H         0.90068          0.00324        -0.53739
  H         0.94880         -0.00212         1.89367
  H        -0.88027          0.00028         1.94238
  C        -1.28922         -0.01247        -0.76728
  H        -1.08254          0.19137        -1.83378
  H        -1.86488         -0.87128        -0.38821
  H        -1.91171          0.88583        -0.67367
9
 step=         364     theta[rad]=           3.8118
  C        -0.02069          0.00134         0.02976
  C         0.02012         -0.00001         1.34904
  H         0.90068         -0.00087        -0.53739
  H         0.94880          0.00057         1.89367
  H        -0.88027         -0.00007         1.94238
  C        -1.28922          0.00337        -0.76728
  H        -1.08254         -0.05164        -1.83378
  H        -1.89461         -0.88052        -0.56946
  H        -1.88198          0.87659        -0.49243
9
 step=         365     theta[rad]=           3.8223
  C        -0.02069          0.00293         0.02976
  C         0.02012         -0.00003         1.34904
  H         0.90068         -0.00191        -0.53739
  H         0.94880          0.00125         1.89367
  H        -0.88027         -0.00016         1.94238
  C        -1.28922          0.00735        -0.76728
  H        -1.08254         -0.11276        -1.83378
  H        -1.90209         -0.88284        -0.61504
  H        -1.87450          0.87427        -0.44685
9
 step=         366     theta[rad]=           3.8327
  C        -0.02069         -0.00593         0.02976
  C         0.02012          0.00006         1.34904
  H         0.90068          0.00386        -0.53739
  H         0.94880         -0.00252         1.89367
  H        -0.88027          0.00033         1.94238
  C        -1.28922         -0.01485        -0.76728
  H        -1.08254          0.22794        -1.83378
  H        -1.86041         -0.86989        -0.36094
  H        -1.91618          0.88721        -0.70095
9
 step=         367     theta[rad]=           3.8432
  C        -0.02069          0.00619         0.02976
  C         0.02012         -0.00006         1.34904
  H         0.90068         -0.00403        -0.53739
  H         0.94880          0.00263         1.89367
  H        -0.88027         -0.00034         1.94238
  C        -1.28922          0.01549        -0.76728
  H        -1.08254         -0.23776        -1.83378
  H        -1.91738         -0.88759        -0.70827
  H        -1.85920          0.86952        -0.35361
9
 step=         368     theta[rad]=           3.8537
  C        -0.02069         -0.00346         0.02976
  C         0.02012          0.00004         1.34904
  H         0.90068          0.00225        -0.53739
  H         0.94880         -0.00147         1.89367
  H        -0.88027          0.00019         1.94238
  C        -1.28922         -0.00867        -0.76728
  H        -1.08254          0.13308        -1.83378
  H        -1.87201         -0.87350        -0.43169
  H        -1.90458          0.88361        -0.63020
9
 step=         369     theta[rad]=           3.8642
  C        -0.02069         -0.00101         0.02976
  C         0.02012          0.00001         1.34904
  H         0.90068          0.00066        -0.53739
  H         0.94880         -0.00043         1.89367
  H        -0.88027          0.00006         1.94238
  C        -1.28922         -0.00253        -0.76728
  H        -1.08254          0.03885        -1.83378
  H        -1.88354         -0.87708        -0.50196
  H        -1.89305          0.88003        -0.55992
9
 step=         370     theta[rad]=           3.8746
  C        -0.02069          0.00502         0.02976
  C         0.02012         -0.00005         1.34904
  H         0.90068         -0.00327        -0.53739
  H         0.94880          0.00214         1.89367
  H        -0.88027         -0.00028         1.94238
  C        -1.28922          0.01258        -0.76728
  H        -1.08254         -0.19302        -1.83378
  H        -1.91191         -0.88589        -0.67490
  H        -1.86468          0.87122        -0.38699
9
 step=         371     theta[rad]=           3.8851
  C        -0.02069         -0.00645         0.02976
  C         0.02012          0.00007         1.34904
  H         0.90068          0.00420        -0.53739
  H         0.94880         -0.00274         1.89367
  H        -0.88027          0.00036         1.94238
  C        -1.28922         -0.01615        -0.76728
  H        -1.08254          0.24787        -1.83378
  H        -1.85797         -0.86913        -0.34607
  H        -1.91862          0.88797        -0.71582
9
 step=         372     theta[rad]=           3.8956
  C        -0.02069          0.00442         0.02976
  C         0.02012         -0.00005         1.34904
  H         0.90068         -0.00288        -0.53739
  H         0.94880          0.00188         1.89367
  H        -0.88027         -0.00024         1.94238
  C        -1.28922          0.01108        -0.76728
  H        -1.08254         -0.17002        -1.83378
  H        -1.90909         -0.88501        -0.65775
  H        -1.86749          0.87209        -0.40414
9
 step=         373     theta[rad]=           3.9060
  C        -0.02069          0.00007         0.02976
  C         0.02012         -0.00000         1.34904
  H         0.90068         -0.00004        -0.53739
  H         0.94880          0.00003         1.89367
  H        -0.88027         -0.00000         1.94238
  C        -1.28922          0.00017        -0.76728
  H        -1.08254         -0.00260        -1.83378
  H        -1.88861         -0.87865        -0.53288
  H        -1.88798          0.87845        -0.52900
9
 step=         374     theta[rad]=           3.9165
  C        -0.02069         -0.00457         0.02976
  C         0.02012          0.00005         1.34904
  H         0.90068          0.00298        -0.53739
  H         0.94880         -0.00194         1.89367
  H        -0.88027          0.00025         1.94238
  C        -1.28922         -0.01144        -0.76728
  H        -1.08254          0.17562        -1.83378
  H        -1.86681         -0.87188        -0.39996
  H        -1.90978          0.88523        -0.66193
9
 step=         375     theta[rad]=           3.9270
  C        -0.02069          0.00646         0.02976
  C         0.02012         -0.00007         1.34904
  H         0.90068         -0.00421        -0.53739
  H         0.94880          0.00275         1.89367
  H        -0.88027         -0.00036         1.94238
  C        -1.28922          0.01619        -0.76728
  H        -1.08254         -0.24836        -1.83378
  H        -1.91868         -0.88799        -0.71618
  H        -1.85791          0.86912        -0.34570
9
 step=         376     theta[rad]=           3.9375
  C        -0.02069         -0.00452         0.02976
  C         0.02012          0.00005         1.34904
  H         0.90068          0.00294        -0.53739
  H         0.94880         -0.00192         1.89367
  H        -0.88027          0.00025         1.94238
  C        -1.28922         -0.01132        -0.76728
  H        -1.08254          0.17377        -1.83378
  H        -1.86703         -0.87195        -0.40134
  H        -1.90955          0.88516        -0.66055
9
 step=         377     theta[rad]=           3.9479
  C        -0.02069         -0.00020         0.02976
  C         0.02012          0.00000         1.34904
  H         0.90068          0.00013        -0.53739
  H         0.94880         -0.00009         1.89367
  H        -0.88027          0.00001         1.94238
  C        -1.28922         -0.00051        -0.76728
  H        -1.08254          0.00780        -1.83378
  H        -1.88734         -0.87826        -0.52512
  H        -1.88925          0.87885        -0.53676
9
 step=         378     theta[rad]=           3.9584
  C        -0.02069          0.00485         0.02976
  C         0.02012         -0.00005         1.34904
  H         0.90068         -0.00316        -0.53739
  H         0.94880          0.00206         1.89367
  H        -0.88027         -0.00027         1.94238
  C        -1.28922          0.01214        -0.76728
  H        -1.08254         -0.18630        -1.83378
  H        -1.91109         -0.88563        -0.66989
  H        -1.86550          0.87147        -0.39199
9
 step=         379     theta[rad]=           3.9689
  C        -0.02069         -0.00643         0.02976
  C         0.02012          0.00007         1.34904
  H         0.90068          0.00418        -0.53739
  H         0.94880         -0.00274         1.89367
  H        -0.88027          0.00036         1.94238
  C        -1.28922         -0.01610        -0.76728
  H        -1.08254          0.24700        -1.83378
  H        -1.85807         -0.86917        -0.34672
  H        -1.91851          0.88794        -0.71517
9
 step=         380     theta[rad]=           3.9794
  C        -0.02069          0.00380         0.02976
  C         0.02012         -0.00004         1.34904
  H         0.90068         -0.00247        -0.53739
  H         0.94880          0.00162         1.89367
  H        -0.88027         -0.00021         1.94238
  C        -1.28922          0.00951        -0.76728
  H        -1.08254         -0.14599        -1.83378
  H        -1.90615         -0.88410        -0.63982
  H        -1.87043          0.87301        -0.42206
9
 step=         381     theta[rad]=           3.9898
  C        -0.02069          0.00141         0.02976
  C         0.02012         -0.00001         1.34904
  H         0.90068         -0.00092        -0.53739
  H         0.94880          0.00060         1.89367
  H        -0.88027         -0.00008         1.94238
  C        -1.28922          0.00353        -0.76728
  H        -1.08254         -0.05418        -1.83378
  H        -1.89492         -0.88061        -0.57135
  H        -1.88166          0.87649        -0.49053
9
 step=         382     theta[rad]=           4.0003
  C        -0.02069         -0.00569         0.02976
  C         0.02012          0.00006         1.34904
  H         0.90068          0.00371        -0.53739
  H         0.94880         -0.00242         1.89367
  H        -0.88027          0.00031         1.94238
  C        -1.28922         -0.01426        -0.76728
  H        -1.08254          0.21888        -1.83378
  H        -1.86151         -0.87024        -0.36769
  H        -1.91507          0.88687        -0.69419
9
 step=         383     theta[rad]=           4.0108
  C        -0.02069          0.00601         0.02976
  C         0.02012         -0.00006         1.34904
  H         0.90068         -0.00391        -0.53739
  H         0.94880          0.00256         1.89367
  H        -0.88027         -0.00033         1.94238
  C        -1.28922          0.01505        -0.76728
  H        -1.08254         -0.23092        -1.83378
  H        -1.91655         -0.88733        -0.70317
  H        -1.86004          0.86978        -0.35871
9
 step=         384     theta[rad]=           4.0212
  C        -0.02069         -0.00200         0.02976
  C         0.02012          0.00002         1.34904
  H         0.90068          0.00130        -0.53739
  H         0.94880         -0.00085         1.89367
  H        -0.88027          0.00011         1.94238
  C        -1.28922         -0.00500        -0.76728
  H        -1.08254          0.07675        -1.83378
  H        -1.87890         -0.87564        -0.47370
  H        -1.89768          0.88147        -0.58818
9
 step=         385     theta[rad]=           4.0317
  C        -0.02069         -0.00352         0.02976
  C         0.02012          0.00004         1.34904
  H         0.90068          0.00229        -0.53739
  H         0.94880         -0.00150         1.89367
  H        -0.88027          0.00019         1.94238
  C        -1.28922         -0.00882        -0.76728
  H        -1.08254          0.13527        -1.83378
  H        -1.87174         -0.87341        -0.43005
  H        -1.90484          0.88369        -0.63183
9
 step=         386     theta[rad]=           4.0422
  C        -0.02069          0.00643         0.02976
  C         0.02012         -0.00007         1.34904
  H         0.90068         -0.00419        -0.53739
  H         0.94880          0.00274         1.89367
  H        -0.88027         -0.00036         1.94238
  C        -1.28922          0.01611        -0.76728
  H        -1.08254         -0.24726        -1.83378
  H        -1.91854         -0.88795        -0.71536
  H        -1.85804          0.86916        -0.34653
9
 step=         387     theta[rad]=           4.0527
  C        -0.02069         -0.00442         0.02976
  C         0.02012          0.00005         1.34904
  H         0.90068          0.00288        -0.53739
  H         0.94880         -0.00188         1.89367
  H        -0.88027          0.00024         1.94238
  C        -1.28922         -0.01108        -0.76728
  H        -1.08254          0.17002        -1.83378
  H        -1.86749         -0.87209        -0.40414
  H        -1.90909          0.88501        -0.65775
9
 step=         388     theta[rad]=           4.0631
  C        -0.02069         -0.00108         0.02976
  C         0.02012          0.00001         1.34904
  H         0.90068          0.00070        -0.53739
  H         0.94880         -0.00046         1.89367
  H        -0.88027          0.00006         1.94238
  C        -1.28922         -0.00270        -0.76728
  H        -1.08254          0.04142        -1.83378
  H        -1.88323         -0.87698        -0.50005
  H        -1.89336          0.88013        -0.56183
9
 step=         389     theta[rad]=           4.0736
  C        -0.02069          0.00576         0.02976
  C         0.02012         -0.00006         1.34904
  H         0.90068         -0.00375        -0.53739
  H         0.94880          0.00245         1.89367
  H        -0.88027         -0.00032         1.94238
  C        -1.28922          0.01442        -0.76728
  H        -1.08254         -0.22129        -1.83378
  H        -1.91537         -0.88696        -0.69599
  H        -1.86122          0.87014        -0.36589
9
 step=         390     theta[rad]=           4.0841
  C        -0.02069         -0.00576         0.02976
  C         0.02012          0.00006         1.34904
  H         0.90068          0.00375        -0.53739
  H         0.94880         -0.00245         1.89367
  H        -0.88027          0.00032         1.94238
  C        -1.28922         -0.01442        -0.76728
  H        -1.08254          0.22129        -1.83378
  H        -1.86122         -0.87014        -0.36589
  H        -1.91537          0.88696        -0.69599
9
 step=         391     theta[rad]=           4.0945
  C        -0.02069          0.00094         0.02976
  C         0.02012         -0.00001         1.34904
  H         0.90068         -0.00061        -0.53739
  H         0.94880          0.00040         1.89367
  H        -0.88027         -0.00005         1.94238
  C        -1.28922          0.00236        -0.76728
  H        -1.08254         -0.03628        -1.83378
  H        -1.89273         -0.87993        -0.55800
  H        -1.88385          0.87717        -0.50388
9
 step=         392     theta[rad]=           4.1050
  C        -0.02069          0.00471         0.02976
  C         0.02012         -0.00005         1.34904
  H         0.90068         -0.00307        -0.53739
  H         0.94880          0.00200         1.89367
  H        -0.88027         -0.00026         1.94238
  C        -1.28922          0.01180        -0.76728
  H        -1.08254         -0.18105        -1.83378
  H        -1.91044         -0.88543        -0.66598
  H        -1.86614          0.87167        -0.39591
9
 step=         393     theta[rad]=           4.1155
  C        -0.02069         -0.00631         0.02976
  C         0.02012          0.00007         1.34904
  H         0.90068          0.00411        -0.53739
  H         0.94880         -0.00268         1.89367
  H        -0.88027          0.00035         1.94238
  C        -1.28922         -0.01580        -0.76728
  H        -1.08254          0.24238        -1.83378
  H        -1.85864         -0.86934        -0.35017
  H        -1.91795          0.88776        -0.71172
9
 step=         394     theta[rad]=           4.1260
  C        -0.02069          0.00232         0.02976
  C         0.02012         -0.00002         1.34904
  H         0.90068         -0.00151        -0.53739
  H         0.94880          0.00099         1.89367
  H        -0.88027         -0.00013         1.94238
  C        -1.28922          0.00580        -0.76728
  H        -1.08254         -0.08901        -1.83378
  H        -1.89918         -0.88194        -0.59733
  H        -1.87740          0.87517        -0.46456
9
 step=         395     theta[rad]=           4.1364
  C        -0.02069          0.00380         0.02976
  C         0.02012         -0.00004         1.34904
  H         0.90068         -0.00247        -0.53739
  H         0.94880          0.00162         1.89367
  H        -0.88027         -0.00021         1.94238
  C        -1.28922          0.00951        -0.76728
  H        -1.08254         -0.14599        -1.83378
  H        -1.90615         -0.88410        -0.63982
  H        -1.87043          0.87301        -0.42206
9
 step=         396     theta[rad]=           4.1469
  C        -0.02069         -0.00645         0.02976
  C         0.02012          0.00007         1.34904
  H         0.90068          0.00420        -0.53739
  H         0.94880         -0.00274         1.89367
  H        -0.88027          0.00036         1.94238
  C        -1.28922         -0.01615        -0.76728
  H        -1.08254          0.24787        -1.83378
  H        -1.85797         -0.86913        -0.34607
  H        -1.91862          0.88797        -0.71582
9
 step=         397     theta[rad]=           4.1574
  C        -0.02069          0.00305         0.02976
  C         0.02012         -0.00003         1.34904
  H         0.90068         -0.00199        -0.53739
  H         0.94880          0.00130         1.89367
  H        -0.88027         -0.00017         1.94238
  C        -1.28922          0.00765        -0.76728
  H        -1.08254         -0.11736        -1.83378
  H        -1.90265         -0.88301        -0.61848
  H        -1.87393          0.87409        -0.44341
9
 step=         398     theta[rad]=           4.1678
  C        -0.02069          0.00329         0.02976
  C         0.02012         -0.00003         1.34904
  H         0.90068         -0.00214        -0.53739
  H         0.94880          0.00140         1.89367
  H        -0.88027         -0.00018         1.94238
  C        -1.28922          0.00824        -0.76728
  H        -1.08254         -0.12643        -1.83378
  H        -1.90376         -0.88336        -0.62524
  H        -1.87283          0.87375        -0.43665
9
 step=         399     theta[rad]=           4.1783
  C        -0.02069         -0.00646         0.02976
  C         0.02012          0.00007         1.34904
  H         0.90068          0.00421        -0.53739
  H         0.94880         -0.00275         1.89367
  H        -0.88027          0.00036         1.94238
  C        -1.28922         -0.01619        -0.76728
  H        -1.08254          0.24836        -1.83378
  H        -1.85791         -0.86912        -0.34570
  H        -1.91868          0.88799        -0.71618
9
 step=         400     theta[rad]=           4.1888
  C        -0.02069          0.00323         0.02976
  C         0.02012         -0.00003         1.34904
  H         0.90068         -0.00210        -0.53739
  H         0.94880          0.00138         1.89367
  H        -0.88027         -0.00018         1.94238
  C        -1.28922          0.00809        -0.76728
  H        -1.08254         -0.12418        -1.83378
  H        -1.90349         -0.88327        -0.62356
  H        -1.87310          0.87383        -0.43832
9
 step=         401     theta[rad]=           4.1993
  C        -0.02069          0.00329         0.02976
  C         0.02012         -0.00003         1.34904
  H         0.90068         -0.00214        -0.53739
  H         0.94880          0.00140         1.89367
  H        -0.88027         -0.00018         1.94238
  C        -1.28922          0.00824        -0.76728
  H        -1.08254         -0.12643        -1.83378
  H        -1.90376         -0.88336        -0.62524
  H        -1.87283          0.87375        -0.43665
9
 step=         402     theta[rad]=           4.2097
  C        -0.02069         -0.00646         0.02976
  C         0.02012          0.00007         1.34904
  H         0.90068          0.00421        -0.53739
  H         0.94880         -0.00275         1.89367
  H        -0.88027          0.00036         1.94238
  C        -1.28922         -0.01618        -0.76728
  H        -1.08254          0.24824        -1.83378
  H        -1.85792         -0.86912        -0.34580
  H        -1.91866          0.88799        -0.71609
9
 step=         403     theta[rad]=           4.2202
  C        -0.02069          0.00287         0.02976
  C         0.02012         -0.00003         1.34904
  H         0.90068         -0.00187        -0.53739
  H         0.94880          0.00122         1.89367
  H        -0.88027         -0.00016         1.94238
  C        -1.28922          0.00720        -0.76728
  H        -1.08254         -0.11043        -1.83378
  H        -1.90180         -0.88275        -0.61331
  H        -1.87478          0.87436        -0.44858
9
 step=         404     theta[rad]=           4.2307
  C        -0.02069          0.00380         0.02976
  C         0.02012         -0.00004         1.34904
  H         0.90068         -0.00247        -0.53739
  H         0.94880          0.00162         1.89367
  H        -0.88027         -0.00021         1.94238
  C        -1.28922          0.00951        -0.76728
  H        -1.08254         -0.14599        -1.83378
  H        -1.90615         -0.88410        -0.63982
  H        -1.87043          0.87301        -0.42206
9
 step=         405     theta[rad]=           4.2412
  C        -0.02069         -0.00638         0.02976
  C         0.02012          0.00007         1.34904
  H         0.90068          0.00416        -0.53739
  H         0.94880         -0.00272         1.89367
  H        -0.88027          0.00035         1.94238
  C        -1.28922         -0.01599        -0.76728
  H        -1.08254          0.24531        -1.83378
  H        -1.85828         -0.86923        -0.34798
  H        -1.91831          0.88787        -0.71390
9
 step=         406     theta[rad]=           4.2516
  C        -0.02069          0.00193         0.02976
  C         0.02012         -0.00002         1.34904
  H         0.90068         -0.00126        -0.53739
  H         0.94880          0.00082         1.89367
  H        -0.88027         -0.00011         1.94238
  C        -1.28922          0.00484        -0.76728
  H        -1.08254         -0.07427        -1.83378
  H        -1.89738         -0.88138        -0.58634
  H        -1.87921          0.87573        -0.47555
9
 step=         407     theta[rad]=           4.2621
  C        -0.02069          0.00471         0.02976
  C         0.02012         -0.00005         1.34904
  H         0.90068         -0.00307        -0.53739
  H         0.94880          0.00200         1.89367
  H        -0.88027         -0.00026         1.94238
  C        -1.28922          0.01180        -0.76728
  H        -1.08254         -0.18105        -1.83378
  H        -1.91044         -0.88543        -0.66598
  H        -1.86614          0.87167        -0.39591
9
 step=         408     theta[rad]=           4.2726
  C        -0.02069         -0.00601         0.02976
  C         0.02012          0.00006         1.34904
  H         0.90068          0.00391        -0.53739
  H         0.94880         -0.00256         1.89367
  H        -0.88027          0.00033         1.94238
  C        -1.28922         -0.01505        -0.76728
  H        -1.08254          0.23092        -1.83378
  H        -1.86004         -0.86978        -0.35871
  H        -1.91655          0.88733        -0.70317
9
 step=         409     theta[rad]=           4.2830
  C        -0.02069          0.00034         0.02976
  C         0.02012         -0.00000         1.34904
  H         0.90068         -0.00022        -0.53739
  H         0.94880          0.00014         1.89367
  H        -0.88027         -0.00002         1.94238
  C        -1.28922          0.00085        -0.76728
  H        -1.08254         -0.01300        -1.83378
  H        -1.88988         -0.87905        -0.54064
  H        -1.88670          0.87806        -0.52125
9
 step=         410     theta[rad]=           4.2935
  C        -0.02069          0.00576         0.02976
  C         0.02012         -0.00006         1.34904
  H         0.90068         -0.00375        -0.53739
  H         0.94880          0.00245         1.89367
  H        -0.88027         -0.00032         1.94238
  C        -1.28922          0.01442        -0.76728
  H        -1.08254         -0.22129        -1.83378
  H        -1.91537         -0.88696        -0.69599
  H        -1.86122          0.87014        -0.36589
9
 step=         411     theta[rad]=           4.3040
  C        -0.02069         -0.00498         0.02976
  C         0.02012          0.00005         1.34904
  H         0.90068          0.00324        -0.53739
  H         0.94880         -0.00212         1.89367
  H        -0.88027          0.00028         1.94238
  C        -1.28922         -0.01247        -0.76728
  H        -1.08254          0.19137        -1.83378
  H        -1.86488         -0.87128        -0.38821
  H        -1.91171          0.88583        -0.67367
9
 step=         412     theta[rad]=           4.3145
  C        -0.02069         -0.00187         0.02976
  C         0.02012          0.00002         1.34904
  H         0.90068          0.00122        -0.53739
  H         0.94880         -0.00079         1.89367
  H        -0.88027          0.00010         1.94238
  C        -1.28922         -0.00468        -0.76728
  H        -1.08254          0.07179        -1.83378
  H        -1.87951         -0.87583        -0.47740
  H        -1.89708          0.88128        -0.58448
9
 step=         413     theta[rad]=           4.3249
  C        -0.02069          0.00643         0.02976
  C         0.02012         -0.00007         1.34904
  H         0.90068         -0.00419        -0.53739
  H         0.94880          0.00274         1.89367
  H        -0.88027         -0.00036         1.94238
  C        -1.28922          0.01611        -0.76728
  H        -1.08254         -0.24726        -1.83378
  H        -1.91854         -0.88795        -0.71536
  H        -1.85804          0.86916        -0.34653
9
 step=         414     theta[rad]=           4.3354
  C        -0.02069         -0.00293         0.02976
  C         0.02012          0.00003         1.34904
  H         0.90068          0.00191        -0.53739
  H         0.94880         -0.00125         1.89367
  H        -0.88027          0.00016         1.94238
  C        -1.28922         -0.00735        -0.76728
  H        -1.08254          0.11276        -1.83378
  H        -1.87450         -0.87427        -0.44685
  H        -1.90209          0.88284        -0.61504
9
 step=         415     theta[rad]=           4.3459
  C        -0.02069         -0.00432         0.02976
  C         0.02012          0.00004         1.34904
  H         0.90068          0.00282        -0.53739
  H         0.94880         -0.00184         1.89367
  H        -0.88027          0.00024         1.94238
  C        -1.28922         -0.01083        -0.76728
  H        -1.08254          0.16619        -1.83378
  H        -1.86796         -0.87224        -0.40699
  H        -1.90863          0.88487        -0.65489
9
 step=         416     theta[rad]=           4.3563
  C        -0.02069          0.00601         0.02976
  C         0.02012         -0.00006         1.34904
  H         0.90068         -0.00391        -0.53739
  H         0.94880          0.00256         1.89367
  H        -0.88027         -0.00033         1.94238
  C        -1.28922          0.01505        -0.76728
  H        -1.08254         -0.23092        -1.83378
  H        -1.91655         -0.88733        -0.70317
  H        -1.86004          0.86978        -0.35871
9
 step=         417     theta[rad]=           4.3668
  C        -0.02069          0.00020         0.02976
  C         0.02012         -0.00000         1.34904
  H         0.90068         -0.00013        -0.53739
  H         0.94880          0.00009         1.89367
  H        -0.88027         -0.00001         1.94238
  C        -1.28922          0.00051        -0.76728
  H        -1.08254         -0.00780        -1.83378
  H        -1.88925         -0.87885        -0.53676
  H        -1.88734          0.87826        -0.52512
9
 step=         418     theta[rad]=           4.3773
  C        -0.02069         -0.00617         0.02976
  C         0.02012          0.00006         1.34904
  H         0.90068          0.00402        -0.53739
  H         0.94880         -0.00262         1.89367
  H        -0.88027          0.00034         1.94238
  C        -1.28922         -0.01544        -0.76728
  H        -1.08254          0.23700        -1.83378
  H        -1.85930         -0.86955        -0.35418
  H        -1.91729          0.88756        -0.70770
9
 step=         419     theta[rad]=           4.3878
  C        -0.02069          0.00380         0.02976
  C         0.02012         -0.00004         1.34904
  H         0.90068         -0.00247        -0.53739
  H         0.94880          0.00162         1.89367
  H        -0.88027         -0.00021         1.94238
  C        -1.28922          0.00951        -0.76728
  H        -1.08254         -0.14599        -1.83378
  H        -1.90615         -0.88410        -0.63982
  H        -1.87043          0.87301        -0.42206
9
 step=         420     theta[rad]=           4.3982
  C        -0.02069          0.00380         0.02976
  C         0.02012         -0.00004         1.34904
  H         0.90068         -0.00247        -0.53739
  H         0.94880          0.00162         1.89367
  H        -0.88027         -0.00021         1.94238
  C        -1.28922          0.00951        -0.76728
  H        -1.08254         -0.14599        -1.83378
  H        -1.90615         -0.88410        -0.63982
  H        -1.87043          0.87301        -0.42206
9
 step=         421     theta[rad]=           4.4087
  C        -0.02069         -0.00612         0.02976
  C         0.02012          0.00006         1.34904
  H         0.90068          0.00399        -0.53739
  H         0.94880         -0.00261         1.89367
  H        -0.88027          0.00034         1.94238
  C        -1.28922         -0.01534        -0.76728
  H        -1.08254          0.23539        -1.83378
  H        -1.85949         -0.86961        -0.35538
  H        -1.91709          0.88750        -0.70651
9
 step=         422     theta[rad]=           4.4192
  C        -0.02069         -0.00020         0.02976
  C         0.02012          0.00000         1.34904
  H         0.90068          0.00013        -0.53739
  H         0.94880         -0.00009         1.89367
  H        -0.88027          0.00001         1.94238
  C        -1.28922         -0.00051        -0.76728
  H        -1.08254          0.00780        -1.83378
  H        -1.88734         -0.87826        -0.52512
  H        -1.88925          0.87885        -0.53676
9
 step=         423     theta[rad]=           4.4296
  C        -0.02069          0.00626         0.02976
  C         0.02012         -0.00006         1.34904
  H         0.90068         -0.00408        -0.53739
  H         0.94880          0.00266         1.89367
  H        -0.88027         -0.00035         1.94238
  C        -1.28922          0.01568        -0.76728
  H        -1.08254         -0.24056        -1.83378
  H        -1.91772         -0.88769        -0.71036
  H        -1.85886          0.86941        -0.35152
9
 step=         424     theta[rad]=           4.4401
  C        -0.02069         -0.00323         0.02976
  C         0.02012          0.00003         1.34904
  H         0.90068          0.00210        -0.53739
  H         0.94880         -0.00138         1.89367
  H        -0.88027          0.00018         1.94238
  C        -1.28922         -0.00809        -0.76728
  H        -1.08254          0.12418        -1.83378
  H        -1.87310         -0.87383        -0.43832
  H        -1.90349          0.88327        -0.62356
9
 step=         425     theta[rad]=           4.4506
  C        -0.02069         -0.00457         0.02976
  C         0.02012          0.00005         1.34904
  H         0.90068          0.00298        -0.53739
  H         0.94880         -0.00194         1.89367
  H        -0.88027          0.00025         1.94238
  C        -1.28922         -0.01144        -0.76728
  H        -1.08254          0.17562        -1.83378
  H        -1.86681         -0.87188        -0.39996
  H        -1.90978          0.88523        -0.66193
9
 step=         426     theta[rad]=           4.4611
  C        -0.02069          0.00556         0.02976
  C         0.02012         -0.00006         1.34904
  H         0.90068         -0.00362        -0.53739
  H         0.94880          0.00237         1.89367
  H        -0.88027         -0.00031         1.94238
  C        -1.28922          0.01393        -0.76728
  H        -1.08254         -0.21378        -1.83378
  H        -1.91445         -0.88668        -0.69038
  H        -1.86214          0.87043        -0.37150
9
 step=         427     theta[rad]=           4.4715
  C        -0.02069          0.00187         0.02976
  C         0.02012         -0.00002         1.34904
  H         0.90068         -0.00122        -0.53739
  H         0.94880          0.00079         1.89367
  H        -0.88027         -0.00010         1.94238
  C        -1.28922          0.00468        -0.76728
  H        -1.08254         -0.07179        -1.83378
  H        -1.89708         -0.88128        -0.58448
  H        -1.87951          0.87583        -0.47740
9
 step=         428     theta[rad]=           4.4820
  C        -0.02069         -0.00645         0.02976
  C         0.02012          0.00007         1.34904
  H         0.90068          0.00420        -0.53739
  H         0.94880         -0.00274         1.89367
  H        -0.88027          0.00036         1.94238
  C        -1.28922         -0.01615        -0.76728
  H        -1.08254          0.24787        -1.83378
  H        -1.85797         -0.86913        -0.34607
  H        -1.91862          0.88797        -0.71582
9
 step=         429     theta[rad]=           4.4925
  C        -0.02069          0.00101         0.02976
  C         0.02012         -0.00001         1.34904
  H         0.90068         -0.00066        -0.53739
  H         0.94880          0.00043         1.89367
  H        -0.88027         -0.00006         1.94238
  C        -1.28922          0.00253        -0.76728
  H        -1.08254         -0.03885        -1.83378
  H        -1.89305         -0.88003        -0.55992
  H        -1.88354          0.87708        -0.50196
9
 step=         430     theta[rad]=           4.5029
  C        -0.02069          0.00603         0.02976
  C         0.02012         -0.00006         1.34904
  H         0.90068         -0.00393        -0.53739
  H         0.94880          0.00257         1.89367
  H        -0.88027         -0.00033         1.94238
  C        -1.28922          0.01511        -0.76728
  H        -1.08254         -0.23187        -1.83378
  H        -1.91666         -0.88736        -0.70388
  H        -1.85993          0.86974        -0.35801
9
 step=         431     theta[rad]=           4.5134
  C        -0.02069         -0.00346         0.02976
  C         0.02012          0.00004         1.34904
  H         0.90068          0.00225        -0.53739
  H         0.94880         -0.00147         1.89367
  H        -0.88027          0.00019         1.94238
  C        -1.28922         -0.00867        -0.76728
  H        -1.08254          0.13308        -1.83378
  H        -1.87201         -0.87350        -0.43169
  H        -1.90458          0.88361        -0.63020
9
 step=         432     theta[rad]=           4.5239
  C        -0.02069         -0.00471         0.02976
  C         0.02012          0.00005         1.34904
  H         0.90068          0.00307        -0.53739
  H         0.94880         -0.00200         1.89367
  H        -0.88027          0.00026         1.94238
  C        -1.28922         -0.01180        -0.76728
  H        -1.08254          0.18105        -1.83378
  H        -1.86614         -0.87167        -0.39591
  H        -1.91044          0.88543        -0.66598
9
 step=         433     theta[rad]=           4.5344
  C        -0.02069          0.00519         0.02976
  C         0.02012         -0.00005         1.34904
  H         0.90068         -0.00338        -0.53739
  H         0.94880          0.00221         1.89367
  H        -0.88027         -0.00029         1.94238
  C        -1.28922          0.01299        -0.76728
  H        -1.08254         -0.19939        -1.83378
  H        -1.91269         -0.88613        -0.67966
  H        -1.86390          0.87098        -0.38223
9
 step=         434     theta[rad]=           4.5448
  C        -0.02069          0.00293         0.02976
  C         0.02012         -0.00003         1.34904
  H         0.90068         -0.00191        -0.53739
  H         0.94880          0.00125         1.89367
  H        -0.88027         -0.00016         1.94238
  C        -1.28922          0.00735        -0.76728
  H        -1.08254         -0.11276        -1.83378
  H        -1.90209         -0.88284        -0.61504
  H        -1.87450          0.87427        -0.44685
9
 step=         435     theta[rad]=           4.5553
  C        -0.02069         -0.00614         0.02976
  C         0.02012          0.00006         1.34904
  H         0.90068          0.00400        -0.53739
  H         0.94880         -0.00262         1.89367
  H        -0.88027          0.00034         1.94238
  C        -1.28922         -0.01539        -0.76728
  H        -1.08254          0.23621        -1.83378
  H        -1.85939         -0.86958        -0.35477
  H        -1.91719          0.88753        -0.70711
9
 step=         436     theta[rad]=           4.5658
  C        -0.02069         -0.00108         0.02976
  C         0.02012          0.00001         1.34904
  H         0.90068          0.00070        -0.53739
  H         0.94880         -0.00046         1.89367
  H        -0.88027          0.00006         1.94238
  C        -1.28922         -0.00270        -0.76728
  H        -1.08254          0.04142        -1.83378
  H        -1.88323         -0.87698        -0.50005
  H        -1.89336          0.88013        -0.56183
9
 step=         437     theta[rad]=           4.5763
  C        -0.02069          0.00646         0.02976
  C         0.02012         -0.00007         1.34904
  H         0.90068         -0.00421        -0.53739
  H         0.94880          0.00275         1.89367
  H        -0.88027         -0.00036         1.94238
  C        -1.28922          0.01618        -0.76728
  H        -1.08254         -0.24824        -1.83378
  H        -1.91866         -0.88799        -0.71609
  H        -1.85792          0.86912        -0.34580
9
 step=         438     theta[rad]=           4.5867
  C        -0.02069         -0.00061         0.02976
  C         0.02012          0.00001         1.34904
  H         0.90068          0.00040        -0.53739
  H         0.94880         -0.00026         1.89367
  H        -0.88027          0.00003         1.94238
  C        -1.28922         -0.00152        -0.76728
  H        -1.08254          0.02337        -1.83378
  H        -1.88543         -0.87767        -0.51351
  H        -1.89115          0.87944        -0.54837
9
 step=         439     theta[rad]=           4.5972
  C        -0.02069         -0.00632         0.02976
  C         0.02012          0.00007         1.34904
  H         0.90068          0.00412        -0.53739
  H         0.94880         -0.00269         1.89367
  H        -0.88027          0.00035         1.94238
  C        -1.28922         -0.01583        -0.76728
  H        -1.08254          0.24294        -1.83378
  H        -1.85857         -0.86932        -0.34975
  H        -1.91802          0.88778        -0.71213
9
 step=         440     theta[rad]=           4.6077
  C        -0.02069          0.00200         0.02976
  C         0.02012         -0.00002         1.34904
  H         0.90068         -0.00130        -0.53739
  H         0.94880          0.00085         1.89367
  H        -0.88027         -0.00011         1.94238
  C        -1.28922          0.00500        -0.76728
  H        -1.08254         -0.07675        -1.83378
  H        -1.89768         -0.88147        -0.58818
  H        -1.87890          0.87564        -0.47370
9
 step=         441     theta[rad]=           4.6181
  C        -0.02069          0.00593         0.02976
  C         0.02012         -0.00006         1.34904
  H         0.90068         -0.00386        -0.53739
  H         0.94880          0.00252         1.89367
  H        -0.88027         -0.00033         1.94238
  C        -1.28922          0.01485        -0.76728
  H        -1.08254         -0.22794        -1.83378
  H        -1.91618         -0.88721        -0.70095
  H        -1.86041          0.86989        -0.36094
9
 step=         442     theta[rad]=           4.6286
  C        -0.02069         -0.00305         0.02976
  C         0.02012          0.00003         1.34904
  H         0.90068          0.00199        -0.53739
  H         0.94880         -0.00130         1.89367
  H        -0.88027          0.00017         1.94238
  C        -1.28922         -0.00765        -0.76728
  H        -1.08254          0.11736        -1.83378
  H        -1.87393         -0.87409        -0.44341
  H        -1.90265          0.88301        -0.61848
9
 step=         443     theta[rad]=           4.6391
  C        -0.02069         -0.00546         0.02976
  C         0.02012          0.00006         1.34904
  H         0.90068          0.00355        -0.53739
  H         0.94880         -0.00232         1.89367
  H        -0.88027          0.00030         1.94238
  C        -1.28922         -0.01367        -0.76728
  H        -1.08254          0.20970        -1.83378
  H        -1.86264         -0.87059        -0.37454
  H        -1.91395          0.88652        -0.68734
9
 step=         444     theta[rad]=           4.6496
  C        -0.02069          0.00380         0.02976
  C         0.02012         -0.00004         1.34904
  H         0.90068         -0.00247        -0.53739
  H         0.94880          0.00162         1.89367
  H        -0.88027         -0.00021         1.94238
  C        -1.28922          0.00951        -0.76728
  H        -1.08254         -0.14599        -1.83378
  H        -1.90615         -0.88410        -0.63982
  H        -1.87043          0.87301        -0.42206
9
 step=         445     theta[rad]=           4.6600
  C        -0.02069          0.00502         0.02976
  C         0.02012         -0.00005         1.34904
  H         0.90068         -0.00327        -0.53739
  H         0.94880          0.00214         1.89367
  H        -0.88027         -0.00028         1.94238
  C        -1.28922          0.01258        -0.76728
  H        -1.08254         -0.19302        -1.83378
  H        -1.91191         -0.88589        -0.67490
  H        -1.86468          0.87122        -0.38699
9
 step=         446     theta[rad]=           4.6705
  C        -0.02069         -0.00427         0.02976
  C         0.02012          0.00004         1.34904
  H         0.90068          0.00278        -0.53739
  H         0.94880         -0.00182         1.89367
  H        -0.88027          0.00024         1.94238
  C        -1.28922         -0.01070        -0.76728
  H        -1.08254          0.16425        -1.83378
  H        -1.86820         -0.87231        -0.40844
  H        -1.90839          0.88479        -0.65344
9
 step=         447     theta[rad]=           4.6810
  C        -0.02069         -0.00471         0.02976
  C         0.02012          0.00005         1.34904
  H         0.90068          0.00307        -0.53739
  H         0.94880         -0.00200         1.89367
  H        -0.88027          0.00026         1.94238
  C        -1.28922         -0.01180        -0.76728
  H        -1.08254          0.18105        -1.83378
  H        -1.86614         -0.87167        -0.39591
  H        -1.91044          0.88543        -0.66598
9
 step=         448     theta[rad]=           4.6914
  C        -0.02069          0.00452         0.02976
  C         0.02012         -0.00005         1.34904
  H         0.90068         -0.00294        -0.53739
  H         0.94880          0.00192         1.89367
  H        -0.88027         -0.00025         1.94238
  C        -1.28922          0.01132        -0.76728
  H        -1.08254         -0.17377        -1.83378
  H        -1.90955         -0.88516        -0.66055
  H        -1.86703          0.87195        -0.40134
9
 step=         449     theta[rad]=           4.7019
  C        -0.02069          0.00457         0.02976
  C         0.02012         -0.00005         1.34904
  H         0.90068         -0.00298        -0.53739
  H         0.94880          0.00194         1.89367
  H        -0.88027         -0.00025         1.94238
  C        -1.28922          0.01144        -0.76728
  H        -1.08254         -0.17562        -1.83378
  H        -1.90978         -0.88523        -0.66193
  H        -1.86681          0.87188        -0.39996
9
 step=         450     theta[rad]=           4.7124
  C        -0.02069         -0.00457         0.02976
  C         0.02012          0.00005         1.34904
  H         0.90068          0.00298        -0.53739
  H         0.94880         -0.00194         1.89367
  H        -0.88027          0.00025         1.94238
  C        -1.28922         -0.01144        -0.76728
  H        -1.08254          0.17562        -1.83378
  H        -1.86681         -0.87188        -0.39996
  H        -1.90978          0.88523        -0.66193
9
 step=         451     theta[rad]=           4.7229
  C        -0.02069         -0.00462         0.02976
  C         0.02012          0.00005         1.34904
  H         0.90068          0.00301        -0.53739
  H         0.94880         -0.00197         1.89367
  H        -0.88027          0.00026         1.94238
  C        -1.28922         -0.01156        -0.76728
  H        -1.08254          0.17745        -1.83378
  H        -1.86658         -0.87181        -0.39859
  H        -1.91000          0.88530        -0.66329
9
 step=         452     theta[rad]=           4.7333
  C        -0.02069          0.00442         0.02976
  C         0.02012         -0.00005         1.34904
  H         0.90068         -0.00288        -0.53739
  H         0.94880          0.00188         1.89367
  H        -0.88027         -0.00024         1.94238
  C        -1.28922          0.01108        -0.76728
  H        -1.08254         -0.17002        -1.83378
  H        -1.90909         -0.88501        -0.65775
  H        -1.86749          0.87209        -0.40414
9
 step=         453     theta[rad]=           4.7438
  C        -0.02069          0.00485         0.02976
  C         0.02012         -0.00005         1.34904
  H         0.90068         -0.00316        -0.53739
  H         0.94880          0.00206         1.89367
  H        -0.88027         -0.00027         1.94238
  C        -1.28922          0.01214        -0.76728
  H        -1.08254         -0.18630        -1.83378
  H        -1.91109         -0.88563        -0.66989
  H        -1.86550          0.87147        -0.39199
9
 step=         454     theta[rad]=           4.7543
  C        -0.02069         -0.00407         0.02976
  C         0.02012          0.00004         1.34904
  H         0.90068          0.00265        -0.53739
  H         0.94880         -0.00173         1.89367
  H        -0.88027          0.00022         1.94238
  C        -1.28922         -0.01019        -0.76728
  H        -1.08254          0.15630        -1.83378
  H        -1.86917         -0.87261        -0.41437
  H        -1.90742          0.88449        -0.64752
9
 step=         455     theta[rad]=           4.7647
  C        -0.02069         -0.00523         0.02976
  C         0.02012          0.00005         1.34904
  H         0.90068          0.00340        -0.53739
  H         0.94880         -0.00223         1.89367
  H        -0.88027          0.00029         1.94238
  C        -1.28922         -0.01309        -0.76728
  H        -1.08254          0.20093        -1.83378
  H        -1.86371         -0.87092        -0.38108
  H        -1.91288          0.88619        -0.68080
9
 step=         456     theta[rad]=           4.7752
  C        -0.02069          0.00346         0.02976
  C         0.02012         -0.00004         1.34904
  H         0.90068         -0.00225        -0.53739
  H         0.94880          0.00147         1.89367
  H        -0.88027         -0.00019         1.94238
  C        -1.28922          0.00867        -0.76728
  H        -1.08254         -0.13308        -1.83378
  H        -1.90457         -0.88361        -0.63020
  H        -1.87201          0.87350        -0.43169
9
 step=         457     theta[rad]=           4.7857
  C        -0.02069          0.00569         0.02976
  C         0.02012         -0.00006         1.34904
  H         0.90068         -0.00371        -0.53739
  H         0.94880          0.00242         1.89367
  H        -0.88027         -0.00031         1.94238
  C        -1.28922          0.01426        -0.76728
  H        -1.08254         -0.21888        -1.83378
  H        -1.91507         -0.88687        -0.69419
  H        -1.86151          0.87024        -0.36769
9
 step=         458     theta[rad]=           4.7962
  C        -0.02069         -0.00257         0.02976
  C         0.02012          0.00003         1.34904
  H         0.90068          0.00167        -0.53739
  H         0.94880         -0.00109         1.89367
  H        -0.88027          0.00014         1.94238
  C        -1.28922         -0.00643        -0.76728
  H        -1.08254          0.09864        -1.83378
  H        -1.87623         -0.87481        -0.45738
  H        -1.90036          0.88230        -0.60451
9
 step=         459     theta[rad]=           4.8066
  C        -0.02069         -0.00614         0.02976
  C         0.02012          0.00006         1.34904
  H         0.90068          0.00400        -0.53739
  H         0.94880         -0.00262         1.89367
  H        -0.88027          0.00034         1.94238
  C        -1.28922         -0.01539        -0.76728
  H        -1.08254          0.23621        -1.83378
  H        -1.85939         -0.86958        -0.35477
  H        -1.91719          0.88753        -0.70711
9
 step=         460     theta[rad]=           4.8171
  C        -0.02069          0.00134         0.02976
  C         0.02012         -0.00001         1.34904
  H         0.90068         -0.00087        -0.53739
  H         0.94880          0.00057         1.89367
  H        -0.88027         -0.00007         1.94238
  C        -1.28922          0.00337        -0.76728
  H        -1.08254         -0.05164        -1.83378
  H        -1.89461         -0.88052        -0.56946
  H        -1.88198          0.87659        -0.49243
9
 step=         461     theta[rad]=           4.8276
  C        -0.02069          0.00643         0.02976
  C         0.02012         -0.00007         1.34904
  H         0.90068         -0.00419        -0.53739
  H         0.94880          0.00274         1.89367
  H        -0.88027         -0.00036         1.94238
  C        -1.28922          0.01611        -0.76728
  H        -1.08254         -0.24726        -1.83378
  H        -1.91854         -0.88795        -0.71536
  H        -1.85804          0.86916        -0.34653
9
 step=         462     theta[rad]=           4.8381
  C        -0.02069          0.00020         0.02976
  C         0.02012         -0.00000         1.34904
  H         0.90068         -0.00013        -0.53739
  H         0.94880          0.00009         1.89367
  H        -0.88027         -0.00001         1.94238
  C        -1.28922          0.00051        -0.76728
  H        -1.08254         -0.00780        -1.83378
  H        -1.88925         -0.87885        -0.53676
  H        -1.88734          0.87826        -0.52512
9
 step=         463     theta[rad]=           4.8485
  C        -0.02069         -0.00637         0.02976
  C         0.02012          0.00007         1.34904
  H         0.90068          0.00415        -0.53739
  H         0.94880         -0.00271         1.89367
  H        -0.88027          0.00035         1.94238
  C        -1.28922         -0.01596        -0.76728
  H        -1.08254          0.24489        -1.83378
  H        -1.85833         -0.86925        -0.34830
  H        -1.91825          0.88786        -0.71359
9
 step=         464     theta[rad]=           4.8590
  C        -0.02069         -0.00200         0.02976
  C         0.02012          0.00002         1.34904
  H         0.90068          0.00130        -0.53739
  H         0.94880         -0.00085         1.89367
  H        -0.88027          0.00011         1.94238
  C        -1.28922         -0.00500        -0.76728
  H        -1.08254          0.07675        -1.83378
  H        -1.87890         -0.87564        -0.47370
  H        -1.89768          0.88147        -0.58818
9
 step=         465     theta[rad]=           4.8695
  C        -0.02069          0.00576         0.02976
  C         0.02012         -0.00006         1.34904
  H         0.90068         -0.00375        -0.53739
  H         0.94880          0.00245         1.89367
  H        -0.88027         -0.00032         1.94238
  C        -1.28922          0.01442        -0.76728
  H        -1.08254         -0.22129        -1.83378
  H        -1.91537         -0.88696        -0.69599
  H        -1.86122          0.87014        -0.36589
9
 step=         466     theta[rad]=           4.8799
  C        -0.02069          0.00385         0.02976
  C         0.02012         -0.00004         1.34904
  H         0.90068         -0.00251        -0.53739
  H         0.94880          0.00164         1.89367
  H        -0.88027         -0.00021         1.94238
  C        -1.28922          0.00965        -0.76728
  H        -1.08254         -0.14808        -1.83378
  H        -1.90641         -0.88418        -0.64139
  H        -1.87018          0.87293        -0.42050
9
 step=         467     theta[rad]=           4.8904
  C        -0.02069         -0.00442         0.02976
  C         0.02012          0.00005         1.34904
  H         0.90068          0.00288        -0.53739
  H         0.94880         -0.00188         1.89367
  H        -0.88027          0.00024         1.94238
  C        -1.28922         -0.01108        -0.76728
  H        -1.08254          0.17002        -1.83378
  H        -1.86749         -0.87209        -0.40414
  H        -1.90909          0.88501        -0.65775
9
 step=         468     theta[rad]=           4.9009
  C        -0.02069         -0.00546         0.02976
  C         0.02012          0.00006         1.34904
  H         0.90068          0.00355        -0.53739
  H         0.94880         -0.00232         1.89367
  H        -0.88027          0.00030         1.94238
  C        -1.28922         -0.01367        -0.76728
  H        -1.08254          0.20970        -1.83378
  H        -1.86264         -0.87059        -0.37454
  H        -1.91395          0.88652        -0.68734
9
 step=         469     theta[rad]=           4.9114
  C        -0.02069          0.00232         0.02976
  C         0.02012         -0.00002         1.34904
  H         0.90068         -0.00151        -0.53739
  H         0.94880          0.00099         1.89367
  H        -0.88027         -0.00013         1.94238
  C        -1.28922          0.00580        -0.76728
  H        -1.08254         -0.08901        -1.83378
  H        -1.89918         -0.88194        -0.59733
  H        -1.87740          0.87517        -0.46456
9
 step=         470     theta[rad]=           4.9218
  C        -0.02069          0.00638         0.02976
  C         0.02012         -0.00007         1.34904
  H         0.90068         -0.00416        -0.53739
  H         0.94880          0.00272         1.89367
  H        -0.88027         -0.00035         1.94238
  C        -1.28922          0.01599        -0.76728
  H        -1.08254         -0.24531        -1.83378
  H        -1.91831         -0.88787        -0.71390
  H        -1.85828          0.86923        -0.34798
9
 step=         471     theta[rad]=           4.9323
  C        -0.02069          0.00041         0.02976
  C         0.02012         -0.00000         1.34904
  H         0.90068         -0.00026        -0.53739
  H         0.94880          0.00017         1.89367
  H        -0.88027         -0.00002         1.94238
  C        -1.28922          0.00102        -0.76728
  H        -1.08254         -0.01559        -1.83378
  H        -1.89020         -0.87915        -0.54257
  H        -1.88639          0.87796        -0.51931
9
 step=         472     theta[rad]=           4.9428
  C        -0.02069         -0.00619         0.02976
  C         0.02012          0.00006         1.34904
  H         0.90068          0.00403        -0.53739
  H         0.94880         -0.00263         1.89367
  H        -0.88027          0.00034         1.94238
  C        -1.28922         -0.01549        -0.76728
  H        -1.08254          0.23776        -1.83378
  H        -1.85920         -0.86952        -0.35361
  H        -1.91738          0.88759        -0.70827
9
 step=         473     theta[rad]=           4.9532
  C        -0.02069         -0.00329         0.02976
  C         0.02012          0.00003         1.34904
  H         0.90068          0.00214        -0.53739
  H         0.94880         -0.00140         1.89367
  H        -0.88027          0.00018         1.94238
  C        -1.28922         -0.00824        -0.76728
  H        -1.08254          0.12643        -1.83378
  H        -1.87283         -0.87375        -0.43665
  H        -1.90376          0.88336        -0.62524
9
 step=         474     theta[rad]=           4.9637
  C        -0.02069          0.00457         0.02976
  C         0.02012         -0.00005         1.34904
  H         0.90068         -0.00298        -0.53739
  H         0.94880          0.00194         1.89367
  H        -0.88027         -0.00025         1.94238
  C        -1.28922          0.01144        -0.76728
  H        -1.08254         -0.17562        -1.83378
  H        -1.90978         -0.88523        -0.66193
  H        -1.86681          0.87188        -0.39996
9
 step=         475     theta[rad]=           4.9742
  C        -0.02069          0.00560         0.02976
  C         0.02012         -0.00006         1.34904
  H         0.90068         -0.00364        -0.53739
  H         0.94880          0.00238         1.89367
  H        -0.88027         -0.00031         1.94238
  C        -1.28922          0.01402        -0.76728
  H        -1.08254         -0.21509        -1.83378
  H        -1.91461         -0.88673        -0.69136
  H        -1.86198          0.87038        -0.37052
9
 step=         476     theta[rad]=           4.9847
  C        -0.02069         -0.00161         0.02976
  C         0.02012          0.00002         1.34904
  H         0.90068          0.00105        -0.53739
  H         0.94880         -0.00068         1.89367
  H        -0.88027          0.00009         1.94238
  C        -1.28922         -0.00403        -0.76728
  H        -1.08254          0.06177        -1.83378
  H        -1.88074         -0.87621        -0.48488
  H        -1.89585          0.88090        -0.57701
9
 step=         477     theta[rad]=           4.9951
  C        -0.02069         -0.00646         0.02976
  C         0.02012          0.00007         1.34904
  H         0.90068          0.00421        -0.53739
  H         0.94880         -0.00275         1.89367
  H        -0.88027          0.00036         1.94238
  C        -1.28922         -0.01618        -0.76728
  H        -1.08254          0.24824        -1.83378
  H        -1.85792         -0.86912        -0.34580
  H        -1.91866          0.88799        -0.71609
9
 step=         478     theta[rad]=           5.0056
  C        -0.02069         -0.00206         0.02976
  C         0.02012          0.00002         1.34904
  H         0.90068          0.00134        -0.53739
  H         0.94880         -0.00088         1.89367
  H        -0.88027          0.00011         1.94238
  C        -1.28922         -0.00516        -0.76728
  H        -1.08254          0.07922        -1.83378
  H        -1.87860         -0.87554        -0.47186
  H        -1.89799          0.88156        -0.59003
9
 step=         479     theta[rad]=           5.0161
  C        -0.02069          0.00523         0.02976
  C         0.02012         -0.00005         1.34904
  H         0.90068         -0.00340        -0.53739
  H         0.94880          0.00222         1.89367
  H        -0.88027         -0.00029         1.94238
  C        -1.28922          0.01309        -0.76728
  H        -1.08254         -0.20093        -1.83378
  H        -1.91288         -0.88619        -0.68080
  H        -1.86371          0.87092        -0.38108
9
 step=         480     theta[rad]=           5.0265
  C        -0.02069          0.00523         0.02976
  C         0.02012         -0.00005         1.34904
  H         0.90068         -0.00340        -0.53739
  H         0.94880          0.00222         1.89367
  H        -0.88027         -0.00029         1.94238
  C        -1.28922          0.01309        -0.76728
  H        -1.08254         -0.20093        -1.83378
  H        -1.91288         -0.88619        -0.68080
  H        -1.86371          0.87092        -0.38108
9
 step=         481     theta[rad]=           5.0370
  C        -0.02069         -0.00193         0.02976
  C         0.02012          0.00002         1.34904
  H         0.90068          0.00126        -0.53739
  H         0.94880         -0.00082         1.89367
  H        -0.88027          0.00011         1.94238
  C        -1.28922         -0.00484        -0.76728
  H        -1.08254          0.07427        -1.83378
  H        -1.87921         -0.87573        -0.47555
  H        -1.89738          0.88138        -0.58634
9
 step=         482     theta[rad]=           5.0475
  C        -0.02069         -0.00646         0.02976
  C         0.02012          0.00007         1.34904
  H         0.90068          0.00421        -0.53739
  H         0.94880         -0.00275         1.89367
  H        -0.88027          0.00036         1.94238
  C        -1.28922         -0.01618        -0.76728
  H        -1.08254          0.24824        -1.83378
  H        -1.85792         -0.86912        -0.34580
  H        -1.91866          0.88799        -0.71609
9
 step=         483     theta[rad]=           5.0580
  C        -0.02069         -0.00238         0.02976
  C         0.02012          0.00002         1.34904
  H         0.90068          0.00155        -0.53739
  H         0.94880         -0.00101         1.89367
  H        -0.88027          0.00013         1.94238
  C        -1.28922         -0.00596        -0.76728
  H        -1.08254          0.09143        -1.83378
  H        -1.87711         -0.87508        -0.46275
  H        -1.89948          0.88203        -0.59913
9
 step=         484     theta[rad]=           5.0684
  C        -0.02069          0.00480         0.02976
  C         0.02012         -0.00005         1.34904
  H         0.90068         -0.00313        -0.53739
  H         0.94880          0.00204         1.89367
  H        -0.88027         -0.00027         1.94238
  C        -1.28922          0.01203        -0.76728
  H        -1.08254         -0.18457        -1.83378
  H        -1.91087         -0.88557        -0.66860
  H        -1.86571          0.87154        -0.39328
9
 step=         485     theta[rad]=           5.0789
  C        -0.02069          0.00576         0.02976
  C         0.02012         -0.00006         1.34904
  H         0.90068         -0.00375        -0.53739
  H         0.94880          0.00245         1.89367
  H        -0.88027         -0.00032         1.94238
  C        -1.28922          0.01442        -0.76728
  H        -1.08254         -0.22129        -1.83378
  H        -1.91537         -0.88696        -0.69599
  H        -1.86122          0.87014        -0.36589
9
 step=         486     theta[rad]=           5.0894
  C        -0.02069         -0.00061         0.02976
  C         0.02012          0.00001         1.34904
  H         0.90068          0.00040        -0.53739
  H         0.94880         -0.00026         1.89367
  H        -0.88027          0.00003         1.94238
  C        -1.28922         -0.00152        -0.76728
  H        -1.08254          0.02337        -1.83378
  H        -1.88543         -0.87767        -0.51351
  H        -1.89115          0.87944        -0.54837
9
 step=         487     theta[rad]=           5.0999
  C        -0.02069         -0.00619         0.02976
  C         0.02012          0.00006         1.34904
  H         0.90068          0.00403        -0.53739
  H         0.94880         -0.00263         1.89367
  H        -0.88027          0.00034         1.94238
  C        -1.28922         -0.01549        -0.76728
  H        -1.08254          0.23776        -1.83378
  H        -1.85920         -0.86952        -0.35361
  H        -1.91738          0.88759        -0.70827
9
 step=         488     theta[rad]=           5.1103
  C        -0.02069         -0.00412         0.02976
  C         0.02012          0.00004         1.34904
  H         0.90068          0.00268        -0.53739
  H         0.94880         -0.00175         1.89367
  H        -0.88027          0.00023         1.94238
  C        -1.28922         -0.01032        -0.76728
  H        -1.08254          0.15831        -1.83378
  H        -1.86892         -0.87254        -0.41287
  H        -1.90766          0.88457        -0.64902
9
 step=         489     theta[rad]=           5.1208
  C        -0.02069          0.00293         0.02976
  C         0.02012         -0.00003         1.34904
  H         0.90068         -0.00191        -0.53739
  H         0.94880          0.00125         1.89367
  H        -0.88027         -0.00016         1.94238
  C        -1.28922          0.00735        -0.76728
  H        -1.08254         -0.11276        -1.83378
  H        -1.90209         -0.88284        -0.61504
  H        -1.87450          0.87427        -0.44685
9
 step=         490     theta[rad]=           5.1313
  C        -0.02069          0.00645         0.02976
  C         0.02012         -0.00007         1.34904
  H         0.90068         -0.00420        -0.53739
  H         0.94880          0.00275         1.89367
  H        -0.88027         -0.00036         1.94238
  C        -1.28922          0.01616        -0.76728
  H        -1.08254         -0.24802        -1.83378
  H        -1.91864         -0.88798        -0.71593
  H        -1.85795          0.86913        -0.34596
9
 step=         491     theta[rad]=           5.1417
  C        -0.02069          0.00238         0.02976
  C         0.02012         -0.00002         1.34904
  H         0.90068         -0.00155        -0.53739
  H         0.94880          0.00101         1.89367
  H        -0.88027         -0.00013         1.94238
  C        -1.28922          0.00596        -0.76728
  H        -1.08254         -0.09143        -1.83378
  H        -1.89948         -0.88203        -0.59913
  H        -1.87711          0.87508        -0.46275
9
 step=         492     theta[rad]=           5.1522
  C        -0.02069         -0.00442         0.02976
  C         0.02012          0.00005         1.34904
  H         0.90068          0.00288        -0.53739
  H         0.94880         -0.00188         1.89367
  H        -0.88027          0.00024         1.94238
  C        -1.28922         -0.01108        -0.76728
  H        -1.08254          0.17002        -1.83378
  H        -1.86749         -0.87209        -0.40414
  H        -1.90909          0.88501        -0.65775
9
 step=         493     theta[rad]=           5.1627
  C        -0.02069         -0.00617         0.02976
  C         0.02012          0.00006         1.34904
  H         0.90068          0.00402        -0.53739
  H         0.94880         -0.00262         1.89367
  H        -0.88027          0.00034         1.94238
  C        -1.28922         -0.01544        -0.76728
  H        -1.08254          0.23700        -1.83378
  H        -1.85930         -0.86955        -0.35418
  H        -1.91729          0.88756        -0.70770
9
 step=         494     theta[rad]=           5.1732
  C        -0.02069         -0.00101         0.02976
  C         0.02012          0.00001         1.34904
  H         0.90068          0.00066        -0.53739
  H         0.94880         -0.00043         1.89367
  H        -0.88027          0.00006         1.94238
  C        -1.28922         -0.00253        -0.76728
  H        -1.08254          0.03885        -1.83378
  H        -1.88354         -0.87708        -0.50196
  H        -1.89305          0.88003        -0.55992
9
 step=         495     theta[rad]=           5.1836
  C        -0.02069          0.00523         0.02976
  C         0.02012         -0.00005         1.34904
  H         0.90068         -0.00340        -0.53739
  H         0.94880          0.00222         1.89367
  H        -0.88027         -0.00029         1.94238
  C        -1.28922          0.01309        -0.76728
  H        -1.08254         -0.20093        -1.83378
  H        -1.91288         -0.88619        -0.68080
  H        -1.86371          0.87092        -0.38108
9
 step=         496     theta[rad]=           5.1941
  C        -0.02069          0.00579         0.02976
  C         0.02012         -0.00006         1.34904
  H         0.90068         -0.00377        -0.53739
  H         0.94880          0.00246         1.89367
  H        -0.88027         -0.00032         1.94238
  C        -1.28922          0.01450        -0.76728
  H        -1.08254         -0.22246        -1.83378
  H        -1.91551         -0.88701        -0.69686
  H        -1.86108          0.87010        -0.36502
9
 step=         497     theta[rad]=           5.2046
  C        -0.02069          0.00020         0.02976
  C         0.02012         -0.00000         1.34904
  H         0.90068         -0.00013        -0.53739
  H         0.94880          0.00009         1.89367
  H        -0.88027         -0.00001         1.94238
  C        -1.28922          0.00051        -0.76728
  H        -1.08254         -0.00780        -1.83378
  H        -1.88925         -0.87885        -0.53676
  H        -1.88734          0.87826        -0.52512
9
 step=         498     theta[rad]=           5.2150
  C        -0.02069         -0.00556         0.02976
  C         0.02012          0.00006         1.34904
  H         0.90068          0.00362        -0.53739
  H         0.94880         -0.00237         1.89367
  H        -0.88027          0.00031         1.94238
  C        -1.28922         -0.01393        -0.76728
  H        -1.08254          0.21378        -1.83378
  H        -1.86214         -0.87043        -0.37150
  H        -1.91445          0.88668        -0.69038
9
 step=         499     theta[rad]=           5.2255
  C        -0.02069         -0.00560         0.02976
  C         0.02012          0.00006         1.34904
  H         0.90068          0.00364        -0.53739
  H         0.94880         -0.00238         1.89367
  H        -0.88027          0.00031         1.94238
  C        -1.28922         -0.01402        -0.76728
  H        -1.08254          0.21509        -1.83378
  H        -1.86198         -0.87038        -0.37052
  H        -1.91461          0.88673        -0.69136
9
 step=         500     theta[rad]=           5.2360
  C        -0.02069         -0.00000         0.02976
  C         0.02012          0.00000         1.34904
  H         0.90068         -0.00000        -0.53739
  H         0.94880         -0.00000         1.89367
  H        -0.88027          0.00000         1.94238
  C        -1.28922         -0.00000        -0.76728
  H        -1.08254          0.00000        -1.83378
  H        -1.88829         -0.87855        -0.53094
  H        -1.88829          0.87855        -0.53094
9
 step=         501     theta[rad]=           5.2465
  C        -0.02069          0.00556         0.02976
  C         0.02012         -0.00006         1.34904
  H         0.90068         -0.00362        -0.53739
  H         0.94880          0.00237         1.89367
  H        -0.88027         -0.00031         1.94238
  C        -1.28922          0.01393        -0.76728
  H        -1.08254         -0.21378        -1.83378
  H        -1.91445         -0.88668        -0.69038
  H        -1.86214          0.87043        -0.37150
9
 step=         502     theta[rad]=           5.2569
  C        -0.02069          0.00569         0.02976
  C         0.02012         -0.00006         1.34904
  H         0.90068         -0.00371        -0.53739
  H         0.94880          0.00242         1.89367
  H        -0.88027         -0.00031         1.94238
  C        -1.28922          0.01426        -0.76728
  H        -1.08254         -0.21888        -1.83378
  H        -1.91507         -0.88687        -0.69419
  H        -1.86151          0.87024        -0.36769
9
 step=         503     theta[rad]=           5.2674
  C        -0.02069          0.00041         0.02976
  C         0.02012         -0.00000         1.34904
  H         0.90068         -0.00026        -0.53739
  H         0.94880          0.00017         1.89367
  H        -0.88027         -0.00002         1.94238
  C        -1.28922          0.00102        -0.76728
  H        -1.08254         -0.01559        -1.83378
  H        -1.89020         -0.87915        -0.54257
  H        -1.88639          0.87796        -0.51931
9
 step=         504     theta[rad]=           5.2779
  C        -0.02069         -0.00523         0.02976
  C         0.02012          0.00005         1.34904
  H         0.90068          0.00340        -0.53739
  H         0.94880         -0.00223         1.89367
  H        -0.88027          0.00029         1.94238
  C        -1.28922         -0.01309        -0.76728
  H        -1.08254          0.20093        -1.83378
  H        -1.86371         -0.87092        -0.38108
  H        -1.91288          0.88619        -0.68080
9
 step=         505     theta[rad]=           5.2883
  C        -0.02069         -0.00603         0.02976
  C         0.02012          0.00006         1.34904
  H         0.90068          0.00393        -0.53739
  H         0.94880         -0.00257         1.89367
  H        -0.88027          0.00033         1.94238
  C        -1.28922         -0.01511        -0.76728
  H        -1.08254          0.23187        -1.83378
  H        -1.85993         -0.86974        -0.35801
  H        -1.91666          0.88736        -0.70388
9
 step=         506     theta[rad]=           5.2988
  C        -0.02069         -0.00141         0.02976
  C         0.02012          0.00001         1.34904
  H         0.90068          0.00092        -0.53739
  H         0.94880         -0.00060         1.89367
  H        -0.88027          0.00008         1.94238
  C        -1.28922         -0.00353        -0.76728
  H        -1.08254          0.05418        -1.83378
  H        -1.88166         -0.87649        -0.49053
  H        -1.89492          0.88061        -0.57135
9
 step=         507     theta[rad]=           5.3093
  C        -0.02069          0.00442         0.02976
  C         0.02012         -0.00005         1.34904
  H         0.90068         -0.00288        -0.53739
  H         0.94880          0.00188         1.89367
  H        -0.88027         -0.00024         1.94238
  C        -1.28922          0.01108        -0.76728
  H        -1.08254         -0.17002        -1.83378
  H        -1.90909         -0.88501        -0.65775
  H        -1.86749          0.87209        -0.40414
9
 step=         508     theta[rad]=           5.3198
  C        -0.02069          0.00639         0.02976
  C         0.02012         -0.00007         1.34904
  H         0.90068         -0.00416        -0.53739
  H         0.94880          0.00272         1.89367
  H        -0.88027         -0.00035         1.94238
  C        -1.28922          0.01601        -0.76728
  H        -1.08254         -0.24570        -1.83378
  H        -1.91835         -0.88789        -0.71419
  H        -1.85823          0.86922        -0.34769
9
 step=         509     theta[rad]=           5.3302
  C        -0.02069          0.00293         0.02976
  C         0.02012         -0.00003         1.34904
  H         0.90068         -0.00191        -0.53739
  H         0.94880          0.00125         1.89367
  H        -0.88027         -0.00016         1.94238
  C        -1.28922          0.00735        -0.76728
  H        -1.08254         -0.11276        -1.83378
  H        -1.90209         -0.88284        -0.61504
  H        -1.87450          0.87427        -0.44685
9
 step=         510     theta[rad]=           5.3407
  C        -0.02069         -0.00293         0.02976
  C         0.02012          0.00003         1.34904
  H         0.90068          0.00191        -0.53739
  H         0.94880         -0.00125         1.89367
  H        -0.88027          0.00016         1.94238
  C        -1.28922         -0.00735        -0.76728
  H        -1.08254          0.11276        -1.83378
  H        -1.87450         -0.87427        -0.44685
  H        -1.90209          0.88284        -0.61504
9
 step=         511     theta[rad]=           5.3512
  C        -0.02069         -0.00637         0.02976
  C         0.02012          0.00007         1.34904
  H         0.90068          0.00415        -0.53739
  H         0.94880         -0.00271         1.89367
  H        -0.88027          0.00035         1.94238
  C        -1.28922         -0.01596        -0.76728
  H        -1.08254          0.24489        -1.83378
  H        -1.85833         -0.86925        -0.34830
  H        -1.91825          0.88786        -0.71359
9
 step=         512     theta[rad]=           5.3617
  C        -0.02069         -0.00471         0.02976
  C         0.02012          0.00005         1.34904
  H         0.90068          0.00307        -0.53739
  H         0.94880         -0.00200         1.89367
  H        -0.88027          0.00026         1.94238
  C        -1.28922         -0.01180        -0.76728
  H        -1.08254          0.18105        -1.83378
  H        -1.86614         -0.87167        -0.39591
  H        -1.91044          0.88543        -0.66598
9
 step=         513     theta[rad]=           5.3721
  C        -0.02069          0.00061         0.02976
  C         0.02012         -0.00001         1.34904
  H         0.90068         -0.00040        -0.53739
  H         0.94880          0.00026         1.89367
  H        -0.88027         -0.00003         1.94238
  C        -1.28922          0.00152        -0.76728
  H        -1.08254         -0.02337        -1.83378
  H        -1.89115         -0.87944        -0.54838
  H        -1.88543          0.87767        -0.51351
9
 step=         514     theta[rad]=           5.3826
  C        -0.02069          0.00542         0.02976
  C         0.02012         -0.00006         1.34904
  H         0.90068         -0.00353        -0.53739
  H         0.94880          0.00231         1.89367
  H        -0.88027         -0.00030         1.94238
  C        -1.28922          0.01357        -0.76728
  H        -1.08254         -0.20830        -1.83378
  H        -1.91378         -0.88647        -0.68630
  H        -1.86281          0.87064        -0.37559
9
 step=         515     theta[rad]=           5.3931
  C        -0.02069          0.00614         0.02976
  C         0.02012         -0.00006         1.34904
  H         0.90068         -0.00400        -0.53739
  H         0.94880          0.00262         1.89367
  H        -0.88027         -0.00034         1.94238
  C        -1.28922          0.01539        -0.76728
  H        -1.08254         -0.23621        -1.83378
  H        -1.91719         -0.88753        -0.70711
  H        -1.85939          0.86958        -0.35477
9
 step=         516     theta[rad]=           5.4035
  C        -0.02069          0.00238         0.02976
  C         0.02012         -0.00002         1.34904
  H         0.90068         -0.00155        -0.53739
  H         0.94880          0.00101         1.89367
  H        -0.88027         -0.00013         1.94238
  C        -1.28922          0.00596        -0.76728
  H        -1.08254         -0.09143        -1.83378
  H        -1.89948         -0.88203        -0.59913
  H        -1.87711          0.87508        -0.46275
9
 step=         517     theta[rad]=           5.4140
  C        -0.02069         -0.00305         0.02976
  C         0.02012          0.00003         1.34904
  H         0.90068          0.00199        -0.53739
  H         0.94880         -0.00130         1.89367
  H        -0.88027          0.00017         1.94238
  C        -1.28922         -0.00765        -0.76728
  H        -1.08254          0.11736        -1.83378
  H        -1.87393         -0.87409        -0.44341
  H        -1.90265          0.88301        -0.61848
9
 step=         518     theta[rad]=           5.4245
  C        -0.02069         -0.00631         0.02976
  C         0.02012          0.00007         1.34904
  H         0.90068          0.00411        -0.53739
  H         0.94880         -0.00268         1.89367
  H        -0.88027          0.00035         1.94238
  C        -1.28922         -0.01580        -0.76728
  H        -1.08254          0.24238        -1.83378
  H        -1.85864         -0.86934        -0.35017
  H        -1.91795          0.88776        -0.71172
9
 step=         519     theta[rad]=           5.4350
  C        -0.02069         -0.00523         0.02976
  C         0.02012          0.00005         1.34904
  H         0.90068          0.00340        -0.53739
  H         0.94880         -0.00223         1.89367
  H        -0.88027          0.00029         1.94238
  C        -1.28922         -0.01309        -0.76728
  H        -1.08254          0.20093        -1.83378
  H        -1.86371         -0.87092        -0.38108
  H        -1.91288          0.88619        -0.68080
9
 step=         520     theta[rad]=           5.4454
  C        -0.02069         -0.00068         0.02976
  C         0.02012          0.00001         1.34904
  H         0.90068          0.00044        -0.53739
  H         0.94880         -0.00029         1.89367
  H        -0.88027          0.00004         1.94238
  C        -1.28922         -0.00169        -0.76728
  H        -1.08254          0.02596        -1.83378
  H        -1.88512         -0.87757        -0.51158
  H        -1.89147          0.87954        -0.55031
9
 step=         521     theta[rad]=           5.4559
  C        -0.02069          0.00427         0.02976
  C         0.02012         -0.00004         1.34904
  H         0.90068         -0.00278        -0.53739
  H         0.94880          0.00182         1.89367
  H        -0.88027         -0.00024         1.94238
  C        -1.28922          0.01070        -0.76728
  H        -1.08254         -0.16425        -1.83378
  H        -1.90839         -0.88479        -0.65344
  H        -1.86820          0.87231        -0.40844
9
 step=         522     theta[rad]=           5.4664
  C        -0.02069          0.00646         0.02976
  C         0.02012         -0.00007         1.34904
  H         0.90068         -0.00421        -0.53739
  H         0.94880          0.00275         1.89367
  H        -0.88027         -0.00036         1.94238
  C        -1.28922          0.01618        -0.76728
  H        -1.08254         -0.24824        -1.83378
  H        -1.91866         -0.88799        -0.71609
  H        -1.85792          0.86912        -0.34580
9
 step=         523     theta[rad]=           5.4768
  C        -0.02069          0.00462         0.02976
  C         0.02012         -0.00005         1.34904
  H         0.90068         -0.00301        -0.53739
  H         0.94880          0.00196         1.89367
  H        -0.88027         -0.00026         1.94238
  C        -1.28922          0.01156        -0.76728
  H        -1.08254         -0.17745        -1.83378
  H        -1.91000         -0.88530        -0.66329
  H        -1.86658          0.87181        -0.39859
9
 step=         524     theta[rad]=           5.4873
  C        -0.02069         -0.00000         0.02976
  C         0.02012          0.00000         1.34904
  H         0.90068         -0.00000        -0.53739
  H         0.94880         -0.00000         1.89367
  H        -0.88027          0.00000         1.94238
  C        -1.28922         -0.00000        -0.76728
  H        -1.08254          0.00000        -1.83378
  H        -1.88829         -0.87855        -0.53094
  H        -1.88829          0.87855        -0.53094
9
 step=         525     theta[rad]=           5.4978
  C        -0.02069         -0.00457         0.02976
  C         0.02012          0.00005         1.34904
  H         0.90068          0.00298        -0.53739
  H         0.94880         -0.00194         1.89367
  H        -0.88027          0.00025         1.94238
  C        -1.28922         -0.01144        -0.76728
  H        -1.08254          0.17562        -1.83378
  H        -1.86681         -0.87188        -0.39996
  H        -1.90978          0.88523        -0.66193
9
 step=         526     theta[rad]=           5.5083
  C        -0.02069         -0.00646         0.02976
  C         0.02012          0.00007         1.34904
  H         0.90068          0.00421        -0.53739
  H         0.94880         -0.00275         1.89367
  H        -0.88027          0.00036         1.94238
  C        -1.28922         -0.01618        -0.76728
  H        -1.08254          0.24835        -1.83378
  H        -1.85791         -0.86912        -0.34571
  H        -1.91868          0.88799        -0.71617
9
 step=         527     theta[rad]=           5.5187
  C        -0.02069         -0.00471         0.02976
  C         0.02012          0.00005         1.34904
  H         0.90068          0.00307        -0.53739
  H         0.94880         -0.00200         1.89367
  H        -0.88027          0.00026         1.94238
  C        -1.28922         -0.01180        -0.76728
  H        -1.08254          0.18105        -1.83378
  H        -1.86614         -0.87167        -0.39591
  H        -1.91044          0.88543        -0.66598
9
 step=         528     theta[rad]=           5.5292
  C        -0.02069         -0.00041         0.02976
  C         0.02012          0.00000         1.34904
  H         0.90068          0.00026        -0.53739
  H         0.94880         -0.00017         1.89367
  H        -0.88027          0.00002         1.94238
  C        -1.28922         -0.00102        -0.76728
  H        -1.08254          0.01559        -1.83378
  H        -1.88639         -0.87796        -0.51931
  H        -1.89020          0.87915        -0.54257
9
 step=         529     theta[rad]=           5.5397
  C        -0.02069          0.00407         0.02976
  C         0.02012         -0.00004         1.34904
  H         0.90068         -0.00265        -0.53739
  H         0.94880          0.00173         1.89367
  H        -0.88027         -0.00022         1.94238
  C        -1.28922          0.01019        -0.76728
  H        -1.08254         -0.15630        -1.83378
  H        -1.90742         -0.88449        -0.64752
  H        -1.86917          0.87261        -0.41437
9
 step=         530     theta[rad]=           5.5501
  C        -0.02069          0.00638         0.02976
  C         0.02012         -0.00007         1.34904
  H         0.90068         -0.00416        -0.53739
  H         0.94880          0.00272         1.89367
  H        -0.88027         -0.00035         1.94238
  C        -1.28922          0.01599        -0.76728
  H        -1.08254         -0.24531        -1.83378
  H        -1.91831         -0.88787        -0.71390
  H        -1.85828          0.86923        -0.34798
9
 step=         531     theta[rad]=           5.5606
  C        -0.02069          0.00546         0.02976
  C         0.02012         -0.00006         1.34904
  H         0.90068         -0.00355        -0.53739
  H         0.94880          0.00232         1.89367
  H        -0.88027         -0.00030         1.94238
  C        -1.28922          0.01367        -0.76728
  H        -1.08254         -0.20970        -1.83378
  H        -1.91395         -0.88652        -0.68734
  H        -1.86264          0.87059        -0.37454
9
 step=         532     theta[rad]=           5.5711
  C        -0.02069          0.00187         0.02976
  C         0.02012         -0.00002         1.34904
  H         0.90068         -0.00122        -0.53739
  H         0.94880          0.00079         1.89367
  H        -0.88027         -0.00010         1.94238
  C        -1.28922          0.00468        -0.76728
  H        -1.08254         -0.07179        -1.83378
  H        -1.89708         -0.88128        -0.58448
  H        -1.87951          0.87583        -0.47740
9
 step=         533     theta[rad]=           5.5816
  C        -0.02069         -0.00257         0.02976
  C         0.02012          0.00003         1.34904
  H         0.90068          0.00167        -0.53739
  H         0.94880         -0.00109         1.89367
  H        -0.88027          0.00014         1.94238
  C        -1.28922         -0.00643        -0.76728
  H        -1.08254          0.09864        -1.83378
  H        -1.87623         -0.87481        -0.45738
  H        -1.90036          0.88230        -0.60451
9
 step=         534     theta[rad]=           5.5920
  C        -0.02069         -0.00576         0.02976
  C         0.02012          0.00006         1.34904
  H         0.90068          0.00375        -0.53739
  H         0.94880         -0.00245         1.89367
  H        -0.88027          0.00032         1.94238
  C        -1.28922         -0.01442        -0.76728
  H        -1.08254          0.22129        -1.83378
  H        -1.86122         -0.87014        -0.36589
  H        -1.91537          0.88696        -0.69599
9
 step=         535     theta[rad]=           5.6025
  C        -0.02069         -0.00632         0.02976
  C         0.02012          0.00007         1.34904
  H         0.90068          0.00412        -0.53739
  H         0.94880         -0.00269         1.89367
  H        -0.88027          0.00035         1.94238
  C        -1.28922         -0.01583        -0.76728
  H        -1.08254          0.24294        -1.83378
  H        -1.85857         -0.86932        -0.34975
  H        -1.91802          0.88778        -0.71213
9
 step=         536     theta[rad]=           5.6130
  C        -0.02069         -0.00412         0.02976
  C         0.02012          0.00004         1.34904
  H         0.90068          0.00268        -0.53739
  H         0.94880         -0.00175         1.89367
  H        -0.88027          0.00023         1.94238
  C        -1.28922         -0.01032        -0.76728
  H        -1.08254          0.15831        -1.83378
  H        -1.86892         -0.87254        -0.41287
  H        -1.90766          0.88457        -0.64902
9
 step=         537     theta[rad]=           5.6235
  C        -0.02069         -0.00020         0.02976
  C         0.02012          0.00000         1.34904
  H         0.90068          0.00013        -0.53739
  H         0.94880         -0.00009         1.89367
  H        -0.88027          0.00001         1.94238
  C        -1.28922         -0.00051        -0.76728
  H        -1.08254          0.00780        -1.83378
  H        -1.88734         -0.87826        -0.52512
  H        -1.88925          0.87885        -0.53676
9
 step=         538     theta[rad]=           5.6339
  C        -0.02069          0.00374         0.02976
  C         0.02012         -0.00004         1.34904
  H         0.90068         -0.00244        -0.53739
  H         0.94880          0.00159         1.89367
  H        -0.88027         -0.00021         1.94238
  C        -1.28922          0.00938        -0.76728
  H        -1.08254         -0.14387        -1.83378
  H        -1.90590         -0.88402        -0.63825
  H        -1.87069          0.87309        -0.42364
9
 step=         539     theta[rad]=           5.6444
  C        -0.02069          0.00614         0.02976
  C         0.02012         -0.00006         1.34904
  H         0.90068         -0.00400        -0.53739
  H         0.94880          0.00262         1.89367
  H        -0.88027         -0.00034         1.94238
  C        -1.28922          0.01539        -0.76728
  H        -1.08254         -0.23621        -1.83378
  H        -1.91719         -0.88753        -0.70711
  H        -1.85939          0.86958        -0.35477
9
 step=         540     theta[rad]=           5.6549
  C        -0.02069          0.00614         0.02976
  C         0.02012         -0.00006         1.34904
  H         0.90068         -0.00400        -0.53739
  H         0.94880          0.00262         1.89367
  H        -0.88027         -0.00034         1.94238
  C        -1.28922          0.01539        -0.76728
  H        -1.08254         -0.23621        -1.83378
  H        -1.91719         -0.88753        -0.70711
  H        -1.85939          0.86958        -0.35477
9
 step=         541     theta[rad]=           5.6653
  C        -0.02069          0.00385         0.02976
  C         0.02012         -0.00004         1.34904
  H         0.90068         -0.00251        -0.53739
  H         0.94880          0.00164         1.89367
  H        -0.88027         -0.00021         1.94238
  C        -1.28922          0.00965        -0.76728
  H        -1.08254         -0.14808        -1.83378
  H        -1.90641         -0.88418        -0.64139
  H        -1.87018          0.87293        -0.42050
9
 step=         542     theta[rad]=           5.6758
  C        -0.02069          0.00020         0.02976
  C         0.02012         -0.00000         1.34904
  H         0.90068         -0.00013        -0.53739
  H         0.94880          0.00009         1.89367
  H        -0.88027         -0.00001         1.94238
  C        -1.28922          0.00051        -0.76728
  H        -1.08254         -0.00780        -1.83378
  H        -1.88925         -0.87885        -0.53676
  H        -1.88734          0.87826        -0.52512
9
 step=         543     theta[rad]=           5.6863
  C        -0.02069         -0.00346         0.02976
  C         0.02012          0.00004         1.34904
  H         0.90068          0.00225        -0.53739
  H         0.94880         -0.00147         1.89367
  H        -0.88027          0.00019         1.94238
  C        -1.28922         -0.00867        -0.76728
  H        -1.08254          0.13308        -1.83378
  H        -1.87201         -0.87350        -0.43169
  H        -1.90458          0.88361        -0.63020
9
 step=         544     theta[rad]=           5.6968
  C        -0.02069         -0.00590         0.02976
  C         0.02012          0.00006         1.34904
  H         0.90068          0.00384        -0.53739
  H         0.94880         -0.00251         1.89367
  H        -0.88027          0.00033         1.94238
  C        -1.28922         -0.01479        -0.76728
  H        -1.08254          0.22689        -1.83378
  H        -1.86053         -0.86993        -0.36172
  H        -1.91605          0.88718        -0.70017
9
 step=         545     theta[rad]=           5.7072
  C        -0.02069         -0.00638         0.02976
  C         0.02012          0.00007         1.34904
  H         0.90068          0.00416        -0.53739
  H         0.94880         -0.00272         1.89367
  H        -0.88027          0.00035         1.94238
  C        -1.28922         -0.01599        -0.76728
  H        -1.08254          0.24531        -1.83378
  H        -1.85828         -0.86923        -0.34798
  H        -1.91831          0.88787        -0.71390
9
 step=         546     theta[rad]=           5.7177
  C        -0.02069         -0.00485         0.02976
  C         0.02012          0.00005         1.34904
  H         0.90068          0.00316        -0.53739
  H         0.94880         -0.00206         1.89367
  H        -0.88027          0.00027         1.94238
  C        -1.28922         -0.01214        -0.76728
  H        -1.08254          0.18630        -1.83378
  H        -1.86550         -0.87147        -0.39199
  H        -1.91109          0.88563        -0.66989
9
 step=         547     theta[rad]=           5.7282
  C        -0.02069         -0.00187         0.02976
  C         0.02012          0.00002         1.34904
  H         0.90068          0.00122        -0.53739
  H         0.94880         -0.00079         1.89367
  H        -0.88027          0.00010         1.94238
  C        -1.28922         -0.00468        -0.76728
  H        -1.08254          0.07179        -1.83378
  H        -1.87951         -0.87583        -0.47740
  H        -1.89708          0.88128        -0.58448
9
 step=         548     theta[rad]=           5.7386
  C        -0.02069          0.00161         0.02976
  C         0.02012         -0.00002         1.34904
  H         0.90068         -0.00105        -0.53739
  H         0.94880          0.00068         1.89367
  H        -0.88027         -0.00009         1.94238
  C        -1.28922          0.00403        -0.76728
  H        -1.08254         -0.06177        -1.83378
  H        -1.89585         -0.88090        -0.57701
  H        -1.88074          0.87621        -0.48488
9
 step=         549     theta[rad]=           5.7491
  C        -0.02069          0.00457         0.02976
  C         0.02012         -0.00005         1.34904
  H         0.90068         -0.00298        -0.53739
  H         0.94880          0.00194         1.89367
  H        -0.88027         -0.00025         1.94238
  C        -1.28922          0.01144        -0.76728
  H        -1.08254         -0.17562        -1.83378
  H        -1.90978         -0.88523        -0.66193
  H        -1.86681          0.87188        -0.39996
9
 step=         550     theta[rad]=           5.7596
  C        -0.02069          0.00624         0.02976
  C         0.02012         -0.00006         1.34904
  H         0.90068         -0.00406        -0.53739
  H         0.94880          0.00266         1.89367
  H        -0.88027         -0.00034         1.94238
  C        -1.28922          0.01563        -0.76728
  H        -1.08254         -0.23990        -1.83378
  H        -1.91764         -0.88767        -0.70987
  H        -1.85894          0.86944        -0.35202
9
 step=         551     theta[rad]=           5.7701
  C        -0.02069          0.00626         0.02976
  C         0.02012         -0.00006         1.34904
  H         0.90068         -0.00408        -0.53739
  H         0.94880          0.00266         1.89367
  H        -0.88027         -0.00035         1.94238
  C        -1.28922          0.01568        -0.76728
  H        -1.08254         -0.24056        -1.83378
  H        -1.91772         -0.88769        -0.71036
  H        -1.85886          0.86941        -0.35152
9
 step=         552     theta[rad]=           5.7805
  C        -0.02069          0.00471         0.02976
  C         0.02012         -0.00005         1.34904
  H         0.90068         -0.00307        -0.53739
  H         0.94880          0.00200         1.89367
  H        -0.88027         -0.00026         1.94238
  C        -1.28922          0.01180        -0.76728
  H        -1.08254         -0.18105        -1.83378
  H        -1.91044         -0.88543        -0.66598
  H        -1.86614          0.87167        -0.39591
9
 step=         553     theta[rad]=           5.7910
  C        -0.02069          0.00206         0.02976
  C         0.02012         -0.00002         1.34904
  H         0.90068         -0.00134        -0.53739
  H         0.94880          0.00088         1.89367
  H        -0.88027         -0.00011         1.94238
  C        -1.28922          0.00516        -0.76728
  H        -1.08254         -0.07922        -1.83378
  H        -1.89799         -0.88156        -0.59003
  H        -1.87860          0.87554        -0.47186
9
 step=         554     theta[rad]=           5.8015
  C        -0.02069         -0.00101         0.02976
  C         0.02012          0.00001         1.34904
  H         0.90068          0.00066        -0.53739
  H         0.94880         -0.00043         1.89367
  H        -0.88027          0.00006         1.94238
  C        -1.28922         -0.00253        -0.76728
  H        -1.08254          0.03885        -1.83378
  H        -1.88354         -0.87708        -0.50196
  H        -1.89305          0.88003        -0.55992
9
 step=         555     theta[rad]=           5.8119
  C        -0.02069         -0.00380         0.02976
  C         0.02012          0.00004         1.34904
  H         0.90068          0.00247        -0.53739
  H         0.94880         -0.00162         1.89367
  H        -0.88027          0.00021         1.94238
  C        -1.28922         -0.00951        -0.76728
  H        -1.08254          0.14599        -1.83378
  H        -1.87043         -0.87301        -0.42206
  H        -1.90615          0.88410        -0.63982
9
 step=         556     theta[rad]=           5.8224
  C        -0.02069         -0.00573         0.02976
  C         0.02012          0.00006         1.34904
  H         0.90068          0.00373        -0.53739
  H         0.94880         -0.00244         1.89367
  H        -0.88027          0.00032         1.94238
  C        -1.28922         -0.01434        -0.76728
  H        -1.08254          0.22010        -1.83378
  H        -1.86137         -0.87019        -0.36678
  H        -1.91522          0.88692        -0.69510
9
 step=         557     theta[rad]=           5.8329
  C        -0.02069         -0.00646         0.02976
  C         0.02012          0.00007         1.34904
  H         0.90068          0.00421        -0.53739
  H         0.94880         -0.00275         1.89367
  H        -0.88027          0.00036         1.94238
  C        -1.28922         -0.01618        -0.76728
  H        -1.08254          0.24824        -1.83378
  H        -1.85792         -0.86912        -0.34580
  H        -1.91866          0.88799        -0.71609
9
 step=         558     theta[rad]=           5.8434
  C        -0.02069         -0.00593         0.02976
  C         0.02012          0.00006         1.34904
  H         0.90068          0.00386        -0.53739
  H         0.94880         -0.00252         1.89367
  H        -0.88027          0.00033         1.94238
  C        -1.28922         -0.01485        -0.76728
  H        -1.08254          0.22794        -1.83378
  H        -1.86041         -0.86989        -0.36094
  H        -1.91618          0.88721        -0.70095
9
 step=         559     theta[rad]=           5.8538
  C        -0.02069         -0.00432         0.02976
  C         0.02012          0.00004         1.34904
  H         0.90068          0.00282        -0.53739
  H         0.94880         -0.00184         1.89367
  H        -0.88027          0.00024         1.94238
  C        -1.28922         -0.01083        -0.76728
  H        -1.08254          0.16619        -1.83378
  H        -1.86796         -0.87224        -0.40699
  H        -1.90863          0.88487        -0.65489
9
 step=         560     theta[rad]=           5.8643
  C        -0.02069         -0.00200         0.02976
  C         0.02012          0.00002         1.34904
  H         0.90068          0.00130        -0.53739
  H         0.94880         -0.00085         1.89367
  H        -0.88027          0.00011         1.94238
  C        -1.28922         -0.00500        -0.76728
  H        -1.08254          0.07675        -1.83378
  H        -1.87890         -0.87564        -0.47370
  H        -1.89768          0.88147        -0.58818
9
 step=         561     theta[rad]=           5.8748
  C        -0.02069          0.00061         0.02976
  C         0.02012         -0.00001         1.34904
  H         0.90068         -0.00040        -0.53739
  H         0.94880          0.00026         1.89367
  H        -0.88027         -0.00003         1.94238
  C        -1.28922          0.00152        -0.76728
  H        -1.08254         -0.02337        -1.83378
  H        -1.89115         -0.87944        -0.54838
  H        -1.88543          0.87767        -0.51351
9
 step=         562     theta[rad]=           5.8853
  C        -0.02069          0.00305         0.02976
  C         0.02012         -0.00003         1.34904
  H         0.90068         -0.00199        -0.53739
  H         0.94880          0.00130         1.89367
  H        -0.88027         -0.00017         1.94238
  C        -1.28922          0.00765        -0.76728
  H        -1.08254         -0.11736        -1.83378
  H        -1.90265         -0.88301        -0.61848
  H        -1.87393          0.87409        -0.44341
9
 step=         563     theta[rad]=           5.8957
  C        -0.02069          0.00498         0.02976
  C         0.02012         -0.00005         1.34904
  H         0.90068         -0.00324        -0.53739
  H         0.94880          0.00212         1.89367
  H        -0.88027         -0.00028         1.94238
  C        -1.28922          0.01247        -0.76728
  H        -1.08254         -0.19137        -1.83378
  H        -1.91171         -0.88583        -0.67367
  H        -1.86488          0.87128        -0.38821
9
 step=         564     theta[rad]=           5.9062
  C        -0.02069          0.00614         0.02976
  C         0.02012         -0.00006         1.34904
  H         0.90068         -0.00400        -0.53739
  H         0.94880          0.00262         1.89367
  H        -0.88027         -0.00034         1.94238
  C        -1.28922          0.01539        -0.76728
  H        -1.08254         -0.23621        -1.83378
  H        -1.91719         -0.88753        -0.70711
  H        -1.85939          0.86958        -0.35477
9
 step=         565     theta[rad]=           5.9167
  C        -0.02069          0.00645         0.02976
  C         0.02012         -0.00007         1.34904
  H         0.90068         -0.00420        -0.53739
  H         0.94880          0.00275         1.89367
  H        -0.88027         -0.00036         1.94238
  C        -1.28922          0.01616        -0.76728
  H        -1.08254         -0.24802        -1.83378
  H        -1.91864         -0.88798        -0.71593
  H        -1.85795          0.86913        -0.34596
9
 step=         566     theta[rad]=           5.9271
  C        -0.02069          0.00593         0.02976
  C         0.02012         -0.00006         1.34904
  H         0.90068         -0.00386        -0.53739
  H         0.94880          0.00252         1.89367
  H        -0.88027         -0.00033         1.94238
  C        -1.28922          0.01485        -0.76728
  H        -1.08254         -0.22794        -1.83378
  H        -1.91618         -0.88721        -0.70095
  H        -1.86041          0.86989        -0.36094
9
 step=         567     theta[rad]=           5.9376
  C        -0.02069          0.00471         0.02976
  C         0.02012         -0.00005         1.34904
  H         0.90068         -0.00307        -0.53739
  H         0.94880          0.00200         1.89367
  H        -0.88027         -0.00026         1.94238
  C        -1.28922          0.01180        -0.76728
  H        -1.08254         -0.18105        -1.83378
  H        -1.91044         -0.88543        -0.66598
  H        -1.86614          0.87167        -0.39591
9
 step=         568     theta[rad]=           5.9481
  C        -0.02069          0.00299         0.02976
  C         0.02012         -0.00003         1.34904
  H         0.90068         -0.00195        -0.53739
  H         0.94880          0.00127         1.89367
  H        -0.88027         -0.00017         1.94238
  C        -1.28922          0.00750        -0.76728
  H        -1.08254         -0.11507        -1.83378
  H        -1.90237         -0.88293        -0.61676
  H        -1.87422          0.87418        -0.44512
9
 step=         569     theta[rad]=           5.9586
  C        -0.02069          0.00101         0.02976
  C         0.02012         -0.00001         1.34904
  H         0.90068         -0.00066        -0.53739
  H         0.94880          0.00043         1.89367
  H        -0.88027         -0.00006         1.94238
  C        -1.28922          0.00253        -0.76728
  H        -1.08254         -0.03885        -1.83378
  H        -1.89305         -0.88003        -0.55992
  H        -1.88354          0.87708        -0.50196
9
 step=         570     theta[rad]=           5.9690
  C        -0.02069         -0.00101         0.02976
  C         0.02012          0.00001         1.34904
  H         0.90068          0.00066        -0.53739
  H         0.94880         -0.00043         1.89367
  H        -0.88027          0.00006         1.94238
  C        -1.28922         -0.00253        -0.76728
  H        -1.08254          0.03885        -1.83378
  H        -1.88354         -0.87708        -0.50196
  H        -1.89305          0.88003        -0.55992
9
 step=         571     theta[rad]=           5.9795
  C        -0.02069         -0.00287         0.02976
  C         0.02012          0.00003         1.34904
  H         0.90068          0.00187        -0.53739
  H         0.94880         -0.00122         1.89367
  H        -0.88027          0.00016         1.94238
  C        -1.28922         -0.00720        -0.76728
  H        -1.08254          0.11043        -1.83378
  H        -1.87478         -0.87436        -0.44858
  H        -1.90180          0.88275        -0.61331
9
 step=         572     theta[rad]=           5.9900
  C        -0.02069         -0.00442         0.02976
  C         0.02012          0.00005         1.34904
  H         0.90068          0.00288        -0.53739
  H         0.94880         -0.00188         1.89367
  H        -0.88027          0.00024         1.94238
  C        -1.28922         -0.01108        -0.76728
  H        -1.08254          0.17002        -1.83378
  H        -1.86749         -0.87209        -0.40414
  H        -1.90909          0.88501        -0.65775
9
 step=         573     theta[rad]=           6.0004
  C        -0.02069         -0.00556         0.02976
  C         0.02012          0.00006         1.34904
  H         0.90068          0.00362        -0.53739
  H         0.94880         -0.00237         1.89367
  H        -0.88027          0.00031         1.94238
  C        -1.28922         -0.01393        -0.76728
  H        -1.08254          0.21378        -1.83378
  H        -1.86214         -0.87043        -0.37150
  H        -1.91445          0.88668        -0.69038
9
 step=         574     theta[rad]=           6.0109
  C        -0.02069         -0.00624         0.02976
  C         0.02012          0.00006         1.34904
  H         0.90068          0.00406        -0.53739
  H         0.94880         -0.00266         1.89367
  H        -0.88027          0.00034         1.94238
  C        -1.28922         -0.01563        -0.76728
  H        -1.08254          0.23990        -1.83378
  H        -1.85894         -0.86944        -0.35202
  H        -1.91764          0.88767        -0.70987
9
 step=         575     theta[rad]=           6.0214
  C        -0.02069         -0.00646         0.02976
  C         0.02012          0.00007         1.34904
  H         0.90068          0.00421        -0.53739
  H         0.94880         -0.00275         1.89367
  H        -0.88027          0.00036         1.94238
  C        -1.28922         -0.01619        -0.76728
  H        -1.08254          0.24836        -1.83378
  H        -1.85791         -0.86912        -0.34570
  H        -1.91868          0.88799        -0.71618
9
 step=         576     theta[rad]=           6.0319
  C        -0.02069         -0.00626         0.02976
  C         0.02012          0.00006         1.34904
  H         0.90068          0.00408        -0.53739
  H         0.94880         -0.00266         1.89367
  H        -0.88027          0.00035         1.94238
  C        -1.28922         -0.01568        -0.76728
  H        -1.08254          0.24056        -1.83378
  H        -1.85886         -0.86941        -0.35152
  H        -1.91772          0.88769        -0.71036
9
 step=         577     theta[rad]=           6.0423
  C        -0.02069         -0.00569         0.02976
  C         0.02012          0.00006         1.34904
  H         0.90068          0.00371        -0.53739
  H         0.94880         -0.00242         1.89367
  H        -0.88027          0.00031         1.94238
  C        -1.28922         -0.01426        -0.76728
  H        -1.08254          0.21888        -1.83378
  H        -1.86151         -0.87024        -0.36769
  H        -1.91507          0.88687        -0.69419
9
 step=         578     theta[rad]=           6.0528
  C        -0.02069         -0.00485         0.02976
  C         0.02012          0.00005         1.34904
  H         0.90068          0.00316        -0.53739
  H         0.94880         -0.00206         1.89367
  H        -0.88027          0.00027         1.94238
  C        -1.28922         -0.01214        -0.76728
  H        -1.08254          0.18630        -1.83378
  H        -1.86550         -0.87147        -0.39199
  H        -1.91109          0.88563        -0.66989
9
 step=         579     theta[rad]=           6.0633
  C        -0.02069         -0.00380         0.02976
  C         0.02012          0.00004         1.34904
  H         0.90068          0.00247        -0.53739
  H         0.94880         -0.00162         1.89367
  H        -0.88027          0.00021         1.94238
  C        -1.28922         -0.00951        -0.76728
  H        -1.08254          0.14599        -1.83378
  H        -1.87043         -0.87301        -0.42206
  H        -1.90615          0.88410        -0.63982
9
 step=         580     theta[rad]=           6.0737
  C        -0.02069         -0.00263         0.02976
  C         0.02012          0.00003         1.34904
  H         0.90068          0.00171        -0.53739
  H         0.94880         -0.00112         1.89367
  H        -0.88027          0.00015         1.94238
  C        -1.28922         -0.00658        -0.76728
  H        -1.08254          0.10102        -1.83378
  H        -1.87593         -0.87472        -0.45560
  H        -1.90065          0.88239        -0.60629
9
 step=         581     theta[rad]=           6.0842
  C        -0.02069         -0.00141         0.02976
  C         0.02012          0.00001         1.34904
  H         0.90068          0.00092        -0.53739
  H         0.94880         -0.00060         1.89367
  H        -0.88027          0.00008         1.94238
  C        -1.28922         -0.00353        -0.76728
  H        -1.08254          0.05418        -1.83378
  H        -1.88166         -0.87649        -0.49053
  H        -1.89492          0.88061        -0.57135
9
 step=         582     theta[rad]=           6.0947
  C        -0.02069         -0.00020         0.02976
  C         0.02012          0.00000         1.34904
  H         0.90068          0.00013        -0.53739
  H         0.94880         -0.00009         1.89367
  H        -0.88027          0.00001         1.94238
  C        -1.28922         -0.00051        -0.76728
  H        -1.08254          0.00780        -1.83378
  H        -1.88734         -0.87826        -0.52512
  H        -1.88925          0.87885        -0.53676
9
 step=         583     theta[rad]=           6.1052
  C        -0.02069          0.00094         0.02976
  C         0.02012         -0.00001         1.34904
  H         0.90068         -0.00061        -0.53739
  H         0.94880          0.00040         1.89367
  H        -0.88027         -0.00005         1.94238
  C        -1.28922          0.00236        -0.76728
  H        -1.08254         -0.03628        -1.83378
  H        -1.89273         -0.87993        -0.55800
  H        -1.88385          0.87717        -0.50388
9
 step=         584     theta[rad]=           6.1156
  C        -0.02069          0.00200         0.02976
  C         0.02012         -0.00002         1.34904
  H         0.90068         -0.00130        -0.53739
  H         0.94880          0.00085         1.89367
  H        -0.88027         -0.00011         1.94238
  C        -1.28922          0.00500        -0.76728
  H        -1.08254         -0.07675        -1.83378
  H        -1.89768         -0.88147        -0.58818
  H        -1.87890          0.87564        -0.47370
9
 step=         585     theta[rad]=           6.1261
  C        -0.02069          0.00293         0.02976
  C         0.02012         -0.00003         1.34904
  H         0.90068         -0.00191        -0.53739
  H         0.94880          0.00125         1.89367
  H        -0.88027         -0.00016         1.94238
  C        -1.28922          0.00735        -0.76728
  H        -1.08254         -0.11276        -1.83378
  H        -1.90209         -0.88284        -0.61504
  H        -1.87450          0.87427        -0.44685
9
 step=         586     theta[rad]=           6.1366
  C        -0.02069          0.00374         0.02976
  C         0.02012         -0.00004         1.34904
  H         0.90068         -0.00244        -0.53739
  H         0.94880          0.00159         1.89367
  H        -0.88027         -0.00021         1.94238
  C        -1.28922          0.00938        -0.76728
  H        -1.08254         -0.14387        -1.83378
  H        -1.90590         -0.88402        -0.63825
  H        -1.87069          0.87309        -0.42364
9
 step=         587     theta[rad]=           6.1470
  C        -0.02069          0.00442         0.02976
  C         0.02012         -0.00005         1.34904
  H         0.90068         -0.00288        -0.53739
  H         0.94880          0.00188         1.89367
  H        -0.88027         -0.00024         1.94238
  C        -1.28922          0.01108        -0.76728
  H        -1.08254         -0.17002        -1.83378
  H        -1.90909         -0.88501        -0.65775
  H        -1.86749          0.87209        -0.40414
9
 step=         588     theta[rad]=           6.1575
  C        -0.02069          0.00498         0.02976
  C         0.02012         -0.00005         1.34904
  H         0.90068         -0.00324        -0.53739
  H         0.94880          0.00212         1.89367
  H        -0.88027         -0.00028         1.94238
  C        -1.28922          0.01247        -0.76728
  H        -1.08254         -0.19137        -1.83378
  H        -1.91171         -0.88583        -0.67367
  H        -1.86488          0.87128        -0.38821
9
 step=         589     theta[rad]=           6.1680
  C        -0.02069          0.00542         0.02976
  C         0.02012         -0.00006         1.34904
  H         0.90068         -0.00353        -0.53739
  H         0.94880          0.00231         1.89367
  H        -0.88027         -0.00030         1.94238
  C        -1.28922          0.01357        -0.76728
  H        -1.08254         -0.20830        -1.83378
  H        -1.91378         -0.88647        -0.68630
  H        -1.86281          0.87064        -0.37559
9
 step=         590     theta[rad]=           6.1785
  C        -0.02069          0.00576         0.02976
  C         0.02012         -0.00006         1.34904
  H         0.90068         -0.00375        -0.53739
  H         0.94880          0.00245         1.89367
  H        -0.88027         -0.00032         1.94238
  C        -1.28922          0.01442        -0.76728
  H        -1.08254         -0.22129        -1.83378
  H        -1.91537         -0.88696        -0.69599
  H        -1.86122          0.87014        -0.36589
9
 step=         591     theta[rad]=           6.1889
  C        -0.02069          0.00601         0.02976
  C         0.02012         -0.00006         1.34904
  H         0.90068         -0.00391        -0.53739
  H         0.94880          0.00256         1.89367
  H        -0.88027         -0.00033         1.94238
  C        -1.28922          0.01505        -0.76728
  H        -1.08254         -0.23092        -1.83378
  H        -1.91655         -0.88733        -0.70317
  H        -1.86004          0.86978        -0.35871
9
 step=         592     theta[rad]=           6.1994
  C        -0.02069          0.00619         0.02976
  C         0.02012         -0.00006         1.34904
  H         0.90068         -0.00403        -0.53739
  H         0.94880          0.00263         1.89367
  H        -0.88027         -0.00034         1.94238
  C        -1.28922          0.01549        -0.76728
  H        -1.08254         -0.23776        -1.83378
  H        -1.91738         -0.88759        -0.70827
  H        -1.85920          0.86952        -0.35361
9
 step=         593     theta[rad]=           6.2099
  C        -0.02069          0.00631         0.02976
  C         0.02012         -0.00007         1.34904
  H         0.90068         -0.00411        -0.53739
  H         0.94880          0.00268         1.89367
  H        -0.88027         -0.00035         1.94238
  C        -1.28922          0.01580        -0.76728
  H        -1.08254         -0.24238        -1.83378
  H        -1.91795         -0.88776        -0.71172
  H        -1.85864          0.86934        -0.35017
9
 step=         594     theta[rad]=           6.2204
  C        -0.02069          0.00638         0.02976
  C         0.02012         -0.00007         1.34904
  H         0.90068         -0.00416        -0.53739
  H         0.94880          0.00272         1.89367
  H        -0.88027         -0.00035         1.94238
  C        -1.28922          0.01599        -0.76728
  H        -1.08254         -0.24531        -1.83378
  H        -1.91831         -0.88787        -0.71390
  H        -1.85828          0.86923        -0.34798
9
 step=         595     theta[rad]=           6.2308
  C        -0.02069          0.00643         0.02976
  C         0.02012         -0.00007         1.34904
  H         0.90068         -0.00418        -0.53739
  H         0.94880          0.00274         1.89367
  H        -0.88027         -0.00036         1.94238
  C        -1.28922          0.01610        -0.76728
  H        -1.08254         -0.24700        -1.83378
  H        -1.91851         -0.88794        -0.71517
  H        -1.85807          0.86917        -0.34672
9
 step=         596     theta[rad]=           6.2413
  C        -0.02069          0.00645         0.02976
  C         0.02012         -0.00007         1.34904
  H         0.90068         -0.00420        -0.53739
  H         0.94880          0.00274         1.89367
  H        -0.88027         -0.00036         1.94238
  C        -1.28922          0.01615        -0.76728
  H        -1.08254         -0.24787        -1.83378
  H        -1.91862         -0.88797        -0.71582
  H        -1.85797          0.86913        -0.34607
9
 step=         597     theta[rad]=           6.2518
  C        -0.02069          0.00646         0.02976
  C         0.02012         -0.00007         1.34904
  H         0.90068         -0.00421        -0.53739
  H         0.94880          0.00275         1.89367
  H        -0.88027         -0.00036         1.94238
  C        -1.28922          0.01618        -0.76728
  H        -1.08254         -0.24824        -1.83378
  H        -1.91866         -0.88799        -0.71609
  H        -1.85792          0.86912        -0.34580
9
 step=         598     theta[rad]=           6.2622
  C        -0.02069          0.00646         0.02976
  C         0.02012         -0.00007         1.34904
  H         0.90068         -0.00421        -0.53739
  H         0.94880          0.00275         1.89367
  H        -0.88027         -0.00036         1.94238
  C        -1.28922          0.01618        -0.76728
  H        -1.08254         -0.24835        -1.83378
  H        -1.91868         -0.88799        -0.71617
  H        -1.85791          0.86912        -0.34571
9
 step=         599     theta[rad]=           6.2727
  C        -0.02069          0.00646         0.02976
  C         0.02012         -0.00007         1.34904
  H         0.90068         -0.00421        -0.53739
  H         0.94880          0.00275         1.89367
  H        -0.88027         -0.00036         1.94238
  C        -1.28922          0.01619        -0.76728
  H        -1.08254         -0.24836        -1.83378
  H        -1.91868         -0.88799        -0.71618
  H        -1.85791          0.86912        -0.34570
9
 step=         600     theta[rad]=           6.2832
  C        -0.02069          0.00646         0.02976
  C         0.02012         -0.00007         1.34904
  H         0.90068         -0.00421        -0.53739
  H         0.94880          0.00275         1.89367
  H        -0.88027         -0.00036         1.94238
  C        -1.28922          0.01619        -0.76728
  H        -1.08254         -0.24836        -1.83378
  H        -1.91868         -0.88799        -0.71618
  H        -1.85791          0.86912        -0.34570
