9
 step=           0     theta[rad]=           0.0000
  C        -0.01696         -0.00000         0.02929
  C         0.02261          0.00000         1.32509
  H         0.85689         -0.00000        -0.51187
  H         1.14549         -0.00000         2.00930
  H        -1.10732          0.00000         2.09309
  C        -1.28913         -0.00000        -0.76767
  H        -1.08283          0.00000        -1.83021
  H        -1.88861         -0.87894        -0.53090
  H        -1.88861          0.87894        -0.53090
9
 step=           1     theta[rad]=           0.0105
  C        -0.01696         -0.00000         0.02929
  C         0.02261          0.00000         1.32509
  H         0.85689         -0.00000        -0.51187
  H         1.14548         -0.00000         2.00929
  H        -1.10731          0.00000         2.09308
  C        -1.28913         -0.00000        -0.76767
  H        -1.08283          0.00000        -1.83021
  H        -1.88861         -0.87894        -0.53090
  H        -1.88861          0.87894        -0.53090
9
 step=           2     theta[rad]=           0.0209
  C        -0.01696         -0.00000         0.02929
  C         0.02261          0.00000         1.32510
  H         0.85691         -0.00000        -0.51188
  H         1.14539         -0.00000         2.00924
  H        -1.10721          0.00000         2.09302
  C        -1.28913         -0.00000        -0.76767
  H        -1.08283          0.00000        -1.83021
  H        -1.88861         -0.87894        -0.53090
  H        -1.88861          0.87894        -0.53090
9
 step=           3     theta[rad]=           0.0314
  C        -0.01697         -0.00000         0.02929
  C         0.02260          0.00000         1.32514
  H         0.85698         -0.00000        -0.51192
  H         1.14510         -0.00000         2.00907
  H        -1.10687          0.00000         2.09279
  C        -1.28913         -0.00000        -0.76767
  H        -1.08283          0.00000        -1.83021
  H        -1.88861         -0.87894        -0.53090
  H        -1.88861          0.87894        -0.53090
9
 step=           4     theta[rad]=           0.0419
  C        -0.01698         -0.00000         0.02929
  C         0.02259          0.00000         1.32522
  H         0.85713         -0.00000        -0.51201
  H         1.14441         -0.00000         2.00866
  H        -1.10608          0.00000         2.09226
  C        -1.28913         -0.00000        -0.76767
  H        -1.08282          0.00000        -1.83023
  H        -1.88861         -0.87894        -0.53090
  H        -1.88861          0.87894        -0.53090
9
 step=           5     theta[rad]=           0.0524
  C        -0.01701         -0.00000         0.02929
  C         0.02258          0.00000         1.32539
  H         0.85743         -0.00000        -0.51219
  H         1.14307         -0.00000         2.00787
  H        -1.10453          0.00000         2.09123
  C        -1.28913         -0.00000        -0.76767
  H        -1.08282          0.00000        -1.83025
  H        -1.88861         -0.87894        -0.53090
  H        -1.88861          0.87894        -0.53090
9
 step=           6     theta[rad]=           0.0628
  C        -0.01705         -0.00000         0.02930
  C         0.02255          0.00000         1.32567
  H         0.85794         -0.00000        -0.51249
  H         1.14075         -0.00000         2.00651
  H        -1.10185          0.00000         2.08946
  C        -1.28914         -0.00000        -0.76766
  H        -1.08282          0.00000        -1.83029
  H        -1.88861         -0.87893        -0.53090
  H        -1.88861          0.87893        -0.53090
9
 step=           7     theta[rad]=           0.0733
  C        -0.01712         -0.00000         0.02931
  C         0.02250          0.00000         1.32611
  H         0.85876         -0.00000        -0.51296
  H         1.13710         -0.00000         2.00436
  H        -1.09763          0.00000         2.08666
  C        -1.28914         -0.00000        -0.76766
  H        -1.08281          0.00000        -1.83036
  H        -1.88860         -0.87893        -0.53090
  H        -1.88860          0.87893        -0.53090
9
 step=           8     theta[rad]=           0.0838
  C        -0.01722         -0.00000         0.02932
  C         0.02243          0.00000         1.32677
  H         0.85996         -0.00000        -0.51366
  H         1.13168         -0.00000         2.00118
  H        -1.09138          0.00000         2.08251
  C        -1.28914         -0.00000        -0.76764
  H        -1.08281          0.00000        -1.83046
  H        -1.88859         -0.87891        -0.53090
  H        -1.88859          0.87891        -0.53090
9
 step=           9     theta[rad]=           0.0942
  C        -0.01737         -0.00000         0.02934
  C         0.02234          0.00000         1.32770
  H         0.86166         -0.00000        -0.51465
  H         1.12405         -0.00000         1.99669
  H        -1.08257          0.00000         2.07666
  C        -1.28914         -0.00000        -0.76763
  H        -1.08279          0.00000        -1.83060
  H        -1.88858         -0.87890        -0.53091
  H        -1.88858          0.87890        -0.53091
9
 step=          10     theta[rad]=           0.1047
  C        -0.01756         -0.00000         0.02936
  C         0.02221          0.00000         1.32896
  H         0.86395         -0.00000        -0.51599
  H         1.11376         -0.00000         1.99064
  H        -1.07069          0.00000         2.06878
  C        -1.28915         -0.00000        -0.76761
  H        -1.08278          0.00000        -1.83078
  H        -1.88856         -0.87888        -0.53091
  H        -1.88856          0.87888        -0.53091
9
 step=          11     theta[rad]=           0.1152
  C        -0.01782         -0.00000         0.02940
  C         0.02204          0.00000         1.33059
  H         0.86694         -0.00000        -0.51773
  H         1.10035         -0.00000         1.98276
  H        -1.05522          0.00000         2.05850
  C        -1.28915         -0.00000        -0.76758
  H        -1.08276          0.00000        -1.83103
  H        -1.88854         -0.87885        -0.53091
  H        -1.88854          0.87885        -0.53091
9
 step=          12     theta[rad]=           0.1257
  C        -0.01814         -0.00000         0.02944
  C         0.02182          0.00000         1.33265
  H         0.87070         -0.00000        -0.51992
  H         1.08344         -0.00000         1.97282
  H        -1.03570          0.00000         2.04555
  C        -1.28916         -0.00000        -0.76755
  H        -1.08273          0.00000        -1.83133
  H        -1.88851         -0.87882        -0.53091
  H        -1.88851          0.87882        -0.53091
9
 step=          13     theta[rad]=           0.1361
  C        -0.01853         -0.00000         0.02949
  C         0.02156          0.00000         1.33517
  H         0.87531         -0.00000        -0.52261
  H         1.06274         -0.00000         1.96065
  H        -1.01180          0.00000         2.02968
  C        -1.28917         -0.00000        -0.76751
  H        -1.08270          0.00000        -1.83171
  H        -1.88848         -0.87878        -0.53092
  H        -1.88848          0.87878        -0.53092
9
 step=          14     theta[rad]=           0.1466
  C        -0.01900         -0.00000         0.02954
  C         0.02125          0.00000         1.33817
  H         0.88080         -0.00000        -0.52581
  H         1.03810         -0.00000         1.94616
  H        -0.98335          0.00000         2.01080
  C        -1.28918         -0.00000        -0.76746
  H        -1.08267          0.00000        -1.83216
  H        -1.88844         -0.87873        -0.53092
  H        -1.88844          0.87873        -0.53092
9
 step=          15     theta[rad]=           0.1571
  C        -0.01954         -0.00000         0.02961
  C         0.02089          0.00000         1.34164
  H         0.88715         -0.00000        -0.52951
  H         1.00958         -0.00000         1.92940
  H        -0.95043          0.00000         1.98895
  C        -1.28919         -0.00000        -0.76740
  H        -1.08263          0.00000        -1.83268
  H        -1.88839         -0.87867        -0.53093
  H        -1.88839          0.87867        -0.53093
9
 step=          16     theta[rad]=           0.1676
  C        -0.02014         -0.00000         0.02969
  C         0.02048          0.00000         1.34554
  H         0.89428         -0.00000        -0.53366
  H         0.97753         -0.00000         1.91056
  H        -0.91344          0.00000         1.96440
  C        -1.28921         -0.00000        -0.76734
  H        -1.08258          0.00000        -1.83326
  H        -1.88834         -0.87861        -0.53094
  H        -1.88834          0.87861        -0.53094
9
 step=          17     theta[rad]=           0.1780
  C        -0.02081         -0.00000         0.02977
  C         0.02004          0.00000         1.34979
  H         0.90205         -0.00000        -0.53819
  H         0.94262         -0.00000         1.89003
  H        -0.87313          0.00000         1.93765
  C        -1.28922         -0.00000        -0.76727
  H        -1.08253          0.00000        -1.83389
  H        -1.88828         -0.87854        -0.53094
  H        -1.88828          0.87854        -0.53094
9
 step=          18     theta[rad]=           0.1885
  C        -0.02150         -0.00000         0.02986
  C         0.01958          0.00000         1.35426
  H         0.91023         -0.00000        -0.54296
  H         0.90589         -0.00000         1.86844
  H        -0.83074          0.00000         1.90951
  C        -1.28924         -0.00000        -0.76720
  H        -1.08247          0.00000        -1.83456
  H        -1.88822         -0.87847        -0.53095
  H        -1.88822          0.87847        -0.53095
9
 step=          19     theta[rad]=           0.1990
  C        -0.02221         -0.00000         0.02995
  C         0.01911          0.00000         1.35877
  H         0.91849         -0.00000        -0.54777
  H         0.86880         -0.00000         1.84663
  H        -0.78791          0.00000         1.88108
  C        -1.28925         -0.00000        -0.76713
  H        -1.08242          0.00000        -1.83523
  H        -1.88816         -0.87840        -0.53096
  H        -1.88816          0.87840        -0.53096
9
 step=          20     theta[rad]=           0.2094
  C        -0.02288         -0.00000         0.03003
  C         0.01866          0.00000         1.36311
  H         0.92641         -0.00000        -0.55239
  H         0.83319         -0.00000         1.82570
  H        -0.74681          0.00000         1.85380
  C        -1.28927         -0.00000        -0.76706
  H        -1.08237          0.00000        -1.83588
  H        -1.88811         -0.87833        -0.53097
  H        -1.88811          0.87833        -0.53097
9
 step=          21     theta[rad]=           0.2199
  C        -0.02349         -0.00000         0.03011
  C         0.01826          0.00000         1.36700
  H         0.93352         -0.00000        -0.55653
  H         0.80126         -0.00000         1.80693
  H        -0.70995          0.00000         1.82933
  C        -1.28928         -0.00000        -0.76699
  H        -1.08232          0.00000        -1.83646
  H        -1.88805         -0.87826        -0.53097
  H        -1.88805          0.87826        -0.53097
9
 step=          22     theta[rad]=           0.2304
  C        -0.02398         -0.00000         0.03017
  C         0.01793          0.00000         1.37014
  H         0.93927         -0.00000        -0.55988
  H         0.77546         -0.00000         1.79176
  H        -0.68016          0.00000         1.80956
  C        -1.28929         -0.00000        -0.76694
  H        -1.08228          0.00000        -1.83693
  H        -1.88801         -0.87821        -0.53098
  H        -1.88801          0.87821        -0.53098
9
 step=          23     theta[rad]=           0.2409
  C        -0.02430         -0.00000         0.03021
  C         0.01771          0.00000         1.37223
  H         0.94309         -0.00000        -0.56211
  H         0.75829         -0.00000         1.78167
  H        -0.66035          0.00000         1.79641
  C        -1.28930         -0.00000        -0.76691
  H        -1.08226          0.00000        -1.83724
  H        -1.88798         -0.87818        -0.53098
  H        -1.88798          0.87818        -0.53098
9
 step=          24     theta[rad]=           0.2513
  C        -0.02442         -0.00000         0.03023
  C         0.01763          0.00000         1.37298
  H         0.94446         -0.00000        -0.56291
  H         0.75211         -0.00000         1.77803
  H        -0.65321          0.00000         1.79167
  C        -1.28930         -0.00000        -0.76690
  H        -1.08225          0.00000        -1.83735
  H        -1.88797         -0.87817        -0.53098
  H        -1.88797          0.87817        -0.53098
9
 step=          25     theta[rad]=           0.2618
  C        -0.02429         -0.00000         0.03021
  C         0.01772          0.00000         1.37216
  H         0.94297         -0.00000        -0.56204
  H         0.75881         -0.00000         1.78197
  H        -0.66095          0.00000         1.79681
  C        -1.28930         -0.00000        -0.76691
  H        -1.08226          0.00000        -1.83723
  H        -1.88798         -0.87818        -0.53098
  H        -1.88798          0.87818        -0.53098
9
 step=          26     theta[rad]=           0.2723
  C        -0.02390         -0.00000         0.03016
  C         0.01798          0.00000         1.36964
  H         0.93837         -0.00000        -0.55936
  H         0.77950         -0.00000         1.79414
  H        -0.68483          0.00000         1.81266
  C        -1.28929         -0.00000        -0.76695
  H        -1.08229          0.00000        -1.83686
  H        -1.88802         -0.87822        -0.53098
  H        -1.88802          0.87822        -0.53098
9
 step=          27     theta[rad]=           0.2827
  C        -0.02324         -0.00000         0.03008
  C         0.01842          0.00000         1.36543
  H         0.93065         -0.00000        -0.55486
  H         0.81416         -0.00000         1.81451
  H        -0.72484          0.00000         1.83922
  C        -1.28928         -0.00000        -0.76702
  H        -1.08234          0.00000        -1.83623
  H        -1.88807         -0.87829        -0.53097
  H        -1.88807          0.87829        -0.53097
9
 step=          28     theta[rad]=           0.2932
  C        -0.02235         -0.00000         0.02997
  C         0.01902          0.00000         1.35968
  H         0.92015         -0.00000        -0.54874
  H         0.86135         -0.00000         1.84225
  H        -0.77931          0.00000         1.87537
  C        -1.28926         -0.00000        -0.76711
  H        -1.08241          0.00000        -1.83537
  H        -1.88815         -0.87838        -0.53096
  H        -1.88815          0.87838        -0.53096
9
 step=          29     theta[rad]=           0.3037
  C        -0.02127         -0.00000         0.02983
  C         0.01973          0.00000         1.35278
  H         0.90753         -0.00000        -0.54138
  H         0.91803         -0.00000         1.87558
  H        -0.84475          0.00000         1.91881
  C        -1.28923         -0.00000        -0.76722
  H        -1.08249          0.00000        -1.83434
  H        -1.88824         -0.87849        -0.53095
  H        -1.88824          0.87849        -0.53095
9
 step=          30     theta[rad]=           0.3142
  C        -0.02011         -0.00000         0.02968
  C         0.02051          0.00000         1.34529
  H         0.89383         -0.00000        -0.53340
  H         0.97957         -0.00000         1.91175
  H        -0.91579          0.00000         1.96596
  C        -1.28920         -0.00000        -0.76734
  H        -1.08258          0.00000        -1.83322
  H        -1.88834         -0.87861        -0.53094
  H        -1.88834          0.87861        -0.53094
9
 step=          31     theta[rad]=           0.3246
  C        -0.01896         -0.00000         0.02954
  C         0.02127          0.00000         1.33794
  H         0.88039         -0.00000        -0.52557
  H         1.03993         -0.00000         1.94724
  H        -0.98546          0.00000         2.01220
  C        -1.28918         -0.00000        -0.76746
  H        -1.08267          0.00000        -1.83213
  H        -1.88844         -0.87873        -0.53092
  H        -1.88844          0.87873        -0.53092
9
 step=          32     theta[rad]=           0.3351
  C        -0.01797         -0.00000         0.02942
  C         0.02193          0.00000         1.33158
  H         0.86876         -0.00000        -0.51879
  H         1.09218         -0.00000         1.97796
  H        -1.04578          0.00000         2.05224
  C        -1.28916         -0.00000        -0.76757
  H        -1.08275          0.00000        -1.83118
  H        -1.88853         -0.87884        -0.53091
  H        -1.88853          0.87884        -0.53091
9
 step=          33     theta[rad]=           0.3456
  C        -0.01727         -0.00000         0.02933
  C         0.02240          0.00000         1.32706
  H         0.86049         -0.00000        -0.51397
  H         1.12931         -0.00000         1.99979
  H        -1.08865          0.00000         2.08069
  C        -1.28914         -0.00000        -0.76764
  H        -1.08280          0.00000        -1.83050
  H        -1.88859         -0.87891        -0.53091
  H        -1.88859          0.87891        -0.53091
9
 step=          34     theta[rad]=           0.3560
  C        -0.01696         -0.00000         0.02929
  C         0.02260          0.00000         1.32513
  H         0.85695         -0.00000        -0.51191
  H         1.14522         -0.00000         2.00914
  H        -1.10701          0.00000         2.09288
  C        -1.28913         -0.00000        -0.76767
  H        -1.08283          0.00000        -1.83021
  H        -1.88861         -0.87894        -0.53090
  H        -1.88861          0.87894        -0.53090
9
 step=          35     theta[rad]=           0.3665
  C        -0.01714         -0.00000         0.02931
  C         0.02249          0.00000         1.32626
  H         0.85903         -0.00000        -0.51312
  H         1.13586         -0.00000         2.00364
  H        -1.09621          0.00000         2.08571
  C        -1.28914         -0.00000        -0.76765
  H        -1.08281          0.00000        -1.83038
  H        -1.88860         -0.87892        -0.53090
  H        -1.88860          0.87892        -0.53090
9
 step=          36     theta[rad]=           0.3770
  C        -0.01782         -0.00000         0.02940
  C         0.02204          0.00000         1.33059
  H         0.86694         -0.00000        -0.51773
  H         1.10035         -0.00000         1.98276
  H        -1.05522          0.00000         2.05850
  C        -1.28915         -0.00000        -0.76758
  H        -1.08276          0.00000        -1.83103
  H        -1.88854         -0.87885        -0.53091
  H        -1.88854          0.87885        -0.53091
9
 step=          37     theta[rad]=           0.3875
  C        -0.01893         -0.00000         0.02954
  C         0.02130          0.00000         1.33772
  H         0.87999         -0.00000        -0.52533
  H         1.04175         -0.00000         1.94831
  H        -0.98756          0.00000         2.01360
  C        -1.28918         -0.00000        -0.76747
  H        -1.08267          0.00000        -1.83209
  H        -1.88844         -0.87874        -0.53092
  H        -1.88844          0.87874        -0.53092
9
 step=          38     theta[rad]=           0.3979
  C        -0.02034         -0.00000         0.02971
  C         0.02036          0.00000         1.34678
  H         0.89656         -0.00000        -0.53499
  H         0.96731         -0.00000         1.90455
  H        -0.90163          0.00000         1.95656
  C        -1.28921         -0.00000        -0.76732
  H        -1.08256          0.00000        -1.83344
  H        -1.88832         -0.87859        -0.53094
  H        -1.88832          0.87859        -0.53094
9
 step=          39     theta[rad]=           0.4084
  C        -0.02184         -0.00000         0.02990
  C         0.01935          0.00000         1.35643
  H         0.91421         -0.00000        -0.54528
  H         0.88802         -0.00000         1.85793
  H        -0.81010          0.00000         1.89581
  C        -1.28924         -0.00000        -0.76716
  H        -1.08245          0.00000        -1.83488
  H        -1.88819         -0.87843        -0.53096
  H        -1.88819          0.87843        -0.53096
9
 step=          40     theta[rad]=           0.4189
  C        -0.02318         -0.00000         0.03007
  C         0.01846          0.00000         1.36506
  H         0.92998         -0.00000        -0.55447
  H         0.81719         -0.00000         1.81629
  H        -0.72834          0.00000         1.84154
  C        -1.28928         -0.00000        -0.76702
  H        -1.08234          0.00000        -1.83617
  H        -1.88808         -0.87829        -0.53097
  H        -1.88808          0.87829        -0.53097
9
 step=          41     theta[rad]=           0.4294
  C        -0.02411         -0.00000         0.03019
  C         0.01784          0.00000         1.37101
  H         0.94086         -0.00000        -0.56081
  H         0.76829         -0.00000         1.78754
  H        -0.67189          0.00000         1.80407
  C        -1.28930         -0.00000        -0.76693
  H        -1.08227          0.00000        -1.83706
  H        -1.88800         -0.87820        -0.53098
  H        -1.88800          0.87820        -0.53098
9
 step=          42     theta[rad]=           0.4398
  C        -0.02442         -0.00000         0.03023
  C         0.01764          0.00000         1.37297
  H         0.94444         -0.00000        -0.56290
  H         0.75221         -0.00000         1.77809
  H        -0.65332          0.00000         1.79175
  C        -1.28930         -0.00000        -0.76690
  H        -1.08225          0.00000        -1.83735
  H        -1.88797         -0.87817        -0.53098
  H        -1.88797          0.87817        -0.53098
9
 step=          43     theta[rad]=           0.4503
  C        -0.02399         -0.00000         0.03017
  C         0.01792          0.00000         1.37025
  H         0.93948         -0.00000        -0.56001
  H         0.77449         -0.00000         1.79119
  H        -0.67905          0.00000         1.80882
  C        -1.28929         -0.00000        -0.76694
  H        -1.08228          0.00000        -1.83695
  H        -1.88801         -0.87821        -0.53098
  H        -1.88801          0.87821        -0.53098
9
 step=          44     theta[rad]=           0.4608
  C        -0.02288         -0.00000         0.03003
  C         0.01866          0.00000         1.36311
  H         0.92641         -0.00000        -0.55239
  H         0.83319         -0.00000         1.82570
  H        -0.74681          0.00000         1.85380
  C        -1.28927         -0.00000        -0.76706
  H        -1.08237          0.00000        -1.83588
  H        -1.88811         -0.87833        -0.53097
  H        -1.88811          0.87833        -0.53097
9
 step=          45     theta[rad]=           0.4712
  C        -0.02127         -0.00000         0.02983
  C         0.01973          0.00000         1.35278
  H         0.90753         -0.00000        -0.54138
  H         0.91803         -0.00000         1.87558
  H        -0.84475          0.00000         1.91881
  C        -1.28923         -0.00000        -0.76722
  H        -1.08249          0.00000        -1.83434
  H        -1.88824         -0.87849        -0.53095
  H        -1.88824          0.87849        -0.53095
9
 step=          46     theta[rad]=           0.4817
  C        -0.01950         -0.00000         0.02961
  C         0.02091          0.00000         1.34140
  H         0.88671         -0.00000        -0.52925
  H         1.01154         -0.00000         1.93055
  H        -0.95269          0.00000         1.99045
  C        -1.28919         -0.00000        -0.76741
  H        -1.08263          0.00000        -1.83264
  H        -1.88840         -0.87868        -0.53093
  H        -1.88840          0.87868        -0.53093
9
 step=          47     theta[rad]=           0.4922
  C        -0.01797         -0.00000         0.02942
  C         0.02193          0.00000         1.33158
  H         0.86876         -0.00000        -0.51879
  H         1.09218         -0.00000         1.97796
  H        -1.04578          0.00000         2.05224
  C        -1.28916         -0.00000        -0.76757
  H        -1.08275          0.00000        -1.83118
  H        -1.88853         -0.87884        -0.53091
  H        -1.88853          0.87884        -0.53091
9
 step=          48     theta[rad]=           0.5027
  C        -0.01708         -0.00000         0.02930
  C         0.02253          0.00000         1.32584
  H         0.85827         -0.00000        -0.51267
  H         1.13931         -0.00000         2.00566
  H        -1.10019          0.00000         2.08836
  C        -1.28914         -0.00000        -0.76766
  H        -1.08282          0.00000        -1.83032
  H        -1.88860         -0.87893        -0.53090
  H        -1.88860          0.87893        -0.53090
9
 step=          49     theta[rad]=           0.5131
  C        -0.01709         -0.00000         0.02930
  C         0.02252          0.00000         1.32591
  H         0.85838         -0.00000        -0.51274
  H         1.13879         -0.00000         2.00536
  H        -1.09958          0.00000         2.08795
  C        -1.28914         -0.00000        -0.76766
  H        -1.08282          0.00000        -1.83033
  H        -1.88860         -0.87893        -0.53090
  H        -1.88860          0.87893        -0.53090
9
 step=          50     theta[rad]=           0.5236
  C        -0.01805         -0.00000         0.02943
  C         0.02188          0.00000         1.33211
  H         0.86971         -0.00000        -0.51935
  H         1.08788         -0.00000         1.97543
  H        -1.04082          0.00000         2.04895
  C        -1.28916         -0.00000        -0.76756
  H        -1.08274          0.00000        -1.83125
  H        -1.88852         -0.87883        -0.53091
  H        -1.88852          0.87883        -0.53091
9
 step=          51     theta[rad]=           0.5341
  C        -0.01976         -0.00000         0.02964
  C         0.02074          0.00000         1.34308
  H         0.88979         -0.00000        -0.53104
  H         0.99772         -0.00000         1.92242
  H        -0.93673          0.00000         1.97986
  C        -1.28920         -0.00000        -0.76738
  H        -1.08261          0.00000        -1.83289
  H        -1.88837         -0.87865        -0.53093
  H        -1.88837          0.87865        -0.53093
9
 step=          52     theta[rad]=           0.5445
  C        -0.02177         -0.00000         0.02989
  C         0.01940          0.00000         1.35596
  H         0.91333         -0.00000        -0.54477
  H         0.89195         -0.00000         1.86024
  H        -0.81464          0.00000         1.89882
  C        -1.28924         -0.00000        -0.76717
  H        -1.08245          0.00000        -1.83481
  H        -1.88820         -0.87844        -0.53095
  H        -1.88820          0.87844        -0.53095
9
 step=          53     theta[rad]=           0.5550
  C        -0.02349         -0.00000         0.03011
  C         0.01826          0.00000         1.36700
  H         0.93352         -0.00000        -0.55653
  H         0.80126         -0.00000         1.80693
  H        -0.70995          0.00000         1.82933
  C        -1.28928         -0.00000        -0.76699
  H        -1.08232          0.00000        -1.83646
  H        -1.88805         -0.87826        -0.53097
  H        -1.88805          0.87826        -0.53097
9
 step=          54     theta[rad]=           0.5655
  C        -0.02437         -0.00000         0.03022
  C         0.01767          0.00000         1.37268
  H         0.94393         -0.00000        -0.56260
  H         0.75453         -0.00000         1.77946
  H        -0.65601          0.00000         1.79353
  C        -1.28930         -0.00000        -0.76690
  H        -1.08225          0.00000        -1.83731
  H        -1.88798         -0.87817        -0.53098
  H        -1.88798          0.87817        -0.53098
9
 step=          55     theta[rad]=           0.5760
  C        -0.02410         -0.00000         0.03019
  C         0.01785          0.00000         1.37091
  H         0.94068         -0.00000        -0.56070
  H         0.76912         -0.00000         1.78803
  H        -0.67284          0.00000         1.80470
  C        -1.28930         -0.00000        -0.76693
  H        -1.08227          0.00000        -1.83705
  H        -1.88800         -0.87820        -0.53098
  H        -1.88800          0.87820        -0.53098
9
 step=          56     theta[rad]=           0.5864
  C        -0.02269         -0.00000         0.03001
  C         0.01879          0.00000         1.36187
  H         0.92414         -0.00000        -0.55107
  H         0.84341         -0.00000         1.83171
  H        -0.75860          0.00000         1.86163
  C        -1.28926         -0.00000        -0.76708
  H        -1.08238          0.00000        -1.83570
  H        -1.88812         -0.87835        -0.53096
  H        -1.88812          0.87835        -0.53096
9
 step=          57     theta[rad]=           0.5969
  C        -0.02057         -0.00000         0.02974
  C         0.02020          0.00000         1.34828
  H         0.89930         -0.00000        -0.53659
  H         0.95498         -0.00000         1.89730
  H        -0.88740          0.00000         1.94712
  C        -1.28922         -0.00000        -0.76730
  H        -1.08255          0.00000        -1.83367
  H        -1.88830         -0.87857        -0.53094
  H        -1.88830          0.87857        -0.53094
9
 step=          58     theta[rad]=           0.6074
  C        -0.01847         -0.00000         0.02948
  C         0.02160          0.00000         1.33476
  H         0.87457         -0.00000        -0.52218
  H         1.06607         -0.00000         1.96261
  H        -1.01564          0.00000         2.03224
  C        -1.28917         -0.00000        -0.76752
  H        -1.08271          0.00000        -1.83165
  H        -1.88848         -0.87879        -0.53092
  H        -1.88848          0.87878        -0.53092
9
 step=          59     theta[rad]=           0.6178
  C        -0.01714         -0.00000         0.02931
  C         0.02249          0.00000         1.32626
  H         0.85903         -0.00000        -0.51312
  H         1.13586         -0.00000         2.00364
  H        -1.09621          0.00000         2.08571
  C        -1.28914         -0.00000        -0.76765
  H        -1.08281          0.00000        -1.83038
  H        -1.88860         -0.87892        -0.53090
  H        -1.88860          0.87892        -0.53090
9
 step=          60     theta[rad]=           0.6283
  C        -0.01714         -0.00000         0.02931
  C         0.02249          0.00000         1.32626
  H         0.85903         -0.00000        -0.51312
  H         1.13586         -0.00000         2.00364
  H        -1.09621          0.00000         2.08571
  C        -1.28914         -0.00000        -0.76765
  H        -1.08281          0.00000        -1.83038
  H        -1.88860         -0.87892        -0.53090
  H        -1.88860          0.87892        -0.53090
9
 step=          61     theta[rad]=           0.6388
  C        -0.01853         -0.00000         0.02949
  C         0.02156          0.00000         1.33517
  H         0.87531         -0.00000        -0.52261
  H         1.06274         -0.00000         1.96065
  H        -1.01180          0.00000         2.02968
  C        -1.28917         -0.00000        -0.76751
  H        -1.08270          0.00000        -1.83171
  H        -1.88848         -0.87878        -0.53092
  H        -1.88848          0.87878        -0.53092
9
 step=          62     theta[rad]=           0.6493
  C        -0.02081         -0.00000         0.02977
  C         0.02004          0.00000         1.34979
  H         0.90205         -0.00000        -0.53819
  H         0.94262         -0.00000         1.89003
  H        -0.87313          0.00000         1.93765
  C        -1.28922         -0.00000        -0.76727
  H        -1.08253          0.00000        -1.83389
  H        -1.88828         -0.87854        -0.53094
  H        -1.88828          0.87854        -0.53094
9
 step=          63     theta[rad]=           0.6597
  C        -0.02307         -0.00000         0.03006
  C         0.01854          0.00000         1.36430
  H         0.92859         -0.00000        -0.55366
  H         0.82343         -0.00000         1.81996
  H        -0.73554          0.00000         1.84632
  C        -1.28927         -0.00000        -0.76704
  H        -1.08235          0.00000        -1.83606
  H        -1.88809         -0.87831        -0.53097
  H        -1.88809          0.87831        -0.53097
9
 step=          64     theta[rad]=           0.6702
  C        -0.02434         -0.00000         0.03022
  C         0.01769          0.00000         1.37246
  H         0.94351         -0.00000        -0.56235
  H         0.75641         -0.00000         1.78056
  H        -0.65817          0.00000         1.79497
  C        -1.28930         -0.00000        -0.76690
  H        -1.08225          0.00000        -1.83728
  H        -1.88798         -0.87817        -0.53098
  H        -1.88798          0.87817        -0.53098
9
 step=          65     theta[rad]=           0.6807
  C        -0.02401         -0.00000         0.03017
  C         0.01791          0.00000         1.37037
  H         0.93969         -0.00000        -0.56013
  H         0.77355         -0.00000         1.79064
  H        -0.67796          0.00000         1.80810
  C        -1.28929         -0.00000        -0.76694
  H        -1.08228          0.00000        -1.83696
  H        -1.88801         -0.87821        -0.53098
  H        -1.88801          0.87821        -0.53098
9
 step=          66     theta[rad]=           0.6912
  C        -0.02217         -0.00000         0.02994
  C         0.01913          0.00000         1.35854
  H         0.91807         -0.00000        -0.54753
  H         0.87069         -0.00000         1.84774
  H        -0.79009          0.00000         1.88253
  C        -1.28925         -0.00000        -0.76713
  H        -1.08242          0.00000        -1.83520
  H        -1.88817         -0.87840        -0.53096
  H        -1.88817          0.87840        -0.53096
9
 step=          67     theta[rad]=           0.7016
  C        -0.01961         -0.00000         0.02962
  C         0.02084          0.00000         1.34212
  H         0.88802         -0.00000        -0.53002
  H         1.00565         -0.00000         1.92709
  H        -0.94589          0.00000         1.98594
  C        -1.28919         -0.00000        -0.76740
  H        -1.08262          0.00000        -1.83275
  H        -1.88839         -0.87867        -0.53093
  H        -1.88839          0.87867        -0.53093
9
 step=          68     theta[rad]=           0.7121
  C        -0.01754         -0.00000         0.02936
  C         0.02222          0.00000         1.32882
  H         0.86371         -0.00000        -0.51584
  H         1.11487         -0.00000         1.99130
  H        -1.07198          0.00000         2.06963
  C        -1.28915         -0.00000        -0.76761
  H        -1.08278          0.00000        -1.83076
  H        -1.88856         -0.87888        -0.53091
  H        -1.88856          0.87888        -0.53091
9
 step=          69     theta[rad]=           0.7226
  C        -0.01701         -0.00000         0.02929
  C         0.02258          0.00000         1.32539
  H         0.85743         -0.00000        -0.51219
  H         1.14307         -0.00000         2.00787
  H        -1.10453          0.00000         2.09123
  C        -1.28913         -0.00000        -0.76767
  H        -1.08282          0.00000        -1.83025
  H        -1.88861         -0.87894        -0.53090
  H        -1.88861          0.87894        -0.53090
9
 step=          70     theta[rad]=           0.7330
  C        -0.01834         -0.00000         0.02946
  C         0.02169          0.00000         1.33397
  H         0.87312         -0.00000        -0.52133
  H         1.07258         -0.00000         1.96643
  H        -1.02316          0.00000         2.03723
  C        -1.28916         -0.00000        -0.76753
  H        -1.08272          0.00000        -1.83153
  H        -1.88849         -0.87880        -0.53092
  H        -1.88849          0.87880        -0.53092
9
 step=          71     theta[rad]=           0.7435
  C        -0.02092         -0.00000         0.02979
  C         0.01997          0.00000         1.35054
  H         0.90343         -0.00000        -0.53899
  H         0.93645         -0.00000         1.88640
  H        -0.86601          0.00000         1.93292
  C        -1.28922         -0.00000        -0.76726
  H        -1.08252          0.00000        -1.83400
  H        -1.88827         -0.87853        -0.53095
  H        -1.88827          0.87853        -0.53095
9
 step=          72     theta[rad]=           0.7540
  C        -0.02341         -0.00000         0.03010
  C         0.01831          0.00000         1.36649
  H         0.93260         -0.00000        -0.55599
  H         0.80542         -0.00000         1.80937
  H        -0.71475          0.00000         1.83252
  C        -1.28928         -0.00000        -0.76700
  H        -1.08233          0.00000        -1.83639
  H        -1.88806         -0.87827        -0.53097
  H        -1.88806          0.87827        -0.53097
9
 step=          73     theta[rad]=           0.7645
  C        -0.02442         -0.00000         0.03023
  C         0.01763          0.00000         1.37298
  H         0.94446         -0.00000        -0.56291
  H         0.75212         -0.00000         1.77804
  H        -0.65322          0.00000         1.79168
  C        -1.28930         -0.00000        -0.76690
  H        -1.08225          0.00000        -1.83735
  H        -1.88797         -0.87817        -0.53098
  H        -1.88797          0.87817        -0.53098
9
 step=          74     theta[rad]=           0.7749
  C        -0.02333         -0.00000         0.03009
  C         0.01836          0.00000         1.36597
  H         0.93164         -0.00000        -0.55544
  H         0.80972         -0.00000         1.81190
  H        -0.71971          0.00000         1.83582
  C        -1.28928         -0.00000        -0.76701
  H        -1.08233          0.00000        -1.83631
  H        -1.88807         -0.87828        -0.53097
  H        -1.88807          0.87828        -0.53097
9
 step=          75     theta[rad]=           0.7854
  C        -0.02069         -0.00000         0.02976
  C         0.02012          0.00000         1.34904
  H         0.90068         -0.00000        -0.53739
  H         0.94880         -0.00000         1.89367
  H        -0.88027          0.00000         1.94238
  C        -1.28922         -0.00000        -0.76728
  H        -1.08254          0.00000        -1.83378
  H        -1.88829         -0.87855        -0.53094
  H        -1.88829          0.87855        -0.53094
9
 step=          76     theta[rad]=           0.7959
  C        -0.01802         -0.00000         0.02942
  C         0.02190          0.00000         1.33193
  H         0.86939         -0.00000        -0.51916
  H         1.08933         -0.00000         1.97628
  H        -1.04249          0.00000         2.05006
  C        -1.28916         -0.00000        -0.76756
  H        -1.08274          0.00000        -1.83123
  H        -1.88852         -0.87883        -0.53091
  H        -1.88852          0.87883        -0.53091
9
 step=          77     theta[rad]=           0.8063
  C        -0.01696         -0.00000         0.02929
  C         0.02261          0.00000         1.32510
  H         0.85691         -0.00000        -0.51188
  H         1.14539         -0.00000         2.00924
  H        -1.10721          0.00000         2.09302
  C        -1.28913         -0.00000        -0.76767
  H        -1.08283          0.00000        -1.83021
  H        -1.88861         -0.87894        -0.53090
  H        -1.88861          0.87894        -0.53090
9
 step=          78     theta[rad]=           0.8168
  C        -0.01822         -0.00000         0.02945
  C         0.02177          0.00000         1.33320
  H         0.87172         -0.00000        -0.52051
  H         1.07887         -0.00000         1.97013
  H        -1.03042          0.00000         2.04205
  C        -1.28916         -0.00000        -0.76754
  H        -1.08273          0.00000        -1.83142
  H        -1.88851         -0.87881        -0.53092
  H        -1.88851          0.87881        -0.53092
9
 step=          79     theta[rad]=           0.8273
  C        -0.02108         -0.00000         0.02981
  C         0.01986          0.00000         1.35154
  H         0.90525         -0.00000        -0.54006
  H         0.92824         -0.00000         1.88158
  H        -0.85653          0.00000         1.92663
  C        -1.28923         -0.00000        -0.76724
  H        -1.08251          0.00000        -1.83415
  H        -1.88826         -0.87851        -0.53095
  H        -1.88826          0.87851        -0.53095
9
 step=          80     theta[rad]=           0.8378
  C        -0.02371         -0.00000         0.03014
  C         0.01811          0.00000         1.36841
  H         0.93610         -0.00000        -0.55804
  H         0.78968         -0.00000         1.80012
  H        -0.69658          0.00000         1.82046
  C        -1.28929         -0.00000        -0.76697
  H        -1.08230          0.00000        -1.83667
  H        -1.88803         -0.87824        -0.53098
  H        -1.88803          0.87824        -0.53098
9
 step=          81     theta[rad]=           0.8482
  C        -0.02433         -0.00000         0.03021
  C         0.01769          0.00000         1.37240
  H         0.94341         -0.00000        -0.56230
  H         0.75685         -0.00000         1.78082
  H        -0.65868          0.00000         1.79530
  C        -1.28930         -0.00000        -0.76690
  H        -1.08225          0.00000        -1.83727
  H        -1.88798         -0.87817        -0.53098
  H        -1.88798          0.87817        -0.53098
9
 step=          82     theta[rad]=           0.8587
  C        -0.02245         -0.00000         0.02998
  C         0.01895          0.00000         1.36035
  H         0.92137         -0.00000        -0.54945
  H         0.85586         -0.00000         1.83902
  H        -0.77297          0.00000         1.87117
  C        -1.28926         -0.00000        -0.76710
  H        -1.08240          0.00000        -1.83547
  H        -1.88814         -0.87837        -0.53096
  H        -1.88814          0.87837        -0.53096
9
 step=          83     theta[rad]=           0.8692
  C        -0.01932         -0.00000         0.02958
  C         0.02104          0.00000         1.34022
  H         0.88456         -0.00000        -0.52800
  H         1.02121         -0.00000         1.93623
  H        -0.96385          0.00000         1.99786
  C        -1.28919         -0.00000        -0.76743
  H        -1.08264          0.00000        -1.83247
  H        -1.88841         -0.87870        -0.53093
  H        -1.88841          0.87870        -0.53093
9
 step=          84     theta[rad]=           0.8796
  C        -0.01714         -0.00000         0.02931
  C         0.02249          0.00000         1.32626
  H         0.85903         -0.00000        -0.51312
  H         1.13586         -0.00000         2.00364
  H        -1.09621          0.00000         2.08571
  C        -1.28914         -0.00000        -0.76765
  H        -1.08281          0.00000        -1.83038
  H        -1.88860         -0.87892        -0.53090
  H        -1.88860          0.87892        -0.53090
9
 step=          85     theta[rad]=           0.8901
  C        -0.01756         -0.00000         0.02936
  C         0.02221          0.00000         1.32896
  H         0.86395         -0.00000        -0.51599
  H         1.11376         -0.00000         1.99064
  H        -1.07069          0.00000         2.06878
  C        -1.28915         -0.00000        -0.76761
  H        -1.08278          0.00000        -1.83078
  H        -1.88856         -0.87888        -0.53091
  H        -1.88856          0.87888        -0.53091
9
 step=          86     theta[rad]=           0.9006
  C        -0.02034         -0.00000         0.02971
  C         0.02036          0.00000         1.34678
  H         0.89656         -0.00000        -0.53499
  H         0.96731         -0.00000         1.90455
  H        -0.90163          0.00000         1.95656
  C        -1.28921         -0.00000        -0.76732
  H        -1.08256          0.00000        -1.83344
  H        -1.88832         -0.87859        -0.53094
  H        -1.88832          0.87859        -0.53094
9
 step=          87     theta[rad]=           0.9111
  C        -0.02341         -0.00000         0.03010
  C         0.01831          0.00000         1.36649
  H         0.93260         -0.00000        -0.55599
  H         0.80542         -0.00000         1.80937
  H        -0.71475          0.00000         1.83252
  C        -1.28928         -0.00000        -0.76700
  H        -1.08233          0.00000        -1.83639
  H        -1.88806         -0.87827        -0.53097
  H        -1.88806          0.87827        -0.53097
9
 step=          88     theta[rad]=           0.9215
  C        -0.02437         -0.00000         0.03022
  C         0.01767          0.00000         1.37264
  H         0.94385         -0.00000        -0.56255
  H         0.75487         -0.00000         1.77965
  H        -0.65639          0.00000         1.79378
  C        -1.28930         -0.00000        -0.76690
  H        -1.08225          0.00000        -1.83730
  H        -1.88798         -0.87817        -0.53098
  H        -1.88798          0.87817        -0.53098
9
 step=          89     theta[rad]=           0.9320
  C        -0.02238         -0.00000         0.02997
  C         0.01899          0.00000         1.35991
  H         0.92056         -0.00000        -0.54898
  H         0.85951         -0.00000         1.84117
  H        -0.77719          0.00000         1.87396
  C        -1.28926         -0.00000        -0.76711
  H        -1.08241          0.00000        -1.83540
  H        -1.88815         -0.87838        -0.53096
  H        -1.88815          0.87838        -0.53096
9
 step=          90     theta[rad]=           0.9425
  C        -0.01900         -0.00000         0.02954
  C         0.02125          0.00000         1.33817
  H         0.88080         -0.00000        -0.52581
  H         1.03810         -0.00000         1.94616
  H        -0.98335          0.00000         2.01080
  C        -1.28918         -0.00000        -0.76746
  H        -1.08267          0.00000        -1.83216
  H        -1.88844         -0.87873        -0.53092
  H        -1.88844          0.87873        -0.53092
9
 step=          91     theta[rad]=           0.9529
  C        -0.01700         -0.00000         0.02929
  C         0.02258          0.00000         1.32535
  H         0.85736         -0.00000        -0.51215
  H         1.14338         -0.00000         2.00806
  H        -1.10489          0.00000         2.09147
  C        -1.28913         -0.00000        -0.76767
  H        -1.08282          0.00000        -1.83025
  H        -1.88861         -0.87894        -0.53090
  H        -1.88861          0.87894        -0.53090
9
 step=          92     theta[rad]=           0.9634
  C        -0.01814         -0.00000         0.02944
  C         0.02182          0.00000         1.33265
  H         0.87070         -0.00000        -0.51992
  H         1.08344         -0.00000         1.97282
  H        -1.03570          0.00000         2.04555
  C        -1.28916         -0.00000        -0.76755
  H        -1.08273          0.00000        -1.83133
  H        -1.88851         -0.87882        -0.53091
  H        -1.88851          0.87882        -0.53091
9
 step=          93     theta[rad]=           0.9739
  C        -0.02150         -0.00000         0.02986
  C         0.01958          0.00000         1.35426
  H         0.91023         -0.00000        -0.54296
  H         0.90589         -0.00000         1.86844
  H        -0.83074          0.00000         1.90951
  C        -1.28924         -0.00000        -0.76720
  H        -1.08247          0.00000        -1.83456
  H        -1.88822         -0.87847        -0.53095
  H        -1.88822          0.87847        -0.53095
9
 step=          94     theta[rad]=           0.9844
  C        -0.02417         -0.00000         0.03019
  C         0.01780          0.00000         1.37139
  H         0.94156         -0.00000        -0.56122
  H         0.76518         -0.00000         1.78571
  H        -0.66829          0.00000         1.80168
  C        -1.28930         -0.00000        -0.76692
  H        -1.08227          0.00000        -1.83712
  H        -1.88799         -0.87819        -0.53098
  H        -1.88799          0.87819        -0.53098
9
 step=          95     theta[rad]=           0.9948
  C        -0.02371         -0.00000         0.03014
  C         0.01811          0.00000         1.36841
  H         0.93610         -0.00000        -0.55804
  H         0.78968         -0.00000         1.80012
  H        -0.69658          0.00000         1.82046
  C        -1.28929         -0.00000        -0.76697
  H        -1.08230          0.00000        -1.83667
  H        -1.88803         -0.87824        -0.53098
  H        -1.88803          0.87824        -0.53098
9
 step=          96     theta[rad]=           1.0053
  C        -0.02046         -0.00000         0.02973
  C         0.02028          0.00000         1.34753
  H         0.89793         -0.00000        -0.53579
  H         0.96115         -0.00000         1.90093
  H        -0.89452          0.00000         1.95185
  C        -1.28921         -0.00000        -0.76731
  H        -1.08255          0.00000        -1.83356
  H        -1.88831         -0.87858        -0.53094
  H        -1.88831          0.87858        -0.53094
9
 step=          97     theta[rad]=           1.0158
  C        -0.01740         -0.00000         0.02934
  C         0.02231          0.00000         1.32793
  H         0.86209         -0.00000        -0.51490
  H         1.12214         -0.00000         1.99557
  H        -1.08037          0.00000         2.07520
  C        -1.28914         -0.00000        -0.76763
  H        -1.08279          0.00000        -1.83063
  H        -1.88858         -0.87890        -0.53091
  H        -1.88858          0.87890        -0.53091
9
 step=          98     theta[rad]=           1.0263
  C        -0.01748         -0.00000         0.02935
  C         0.02226          0.00000         1.32843
  H         0.86299         -0.00000        -0.51543
  H         1.11810         -0.00000         1.99319
  H        -1.07570          0.00000         2.07210
  C        -1.28914         -0.00000        -0.76762
  H        -1.08279          0.00000        -1.83070
  H        -1.88857         -0.87889        -0.53091
  H        -1.88857          0.87889        -0.53091
9
 step=          99     theta[rad]=           1.0367
  C        -0.02069         -0.00000         0.02976
  C         0.02012          0.00000         1.34904
  H         0.90068         -0.00000        -0.53739
  H         0.94880         -0.00000         1.89367
  H        -0.88027          0.00000         1.94238
  C        -1.28922         -0.00000        -0.76728
  H        -1.08254          0.00000        -1.83378
  H        -1.88829         -0.87855        -0.53094
  H        -1.88829          0.87855        -0.53094
9
 step=         100     theta[rad]=           1.0472
  C        -0.02392         -0.00000         0.03016
  C         0.01797          0.00000         1.36977
  H         0.93860         -0.00000        -0.55949
  H         0.77846         -0.00000         1.79353
  H        -0.68363          0.00000         1.81187
  C        -1.28929         -0.00000        -0.76695
  H        -1.08229          0.00000        -1.83688
  H        -1.88802         -0.87822        -0.53098
  H        -1.88802          0.87822        -0.53098
9
 step=         101     theta[rad]=           1.0577
  C        -0.02390         -0.00000         0.03016
  C         0.01798          0.00000         1.36964
  H         0.93837         -0.00000        -0.55936
  H         0.77950         -0.00000         1.79414
  H        -0.68483          0.00000         1.81266
  C        -1.28929         -0.00000        -0.76695
  H        -1.08229          0.00000        -1.83686
  H        -1.88802         -0.87822        -0.53098
  H        -1.88802          0.87822        -0.53098
9
 step=         102     theta[rad]=           1.0681
  C        -0.02057         -0.00000         0.02974
  C         0.02020          0.00000         1.34828
  H         0.89930         -0.00000        -0.53659
  H         0.95498         -0.00000         1.89730
  H        -0.88740          0.00000         1.94712
  C        -1.28922         -0.00000        -0.76730
  H        -1.08255          0.00000        -1.83367
  H        -1.88830         -0.87857        -0.53094
  H        -1.88830          0.87857        -0.53094
9
 step=         103     theta[rad]=           1.0786
  C        -0.01735         -0.00000         0.02934
  C         0.02235          0.00000         1.32759
  H         0.86146         -0.00000        -0.51453
  H         1.12498         -0.00000         1.99724
  H        -1.08364          0.00000         2.07737
  C        -1.28914         -0.00000        -0.76763
  H        -1.08280          0.00000        -1.83058
  H        -1.88858         -0.87890        -0.53091
  H        -1.88858          0.87890        -0.53091
9
 step=         104     theta[rad]=           1.0891
  C        -0.01767         -0.00000         0.02938
  C         0.02213          0.00000         1.32967
  H         0.86525         -0.00000        -0.51675
  H         1.10793         -0.00000         1.98721
  H        -1.06396          0.00000         2.06431
  C        -1.28915         -0.00000        -0.76760
  H        -1.08277          0.00000        -1.83089
  H        -1.88855         -0.87887        -0.53091
  H        -1.88855          0.87887        -0.53091
9
 step=         105     theta[rad]=           1.0996
  C        -0.02127         -0.00000         0.02983
  C         0.01973          0.00000         1.35278
  H         0.90753         -0.00000        -0.54138
  H         0.91803         -0.00000         1.87558
  H        -0.84475          0.00000         1.91881
  C        -1.28923         -0.00000        -0.76722
  H        -1.08249          0.00000        -1.83434
  H        -1.88824         -0.87849        -0.53095
  H        -1.88824          0.87849        -0.53095
9
 step=         106     theta[rad]=           1.1100
  C        -0.02425         -0.00000         0.03020
  C         0.01775          0.00000         1.37188
  H         0.94246         -0.00000        -0.56174
  H         0.76111         -0.00000         1.78333
  H        -0.66360          0.00000         1.79857
  C        -1.28930         -0.00000        -0.76691
  H        -1.08226          0.00000        -1.83719
  H        -1.88799         -0.87818        -0.53098
  H        -1.88799          0.87818        -0.53098
9
 step=         107     theta[rad]=           1.1205
  C        -0.02324         -0.00000         0.03008
  C         0.01842          0.00000         1.36543
  H         0.93065         -0.00000        -0.55486
  H         0.81416         -0.00000         1.81451
  H        -0.72484          0.00000         1.83922
  C        -1.28928         -0.00000        -0.76702
  H        -1.08234          0.00000        -1.83623
  H        -1.88807         -0.87829        -0.53097
  H        -1.88807          0.87829        -0.53097
9
 step=         108     theta[rad]=           1.1310
  C        -0.01932         -0.00000         0.02958
  C         0.02104          0.00000         1.34022
  H         0.88456         -0.00000        -0.52800
  H         1.02121         -0.00000         1.93623
  H        -0.96385          0.00000         1.99786
  C        -1.28919         -0.00000        -0.76743
  H        -1.08264          0.00000        -1.83247
  H        -1.88841         -0.87870        -0.53093
  H        -1.88841          0.87870        -0.53093
9
 step=         109     theta[rad]=           1.1414
  C        -0.01696         -0.00000         0.02929
  C         0.02260          0.00000         1.32513
  H         0.85695         -0.00000        -0.51191
  H         1.14522         -0.00000         2.00914
  H        -1.10701          0.00000         2.09288
  C        -1.28913         -0.00000        -0.76767
  H        -1.08283          0.00000        -1.83021
  H        -1.88861         -0.87894        -0.53090
  H        -1.88861          0.87894        -0.53090
9
 step=         110     theta[rad]=           1.1519
  C        -0.01900         -0.00000         0.02954
  C         0.02125          0.00000         1.33817
  H         0.88080         -0.00000        -0.52581
  H         1.03810         -0.00000         1.94616
  H        -0.98335          0.00000         2.01080
  C        -1.28918         -0.00000        -0.76746
  H        -1.08267          0.00000        -1.83216
  H        -1.88844         -0.87873        -0.53092
  H        -1.88844          0.87873        -0.53092
9
 step=         111     theta[rad]=           1.1624
  C        -0.02307         -0.00000         0.03006
  C         0.01854          0.00000         1.36430
  H         0.92859         -0.00000        -0.55366
  H         0.82343         -0.00000         1.81996
  H        -0.73554          0.00000         1.84632
  C        -1.28927         -0.00000        -0.76704
  H        -1.08235          0.00000        -1.83606
  H        -1.88809         -0.87831        -0.53097
  H        -1.88809          0.87831        -0.53097
9
 step=         112     theta[rad]=           1.1729
  C        -0.02426         -0.00000         0.03021
  C         0.01774          0.00000         1.37196
  H         0.94260         -0.00000        -0.56182
  H         0.76051         -0.00000         1.78297
  H        -0.66290          0.00000         1.79811
  C        -1.28930         -0.00000        -0.76691
  H        -1.08226          0.00000        -1.83720
  H        -1.88799         -0.87818        -0.53098
  H        -1.88799          0.87818        -0.53098
9
 step=         113     theta[rad]=           1.1833
  C        -0.02104         -0.00000         0.02980
  C         0.01989          0.00000         1.35129
  H         0.90480         -0.00000        -0.53979
  H         0.93029         -0.00000         1.88278
  H        -0.85890          0.00000         1.92820
  C        -1.28923         -0.00000        -0.76725
  H        -1.08251          0.00000        -1.83412
  H        -1.88826         -0.87852        -0.53095
  H        -1.88826          0.87852        -0.53095
9
 step=         114     theta[rad]=           1.1938
  C        -0.01737         -0.00000         0.02934
  C         0.02234          0.00000         1.32770
  H         0.86166         -0.00000        -0.51465
  H         1.12405         -0.00000         1.99669
  H        -1.08257          0.00000         2.07666
  C        -1.28914         -0.00000        -0.76763
  H        -1.08279          0.00000        -1.83060
  H        -1.88858         -0.87890        -0.53091
  H        -1.88858          0.87890        -0.53091
9
 step=         115     theta[rad]=           1.2043
  C        -0.01792         -0.00000         0.02941
  C         0.02197          0.00000         1.33124
  H         0.86814         -0.00000        -0.51843
  H         1.09497         -0.00000         1.97960
  H        -1.04900          0.00000         2.05438
  C        -1.28915         -0.00000        -0.76757
  H        -1.08275          0.00000        -1.83113
  H        -1.88853         -0.87884        -0.53091
  H        -1.88853          0.87884        -0.53091
9
 step=         116     theta[rad]=           1.2147
  C        -0.02206         -0.00000         0.02993
  C         0.01921          0.00000         1.35785
  H         0.91680         -0.00000        -0.54679
  H         0.87639         -0.00000         1.85110
  H        -0.79668          0.00000         1.88690
  C        -1.28925         -0.00000        -0.76714
  H        -1.08243          0.00000        -1.83510
  H        -1.88818         -0.87841        -0.53096
  H        -1.88818          0.87841        -0.53096
9
 step=         117     theta[rad]=           1.2252
  C        -0.02442         -0.00000         0.03023
  C         0.01764          0.00000         1.37297
  H         0.94444         -0.00000        -0.56290
  H         0.75221         -0.00000         1.77809
  H        -0.65332          0.00000         1.79175
  C        -1.28930         -0.00000        -0.76690
  H        -1.08225          0.00000        -1.83735
  H        -1.88797         -0.87817        -0.53098
  H        -1.88797          0.87817        -0.53098
9
 step=         118     theta[rad]=           1.2357
  C        -0.02180         -0.00000         0.02990
  C         0.01938          0.00000         1.35620
  H         0.91377         -0.00000        -0.54502
  H         0.88998         -0.00000         1.85909
  H        -0.81237          0.00000         1.89731
  C        -1.28924         -0.00000        -0.76717
  H        -1.08245          0.00000        -1.83485
  H        -1.88820         -0.87844        -0.53095
  H        -1.88820          0.87844        -0.53095
9
 step=         119     theta[rad]=           1.2462
  C        -0.01767         -0.00000         0.02938
  C         0.02213          0.00000         1.32967
  H         0.86525         -0.00000        -0.51675
  H         1.10793         -0.00000         1.98721
  H        -1.06396          0.00000         2.06431
  C        -1.28915         -0.00000        -0.76760
  H        -1.08277          0.00000        -1.83089
  H        -1.88855         -0.87887        -0.53091
  H        -1.88855          0.87887        -0.53091
9
 step=         120     theta[rad]=           1.2566
  C        -0.01767         -0.00000         0.02938
  C         0.02213          0.00000         1.32967
  H         0.86525         -0.00000        -0.51675
  H         1.10793         -0.00000         1.98721
  H        -1.06396          0.00000         2.06431
  C        -1.28915         -0.00000        -0.76760
  H        -1.08277          0.00000        -1.83089
  H        -1.88855         -0.87887        -0.53091
  H        -1.88855          0.87887        -0.53091
9
 step=         121     theta[rad]=           1.2671
  C        -0.02188         -0.00000         0.02991
  C         0.01933          0.00000         1.35667
  H         0.91464         -0.00000        -0.54553
  H         0.88606         -0.00000         1.85678
  H        -0.80785          0.00000         1.89431
  C        -1.28925         -0.00000        -0.76716
  H        -1.08244          0.00000        -1.83492
  H        -1.88819         -0.87843        -0.53096
  H        -1.88819          0.87843        -0.53096
9
 step=         122     theta[rad]=           1.2776
  C        -0.02442         -0.00000         0.03023
  C         0.01764          0.00000         1.37297
  H         0.94444         -0.00000        -0.56290
  H         0.75221         -0.00000         1.77809
  H        -0.65332          0.00000         1.79175
  C        -1.28930         -0.00000        -0.76690
  H        -1.08225          0.00000        -1.83735
  H        -1.88797         -0.87817        -0.53098
  H        -1.88797          0.87817        -0.53098
9
 step=         123     theta[rad]=           1.2881
  C        -0.02162         -0.00000         0.02987
  C         0.01950          0.00000         1.35499
  H         0.91157         -0.00000        -0.54374
  H         0.89989         -0.00000         1.86491
  H        -0.82380          0.00000         1.90490
  C        -1.28924         -0.00000        -0.76719
  H        -1.08246          0.00000        -1.83467
  H        -1.88821         -0.87846        -0.53095
  H        -1.88821          0.87846        -0.53095
9
 step=         124     theta[rad]=           1.2985
  C        -0.01746         -0.00000         0.02935
  C         0.02227          0.00000         1.32830
  H         0.86276         -0.00000        -0.51529
  H         1.11914         -0.00000         1.99380
  H        -1.07690          0.00000         2.07290
  C        -1.28914         -0.00000        -0.76762
  H        -1.08279          0.00000        -1.83069
  H        -1.88857         -0.87889        -0.53091
  H        -1.88857          0.87889        -0.53091
9
 step=         125     theta[rad]=           1.3090
  C        -0.01805         -0.00000         0.02943
  C         0.02188          0.00000         1.33211
  H         0.86971         -0.00000        -0.51935
  H         1.08788         -0.00000         1.97543
  H        -1.04082          0.00000         2.04895
  C        -1.28916         -0.00000        -0.76756
  H        -1.08274          0.00000        -1.83125
  H        -1.88852         -0.87883        -0.53091
  H        -1.88852          0.87883        -0.53091
9
 step=         126     theta[rad]=           1.3195
  C        -0.02259         -0.00000         0.03000
  C         0.01886          0.00000         1.36122
  H         0.92297         -0.00000        -0.55038
  H         0.84868         -0.00000         1.83480
  H        -0.76469          0.00000         1.86567
  C        -1.28926         -0.00000        -0.76709
  H        -1.08239          0.00000        -1.83560
  H        -1.88813         -0.87836        -0.53096
  H        -1.88813          0.87836        -0.53096
9
 step=         127     theta[rad]=           1.3299
  C        -0.02426         -0.00000         0.03021
  C         0.01774          0.00000         1.37196
  H         0.94260         -0.00000        -0.56182
  H         0.76051         -0.00000         1.78297
  H        -0.66290          0.00000         1.79811
  C        -1.28930         -0.00000        -0.76691
  H        -1.08226          0.00000        -1.83720
  H        -1.88799         -0.87818        -0.53098
  H        -1.88799          0.87818        -0.53098
9
 step=         128     theta[rad]=           1.3404
  C        -0.02046         -0.00000         0.02973
  C         0.02028          0.00000         1.34753
  H         0.89793         -0.00000        -0.53579
  H         0.96115         -0.00000         1.90093
  H        -0.89452          0.00000         1.95185
  C        -1.28921         -0.00000        -0.76731
  H        -1.08255          0.00000        -1.83356
  H        -1.88831         -0.87858        -0.53094
  H        -1.88831          0.87858        -0.53094
9
 step=         129     theta[rad]=           1.3509
  C        -0.01701         -0.00000         0.02929
  C         0.02258          0.00000         1.32539
  H         0.85743         -0.00000        -0.51219
  H         1.14307         -0.00000         2.00787
  H        -1.10453          0.00000         2.09123
  C        -1.28913         -0.00000        -0.76767
  H        -1.08282          0.00000        -1.83025
  H        -1.88861         -0.87894        -0.53090
  H        -1.88861          0.87894        -0.53090
9
 step=         130     theta[rad]=           1.3614
  C        -0.01935         -0.00000         0.02959
  C         0.02101          0.00000         1.34046
  H         0.88498         -0.00000        -0.52825
  H         1.01929         -0.00000         1.93510
  H        -0.96164          0.00000         1.99639
  C        -1.28919         -0.00000        -0.76742
  H        -1.08264          0.00000        -1.83250
  H        -1.88841         -0.87869        -0.53093
  H        -1.88841          0.87869        -0.53093
9
 step=         131     theta[rad]=           1.3718
  C        -0.02384         -0.00000         0.03015
  C         0.01802          0.00000         1.36925
  H         0.93765         -0.00000        -0.55894
  H         0.78273         -0.00000         1.79603
  H        -0.68856          0.00000         1.81514
  C        -1.28929         -0.00000        -0.76696
  H        -1.08229          0.00000        -1.83680
  H        -1.88802         -0.87823        -0.53098
  H        -1.88802          0.87823        -0.53098
9
 step=         132     theta[rad]=           1.3823
  C        -0.02324         -0.00000         0.03008
  C         0.01842          0.00000         1.36543
  H         0.93065         -0.00000        -0.55486
  H         0.81416         -0.00000         1.81451
  H        -0.72484          0.00000         1.83922
  C        -1.28928         -0.00000        -0.76702
  H        -1.08234          0.00000        -1.83623
  H        -1.88807         -0.87829        -0.53097
  H        -1.88807          0.87829        -0.53097
9
 step=         133     theta[rad]=           1.3928
  C        -0.01847         -0.00000         0.02948
  C         0.02160          0.00000         1.33476
  H         0.87457         -0.00000        -0.52218
  H         1.06607         -0.00000         1.96261
  H        -1.01564          0.00000         2.03224
  C        -1.28917         -0.00000        -0.76752
  H        -1.08271          0.00000        -1.83165
  H        -1.88848         -0.87879        -0.53092
  H        -1.88848          0.87878        -0.53092
9
 step=         134     theta[rad]=           1.4032
  C        -0.01737         -0.00000         0.02934
  C         0.02234          0.00000         1.32770
  H         0.86166         -0.00000        -0.51465
  H         1.12405         -0.00000         1.99669
  H        -1.08257          0.00000         2.07666
  C        -1.28914         -0.00000        -0.76763
  H        -1.08279          0.00000        -1.83060
  H        -1.88858         -0.87890        -0.53091
  H        -1.88858          0.87890        -0.53091
9
 step=         135     theta[rad]=           1.4137
  C        -0.02184         -0.00000         0.02990
  C         0.01935          0.00000         1.35643
  H         0.91421         -0.00000        -0.54528
  H         0.88802         -0.00000         1.85793
  H        -0.81010          0.00000         1.89581
  C        -1.28924         -0.00000        -0.76716
  H        -1.08245          0.00000        -1.83488
  H        -1.88819         -0.87843        -0.53096
  H        -1.88819          0.87843        -0.53096
9
 step=         136     theta[rad]=           1.4242
  C        -0.02437         -0.00000         0.03022
  C         0.01767          0.00000         1.37264
  H         0.94385         -0.00000        -0.56255
  H         0.75487         -0.00000         1.77965
  H        -0.65639          0.00000         1.79378
  C        -1.28930         -0.00000        -0.76690
  H        -1.08225          0.00000        -1.83730
  H        -1.88798         -0.87817        -0.53098
  H        -1.88798          0.87817        -0.53098
9
 step=         137     theta[rad]=           1.4347
  C        -0.02057         -0.00000         0.02974
  C         0.02020          0.00000         1.34828
  H         0.89930         -0.00000        -0.53659
  H         0.95498         -0.00000         1.89730
  H        -0.88740          0.00000         1.94712
  C        -1.28922         -0.00000        -0.76730
  H        -1.08255          0.00000        -1.83367
  H        -1.88830         -0.87857        -0.53094
  H        -1.88830          0.87857        -0.53094
9
 step=         138     theta[rad]=           1.4451
  C        -0.01698         -0.00000         0.02929
  C         0.02260          0.00000         1.32520
  H         0.85708         -0.00000        -0.51198
  H         1.14462         -0.00000         2.00878
  H        -1.10631          0.00000         2.09242
  C        -1.28913         -0.00000        -0.76767
  H        -1.08283          0.00000        -1.83022
  H        -1.88861         -0.87894        -0.53090
  H        -1.88861          0.87894        -0.53090
9
 step=         139     theta[rad]=           1.4556
  C        -0.01991         -0.00000         0.02966
  C         0.02064          0.00000         1.34406
  H         0.89157         -0.00000        -0.53209
  H         0.98969         -0.00000         1.91771
  H        -0.92747          0.00000         1.97372
  C        -1.28920         -0.00000        -0.76736
  H        -1.08260          0.00000        -1.83304
  H        -1.88836         -0.87863        -0.53093
  H        -1.88836          0.87863        -0.53093
9
 step=         140     theta[rad]=           1.4661
  C        -0.02424         -0.00000         0.03020
  C         0.01776          0.00000         1.37181
  H         0.94232         -0.00000        -0.56166
  H         0.76174         -0.00000         1.78369
  H        -0.66432          0.00000         1.79905
  C        -1.28930         -0.00000        -0.76691
  H        -1.08226          0.00000        -1.83718
  H        -1.88799         -0.87818        -0.53098
  H        -1.88799          0.87818        -0.53098
9
 step=         141     theta[rad]=           1.4765
  C        -0.02217         -0.00000         0.02994
  C         0.01913          0.00000         1.35854
  H         0.91807         -0.00000        -0.54753
  H         0.87069         -0.00000         1.84774
  H        -0.79009          0.00000         1.88253
  C        -1.28925         -0.00000        -0.76713
  H        -1.08242          0.00000        -1.83520
  H        -1.88817         -0.87840        -0.53096
  H        -1.88817          0.87840        -0.53096
9
 step=         142     theta[rad]=           1.4870
  C        -0.01740         -0.00000         0.02934
  C         0.02231          0.00000         1.32793
  H         0.86209         -0.00000        -0.51490
  H         1.12214         -0.00000         1.99557
  H        -1.08037          0.00000         2.07520
  C        -1.28914         -0.00000        -0.76763
  H        -1.08279          0.00000        -1.83063
  H        -1.88858         -0.87890        -0.53091
  H        -1.88858          0.87890        -0.53091
9
 step=         143     theta[rad]=           1.4975
  C        -0.01869         -0.00000         0.02951
  C         0.02145          0.00000         1.33621
  H         0.87721         -0.00000        -0.52372
  H         1.05419         -0.00000         1.95562
  H        -1.00193          0.00000         2.02314
  C        -1.28917         -0.00000        -0.76749
  H        -1.08269          0.00000        -1.83187
  H        -1.88846         -0.87876        -0.53092
  H        -1.88846          0.87876        -0.53092
9
 step=         144     theta[rad]=           1.5080
  C        -0.02371         -0.00000         0.03014
  C         0.01811          0.00000         1.36841
  H         0.93610         -0.00000        -0.55804
  H         0.78968         -0.00000         1.80012
  H        -0.69658          0.00000         1.82046
  C        -1.28929         -0.00000        -0.76697
  H        -1.08230          0.00000        -1.83667
  H        -1.88803         -0.87824        -0.53098
  H        -1.88803          0.87824        -0.53098
9
 step=         145     theta[rad]=           1.5184
  C        -0.02304         -0.00000         0.03005
  C         0.01856          0.00000         1.36410
  H         0.92823         -0.00000        -0.55345
  H         0.82502         -0.00000         1.82090
  H        -0.73738          0.00000         1.84754
  C        -1.28927         -0.00000        -0.76704
  H        -1.08235          0.00000        -1.83603
  H        -1.88809         -0.87831        -0.53097
  H        -1.88809          0.87831        -0.53097
9
 step=         146     theta[rad]=           1.5289
  C        -0.01789         -0.00000         0.02941
  C         0.02199          0.00000         1.33108
  H         0.86783         -0.00000        -0.51825
  H         1.09634         -0.00000         1.98040
  H        -1.05058          0.00000         2.05543
  C        -1.28915         -0.00000        -0.76757
  H        -1.08275          0.00000        -1.83110
  H        -1.88853         -0.87884        -0.53091
  H        -1.88853          0.87884        -0.53091
9
 step=         147     theta[rad]=           1.5394
  C        -0.01814         -0.00000         0.02944
  C         0.02182          0.00000         1.33265
  H         0.87070         -0.00000        -0.51992
  H         1.08344         -0.00000         1.97282
  H        -1.03570          0.00000         2.04555
  C        -1.28916         -0.00000        -0.76755
  H        -1.08273          0.00000        -1.83133
  H        -1.88851         -0.87882        -0.53091
  H        -1.88851          0.87882        -0.53091
9
 step=         148     theta[rad]=           1.5499
  C        -0.02335         -0.00000         0.03009
  C         0.01834          0.00000         1.36614
  H         0.93196         -0.00000        -0.55562
  H         0.80827         -0.00000         1.81105
  H        -0.71804          0.00000         1.83471
  C        -1.28928         -0.00000        -0.76701
  H        -1.08233          0.00000        -1.83633
  H        -1.88806         -0.87828        -0.53097
  H        -1.88806          0.87828        -0.53097
9
 step=         149     theta[rad]=           1.5603
  C        -0.02333         -0.00000         0.03009
  C         0.01836          0.00000         1.36597
  H         0.93164         -0.00000        -0.55544
  H         0.80972         -0.00000         1.81190
  H        -0.71971          0.00000         1.83582
  C        -1.28928         -0.00000        -0.76701
  H        -1.08233          0.00000        -1.83631
  H        -1.88807         -0.87828        -0.53097
  H        -1.88807          0.87828        -0.53097
9
 step=         150     theta[rad]=           1.5708
  C        -0.01805         -0.00000         0.02943
  C         0.02188          0.00000         1.33211
  H         0.86971         -0.00000        -0.51935
  H         1.08788         -0.00000         1.97543
  H        -1.04082          0.00000         2.04895
  C        -1.28916         -0.00000        -0.76756
  H        -1.08274          0.00000        -1.83125
  H        -1.88852         -0.87883        -0.53091
  H        -1.88852          0.87883        -0.53091
9
 step=         151     theta[rad]=           1.5813
  C        -0.01808         -0.00000         0.02943
  C         0.02186          0.00000         1.33228
  H         0.87004         -0.00000        -0.51954
  H         1.08642         -0.00000         1.97457
  H        -1.03913          0.00000         2.04783
  C        -1.28916         -0.00000        -0.76756
  H        -1.08274          0.00000        -1.83128
  H        -1.88852         -0.87883        -0.53091
  H        -1.88852          0.87883        -0.53091
9
 step=         152     theta[rad]=           1.5917
  C        -0.02341         -0.00000         0.03010
  C         0.01831          0.00000         1.36649
  H         0.93260         -0.00000        -0.55599
  H         0.80542         -0.00000         1.80937
  H        -0.71475          0.00000         1.83252
  C        -1.28928         -0.00000        -0.76700
  H        -1.08233          0.00000        -1.83639
  H        -1.88806         -0.87827        -0.53097
  H        -1.88806          0.87827        -0.53097
9
 step=         153     theta[rad]=           1.6022
  C        -0.02316         -0.00000         0.03007
  C         0.01848          0.00000         1.36487
  H         0.92963         -0.00000        -0.55427
  H         0.81873         -0.00000         1.81720
  H        -0.73011          0.00000         1.84272
  C        -1.28927         -0.00000        -0.76703
  H        -1.08235          0.00000        -1.83614
  H        -1.88808         -0.87830        -0.53097
  H        -1.88808          0.87830        -0.53097
9
 step=         154     theta[rad]=           1.6127
  C        -0.01779         -0.00000         0.02939
  C         0.02205          0.00000         1.33043
  H         0.86665         -0.00000        -0.51756
  H         1.10166         -0.00000         1.98353
  H        -1.05672          0.00000         2.05950
  C        -1.28915         -0.00000        -0.76759
  H        -1.08276          0.00000        -1.83100
  H        -1.88854         -0.87886        -0.53091
  H        -1.88854          0.87886        -0.53091
9
 step=         155     theta[rad]=           1.6232
  C        -0.01850         -0.00000         0.02948
  C         0.02158          0.00000         1.33496
  H         0.87494         -0.00000        -0.52239
  H         1.06441         -0.00000         1.96163
  H        -1.01373          0.00000         2.03097
  C        -1.28917         -0.00000        -0.76751
  H        -1.08271          0.00000        -1.83168
  H        -1.88848         -0.87878        -0.53092
  H        -1.88848          0.87878        -0.53092
9
 step=         156     theta[rad]=           1.6336
  C        -0.02384         -0.00000         0.03015
  C         0.01802          0.00000         1.36925
  H         0.93765         -0.00000        -0.55894
  H         0.78273         -0.00000         1.79603
  H        -0.68856          0.00000         1.81514
  C        -1.28929         -0.00000        -0.76696
  H        -1.08229          0.00000        -1.83680
  H        -1.88802         -0.87823        -0.53098
  H        -1.88802          0.87823        -0.53098
9
 step=         157     theta[rad]=           1.6441
  C        -0.02245         -0.00000         0.02998
  C         0.01895          0.00000         1.36035
  H         0.92137         -0.00000        -0.54945
  H         0.85586         -0.00000         1.83902
  H        -0.77297          0.00000         1.87117
  C        -1.28926         -0.00000        -0.76710
  H        -1.08240          0.00000        -1.83547
  H        -1.88814         -0.87837        -0.53096
  H        -1.88814          0.87837        -0.53096
9
 step=         158     theta[rad]=           1.6546
  C        -0.01727         -0.00000         0.02933
  C         0.02240          0.00000         1.32706
  H         0.86049         -0.00000        -0.51397
  H         1.12931         -0.00000         1.99979
  H        -1.08865          0.00000         2.08069
  C        -1.28914         -0.00000        -0.76764
  H        -1.08280          0.00000        -1.83050
  H        -1.88859         -0.87891        -0.53091
  H        -1.88859          0.87891        -0.53091
9
 step=         159     theta[rad]=           1.6650
  C        -0.01954         -0.00000         0.02961
  C         0.02089          0.00000         1.34164
  H         0.88715         -0.00000        -0.52951
  H         1.00958         -0.00000         1.92940
  H        -0.95043          0.00000         1.98895
  C        -1.28919         -0.00000        -0.76740
  H        -1.08263          0.00000        -1.83268
  H        -1.88839         -0.87867        -0.53093
  H        -1.88839          0.87867        -0.53093
9
 step=         160     theta[rad]=           1.6755
  C        -0.02434         -0.00000         0.03022
  C         0.01769          0.00000         1.37246
  H         0.94351         -0.00000        -0.56235
  H         0.75641         -0.00000         1.78056
  H        -0.65817          0.00000         1.79497
  C        -1.28930         -0.00000        -0.76690
  H        -1.08225          0.00000        -1.83728
  H        -1.88798         -0.87817        -0.53098
  H        -1.88798          0.87817        -0.53098
9
 step=         161     theta[rad]=           1.6860
  C        -0.02104         -0.00000         0.02980
  C         0.01989          0.00000         1.35129
  H         0.90480         -0.00000        -0.53979
  H         0.93029         -0.00000         1.88278
  H        -0.85890          0.00000         1.92820
  C        -1.28923         -0.00000        -0.76725
  H        -1.08251          0.00000        -1.83412
  H        -1.88826         -0.87852        -0.53095
  H        -1.88826          0.87852        -0.53095
9
 step=         162     theta[rad]=           1.6965
  C        -0.01696         -0.00000         0.02929
  C         0.02261          0.00000         1.32510
  H         0.85691         -0.00000        -0.51188
  H         1.14539         -0.00000         2.00924
  H        -1.10721          0.00000         2.09302
  C        -1.28913         -0.00000        -0.76767
  H        -1.08283          0.00000        -1.83021
  H        -1.88861         -0.87894        -0.53090
  H        -1.88861          0.87894        -0.53090
9
 step=         163     theta[rad]=           1.7069
  C        -0.02131         -0.00000         0.02983
  C         0.01971          0.00000         1.35303
  H         0.90798         -0.00000        -0.54165
  H         0.91600         -0.00000         1.87438
  H        -0.84240          0.00000         1.91725
  C        -1.28923         -0.00000        -0.76722
  H        -1.08249          0.00000        -1.83438
  H        -1.88824         -0.87849        -0.53095
  H        -1.88824          0.87849        -0.53095
9
 step=         164     theta[rad]=           1.7174
  C        -0.02424         -0.00000         0.03020
  C         0.01776          0.00000         1.37181
  H         0.94232         -0.00000        -0.56166
  H         0.76174         -0.00000         1.78369
  H        -0.66432          0.00000         1.79905
  C        -1.28930         -0.00000        -0.76691
  H        -1.08226          0.00000        -1.83718
  H        -1.88799         -0.87818        -0.53098
  H        -1.88799          0.87818        -0.53098
9
 step=         165     theta[rad]=           1.7279
  C        -0.01900         -0.00000         0.02954
  C         0.02125          0.00000         1.33817
  H         0.88080         -0.00000        -0.52581
  H         1.03810         -0.00000         1.94616
  H        -0.98335          0.00000         2.01080
  C        -1.28918         -0.00000        -0.76746
  H        -1.08267          0.00000        -1.83216
  H        -1.88844         -0.87873        -0.53092
  H        -1.88844          0.87873        -0.53092
9
 step=         166     theta[rad]=           1.7383
  C        -0.01770         -0.00000         0.02938
  C         0.02212          0.00000         1.32981
  H         0.86552         -0.00000        -0.51690
  H         1.10671         -0.00000         1.98650
  H        -1.06255          0.00000         2.06337
  C        -1.28915         -0.00000        -0.76760
  H        -1.08277          0.00000        -1.83091
  H        -1.88855         -0.87887        -0.53091
  H        -1.88855          0.87887        -0.53091
9
 step=         167     theta[rad]=           1.7488
  C        -0.02341         -0.00000         0.03010
  C         0.01831          0.00000         1.36649
  H         0.93260         -0.00000        -0.55599
  H         0.80542         -0.00000         1.80937
  H        -0.71475          0.00000         1.83252
  C        -1.28928         -0.00000        -0.76700
  H        -1.08233          0.00000        -1.83639
  H        -1.88806         -0.87827        -0.53097
  H        -1.88806          0.87827        -0.53097
9
 step=         168     theta[rad]=           1.7593
  C        -0.02269         -0.00000         0.03001
  C         0.01879          0.00000         1.36187
  H         0.92414         -0.00000        -0.55107
  H         0.84341         -0.00000         1.83171
  H        -0.75860          0.00000         1.86163
  C        -1.28926         -0.00000        -0.76708
  H        -1.08238          0.00000        -1.83570
  H        -1.88812         -0.87835        -0.53096
  H        -1.88812          0.87835        -0.53096
9
 step=         169     theta[rad]=           1.7698
  C        -0.01721         -0.00000         0.02932
  C         0.02244          0.00000         1.32668
  H         0.85980         -0.00000        -0.51357
  H         1.13243         -0.00000         2.00162
  H        -1.09224          0.00000         2.08308
  C        -1.28914         -0.00000        -0.76765
  H        -1.08281          0.00000        -1.83044
  H        -1.88859         -0.87892        -0.53090
  H        -1.88859          0.87892        -0.53090
9
 step=         170     theta[rad]=           1.7802
  C        -0.02011         -0.00000         0.02968
  C         0.02051          0.00000         1.34529
  H         0.89383         -0.00000        -0.53340
  H         0.97957         -0.00000         1.91175
  H        -0.91579          0.00000         1.96596
  C        -1.28920         -0.00000        -0.76734
  H        -1.08258          0.00000        -1.83322
  H        -1.88834         -0.87861        -0.53094
  H        -1.88834          0.87861        -0.53094
9
 step=         171     theta[rad]=           1.7907
  C        -0.02441         -0.00000         0.03022
  C         0.01764          0.00000         1.37293
  H         0.94438         -0.00000        -0.56286
  H         0.75250         -0.00000         1.77826
  H        -0.65366          0.00000         1.79197
  C        -1.28930         -0.00000        -0.76690
  H        -1.08225          0.00000        -1.83735
  H        -1.88797         -0.87817        -0.53098
  H        -1.88797          0.87817        -0.53098
9
 step=         172     theta[rad]=           1.8012
  C        -0.01961         -0.00000         0.02962
  C         0.02084          0.00000         1.34212
  H         0.88802         -0.00000        -0.53002
  H         1.00565         -0.00000         1.92709
  H        -0.94589          0.00000         1.98594
  C        -1.28919         -0.00000        -0.76740
  H        -1.08262          0.00000        -1.83275
  H        -1.88839         -0.87867        -0.53093
  H        -1.88839          0.87867        -0.53093
9
 step=         173     theta[rad]=           1.8117
  C        -0.01748         -0.00000         0.02935
  C         0.02226          0.00000         1.32843
  H         0.86299         -0.00000        -0.51543
  H         1.11810         -0.00000         1.99319
  H        -1.07570          0.00000         2.07210
  C        -1.28914         -0.00000        -0.76762
  H        -1.08279          0.00000        -1.83070
  H        -1.88857         -0.87889        -0.53091
  H        -1.88857          0.87889        -0.53091
9
 step=         174     theta[rad]=           1.8221
  C        -0.02333         -0.00000         0.03009
  C         0.01836          0.00000         1.36597
  H         0.93164         -0.00000        -0.55544
  H         0.80972         -0.00000         1.81190
  H        -0.71971          0.00000         1.83582
  C        -1.28928         -0.00000        -0.76701
  H        -1.08233          0.00000        -1.83631
  H        -1.88807         -0.87828        -0.53097
  H        -1.88807          0.87828        -0.53097
9
 step=         175     theta[rad]=           1.8326
  C        -0.02255         -0.00000         0.02999
  C         0.01888          0.00000         1.36101
  H         0.92257         -0.00000        -0.55015
  H         0.85046         -0.00000         1.83585
  H        -0.76674          0.00000         1.86703
  C        -1.28926         -0.00000        -0.76709
  H        -1.08239          0.00000        -1.83557
  H        -1.88813         -0.87836        -0.53096
  H        -1.88813          0.87836        -0.53096
9
 step=         176     theta[rad]=           1.8431
  C        -0.01708         -0.00000         0.02930
  C         0.02253          0.00000         1.32584
  H         0.85827         -0.00000        -0.51267
  H         1.13931         -0.00000         2.00566
  H        -1.10019          0.00000         2.08836
  C        -1.28914         -0.00000        -0.76766
  H        -1.08282          0.00000        -1.83032
  H        -1.88860         -0.87893        -0.53090
  H        -1.88860          0.87893        -0.53090
9
 step=         177     theta[rad]=           1.8535
  C        -0.02081         -0.00000         0.02977
  C         0.02004          0.00000         1.34979
  H         0.90205         -0.00000        -0.53819
  H         0.94262         -0.00000         1.89003
  H        -0.87313          0.00000         1.93765
  C        -1.28922         -0.00000        -0.76727
  H        -1.08253          0.00000        -1.83389
  H        -1.88828         -0.87854        -0.53094
  H        -1.88828          0.87854        -0.53094
9
 step=         178     theta[rad]=           1.8640
  C        -0.02422         -0.00000         0.03020
  C         0.01776          0.00000         1.37173
  H         0.94218         -0.00000        -0.56158
  H         0.76238         -0.00000         1.78407
  H        -0.66507          0.00000         1.79955
  C        -1.28930         -0.00000        -0.76692
  H        -1.08226          0.00000        -1.83717
  H        -1.88799         -0.87819        -0.53098
  H        -1.88799          0.87819        -0.53098
9
 step=         179     theta[rad]=           1.8745
  C        -0.01850         -0.00000         0.02948
  C         0.02158          0.00000         1.33496
  H         0.87494         -0.00000        -0.52239
  H         1.06441         -0.00000         1.96163
  H        -1.01373          0.00000         2.03097
  C        -1.28917         -0.00000        -0.76751
  H        -1.08271          0.00000        -1.83168
  H        -1.88848         -0.87878        -0.53092
  H        -1.88848          0.87878        -0.53092
9
 step=         180     theta[rad]=           1.8850
  C        -0.01850         -0.00000         0.02948
  C         0.02158          0.00000         1.33496
  H         0.87494         -0.00000        -0.52239
  H         1.06441         -0.00000         1.96163
  H        -1.01373          0.00000         2.03097
  C        -1.28917         -0.00000        -0.76751
  H        -1.08271          0.00000        -1.83168
  H        -1.88848         -0.87878        -0.53092
  H        -1.88848          0.87878        -0.53092
9
 step=         181     theta[rad]=           1.8954
  C        -0.02425         -0.00000         0.03020
  C         0.01775          0.00000         1.37188
  H         0.94246         -0.00000        -0.56174
  H         0.76111         -0.00000         1.78333
  H        -0.66360          0.00000         1.79857
  C        -1.28930         -0.00000        -0.76691
  H        -1.08226          0.00000        -1.83719
  H        -1.88799         -0.87818        -0.53098
  H        -1.88799          0.87818        -0.53098
9
 step=         182     theta[rad]=           1.9059
  C        -0.02057         -0.00000         0.02974
  C         0.02020          0.00000         1.34828
  H         0.89930         -0.00000        -0.53659
  H         0.95498         -0.00000         1.89730
  H        -0.88740          0.00000         1.94712
  C        -1.28922         -0.00000        -0.76730
  H        -1.08255          0.00000        -1.83367
  H        -1.88830         -0.87857        -0.53094
  H        -1.88830          0.87857        -0.53094
9
 step=         183     theta[rad]=           1.9164
  C        -0.01722         -0.00000         0.02932
  C         0.02243          0.00000         1.32677
  H         0.85996         -0.00000        -0.51366
  H         1.13168         -0.00000         2.00118
  H        -1.09138          0.00000         2.08251
  C        -1.28914         -0.00000        -0.76764
  H        -1.08281          0.00000        -1.83046
  H        -1.88859         -0.87891        -0.53090
  H        -1.88859          0.87891        -0.53090
9
 step=         184     theta[rad]=           1.9268
  C        -0.02318         -0.00000         0.03007
  C         0.01846          0.00000         1.36506
  H         0.92998         -0.00000        -0.55447
  H         0.81719         -0.00000         1.81629
  H        -0.72834          0.00000         1.84154
  C        -1.28928         -0.00000        -0.76702
  H        -1.08234          0.00000        -1.83617
  H        -1.88808         -0.87829        -0.53097
  H        -1.88808          0.87829        -0.53097
9
 step=         185     theta[rad]=           1.9373
  C        -0.02238         -0.00000         0.02997
  C         0.01899          0.00000         1.35991
  H         0.92056         -0.00000        -0.54898
  H         0.85951         -0.00000         1.84117
  H        -0.77719          0.00000         1.87396
  C        -1.28926         -0.00000        -0.76711
  H        -1.08241          0.00000        -1.83540
  H        -1.88815         -0.87838        -0.53096
  H        -1.88815          0.87838        -0.53096
9
 step=         186     theta[rad]=           1.9478
  C        -0.01698         -0.00000         0.02929
  C         0.02260          0.00000         1.32520
  H         0.85708         -0.00000        -0.51198
  H         1.14462         -0.00000         2.00878
  H        -1.10631          0.00000         2.09242
  C        -1.28913         -0.00000        -0.76767
  H        -1.08283          0.00000        -1.83022
  H        -1.88861         -0.87894        -0.53090
  H        -1.88861          0.87894        -0.53090
9
 step=         187     theta[rad]=           1.9583
  C        -0.02177         -0.00000         0.02989
  C         0.01940          0.00000         1.35596
  H         0.91333         -0.00000        -0.54477
  H         0.89195         -0.00000         1.86024
  H        -0.81464          0.00000         1.89882
  C        -1.28924         -0.00000        -0.76717
  H        -1.08245          0.00000        -1.83481
  H        -1.88820         -0.87844        -0.53095
  H        -1.88820          0.87844        -0.53095
9
 step=         188     theta[rad]=           1.9687
  C        -0.02356         -0.00000         0.03012
  C         0.01821          0.00000         1.36748
  H         0.93442         -0.00000        -0.55705
  H         0.79725         -0.00000         1.80457
  H        -0.70532          0.00000         1.82626
  C        -1.28928         -0.00000        -0.76698
  H        -1.08231          0.00000        -1.83653
  H        -1.88805         -0.87825        -0.53097
  H        -1.88805          0.87825        -0.53097
9
 step=         189     theta[rad]=           1.9792
  C        -0.01737         -0.00000         0.02934
  C         0.02234          0.00000         1.32770
  H         0.86166         -0.00000        -0.51465
  H         1.12405         -0.00000         1.99669
  H        -1.08257          0.00000         2.07666
  C        -1.28914         -0.00000        -0.76763
  H        -1.08279          0.00000        -1.83060
  H        -1.88858         -0.87890        -0.53091
  H        -1.88858          0.87890        -0.53091
9
 step=         190     theta[rad]=           1.9897
  C        -0.02049         -0.00000         0.02973
  C         0.02025          0.00000         1.34778
  H         0.89839         -0.00000        -0.53606
  H         0.95909         -0.00000         1.89972
  H        -0.89215          0.00000         1.95027
  C        -1.28921         -0.00000        -0.76730
  H        -1.08255          0.00000        -1.83359
  H        -1.88831         -0.87857        -0.53094
  H        -1.88831          0.87857        -0.53094
9
 step=         191     theta[rad]=           2.0001
  C        -0.02416         -0.00000         0.03019
  C         0.01781          0.00000         1.37130
  H         0.94139         -0.00000        -0.56112
  H         0.76592         -0.00000         1.78615
  H        -0.66916          0.00000         1.80226
  C        -1.28930         -0.00000        -0.76692
  H        -1.08227          0.00000        -1.83710
  H        -1.88800         -0.87819        -0.53098
  H        -1.88800          0.87819        -0.53098
9
 step=         192     theta[rad]=           2.0106
  C        -0.01797         -0.00000         0.02942
  C         0.02193          0.00000         1.33158
  H         0.86876         -0.00000        -0.51879
  H         1.09218         -0.00000         1.97796
  H        -1.04578          0.00000         2.05224
  C        -1.28916         -0.00000        -0.76757
  H        -1.08275          0.00000        -1.83118
  H        -1.88853         -0.87884        -0.53091
  H        -1.88853          0.87884        -0.53091
9
 step=         193     theta[rad]=           2.0211
  C        -0.01957         -0.00000         0.02962
  C         0.02087          0.00000         1.34188
  H         0.88758         -0.00000        -0.52976
  H         1.00762         -0.00000         1.92824
  H        -0.94817          0.00000         1.98745
  C        -1.28919         -0.00000        -0.76740
  H        -1.08262          0.00000        -1.83271
  H        -1.88839         -0.87867        -0.53093
  H        -1.88839          0.87867        -0.53093
9
 step=         194     theta[rad]=           2.0316
  C        -0.02437         -0.00000         0.03022
  C         0.01767          0.00000         1.37268
  H         0.94393         -0.00000        -0.56260
  H         0.75453         -0.00000         1.77946
  H        -0.65601          0.00000         1.79353
  C        -1.28930         -0.00000        -0.76690
  H        -1.08225          0.00000        -1.83731
  H        -1.88798         -0.87817        -0.53098
  H        -1.88798          0.87817        -0.53098
9
 step=         195     theta[rad]=           2.0420
  C        -0.01850         -0.00000         0.02948
  C         0.02158          0.00000         1.33496
  H         0.87494         -0.00000        -0.52239
  H         1.06441         -0.00000         1.96163
  H        -1.01373          0.00000         2.03097
  C        -1.28917         -0.00000        -0.76751
  H        -1.08271          0.00000        -1.83168
  H        -1.88848         -0.87878        -0.53092
  H        -1.88848          0.87878        -0.53092
9
 step=         196     theta[rad]=           2.0525
  C        -0.01903         -0.00000         0.02955
  C         0.02123          0.00000         1.33839
  H         0.88121         -0.00000        -0.52604
  H         1.03626         -0.00000         1.94508
  H        -0.98122          0.00000         2.00939
  C        -1.28918         -0.00000        -0.76746
  H        -1.08267          0.00000        -1.83219
  H        -1.88844         -0.87873        -0.53092
  H        -1.88844          0.87873        -0.53092
9
 step=         197     theta[rad]=           2.0630
  C        -0.02442         -0.00000         0.03023
  C         0.01764          0.00000         1.37297
  H         0.94444         -0.00000        -0.56290
  H         0.75221         -0.00000         1.77809
  H        -0.65332          0.00000         1.79175
  C        -1.28930         -0.00000        -0.76690
  H        -1.08225          0.00000        -1.83735
  H        -1.88797         -0.87817        -0.53098
  H        -1.88797          0.87817        -0.53098
9
 step=         198     theta[rad]=           2.0735
  C        -0.01879         -0.00000         0.02952
  C         0.02139          0.00000         1.33685
  H         0.87839         -0.00000        -0.52440
  H         1.04892         -0.00000         1.95253
  H        -0.99585          0.00000         2.01910
  C        -1.28917         -0.00000        -0.76748
  H        -1.08268          0.00000        -1.83196
  H        -1.88846         -0.87875        -0.53092
  H        -1.88846          0.87875        -0.53092
9
 step=         199     theta[rad]=           2.0839
  C        -0.01882         -0.00000         0.02952
  C         0.02136          0.00000         1.33706
  H         0.87878         -0.00000        -0.52463
  H         1.04715         -0.00000         1.95148
  H        -0.99379          0.00000         2.01774
  C        -1.28918         -0.00000        -0.76748
  H        -1.08268          0.00000        -1.83199
  H        -1.88845         -0.87875        -0.53092
  H        -1.88845          0.87875        -0.53092
9
 step=         200     theta[rad]=           2.0944
  C        -0.02442         -0.00000         0.03023
  C         0.01763          0.00000         1.37298
  H         0.94446         -0.00000        -0.56291
  H         0.75211         -0.00000         1.77803
  H        -0.65321          0.00000         1.79167
  C        -1.28930         -0.00000        -0.76690
  H        -1.08225          0.00000        -1.83735
  H        -1.88797         -0.87817        -0.53098
  H        -1.88797          0.87817        -0.53098
9
 step=         201     theta[rad]=           2.1049
  C        -0.01879         -0.00000         0.02952
  C         0.02139          0.00000         1.33685
  H         0.87839         -0.00000        -0.52440
  H         1.04892         -0.00000         1.95253
  H        -0.99585          0.00000         2.01910
  C        -1.28917         -0.00000        -0.76748
  H        -1.08268          0.00000        -1.83196
  H        -1.88846         -0.87875        -0.53092
  H        -1.88846          0.87875        -0.53092
9
 step=         202     theta[rad]=           2.1153
  C        -0.01893         -0.00000         0.02954
  C         0.02130          0.00000         1.33772
  H         0.87999         -0.00000        -0.52533
  H         1.04175         -0.00000         1.94831
  H        -0.98756          0.00000         2.01360
  C        -1.28918         -0.00000        -0.76747
  H        -1.08267          0.00000        -1.83209
  H        -1.88844         -0.87874        -0.53092
  H        -1.88844          0.87874        -0.53092
9
 step=         203     theta[rad]=           2.1258
  C        -0.02441         -0.00000         0.03022
  C         0.01764          0.00000         1.37293
  H         0.94438         -0.00000        -0.56286
  H         0.75250         -0.00000         1.77826
  H        -0.65366          0.00000         1.79197
  C        -1.28930         -0.00000        -0.76690
  H        -1.08225          0.00000        -1.83735
  H        -1.88797         -0.87817        -0.53098
  H        -1.88797          0.87817        -0.53098
9
 step=         204     theta[rad]=           2.1363
  C        -0.01850         -0.00000         0.02948
  C         0.02158          0.00000         1.33496
  H         0.87494         -0.00000        -0.52239
  H         1.06441         -0.00000         1.96163
  H        -1.01373          0.00000         2.03097
  C        -1.28917         -0.00000        -0.76751
  H        -1.08271          0.00000        -1.83168
  H        -1.88848         -0.87878        -0.53092
  H        -1.88848          0.87878        -0.53092
9
 step=         205     theta[rad]=           2.1468
  C        -0.01935         -0.00000         0.02959
  C         0.02101          0.00000         1.34046
  H         0.88498         -0.00000        -0.52825
  H         1.01929         -0.00000         1.93510
  H        -0.96164          0.00000         1.99639
  C        -1.28919         -0.00000        -0.76742
  H        -1.08264          0.00000        -1.83250
  H        -1.88841         -0.87869        -0.53093
  H        -1.88841          0.87869        -0.53093
9
 step=         206     theta[rad]=           2.1572
  C        -0.02433         -0.00000         0.03021
  C         0.01769          0.00000         1.37240
  H         0.94341         -0.00000        -0.56230
  H         0.75685         -0.00000         1.78082
  H        -0.65868          0.00000         1.79530
  C        -1.28930         -0.00000        -0.76690
  H        -1.08225          0.00000        -1.83727
  H        -1.88798         -0.87817        -0.53098
  H        -1.88798          0.87817        -0.53098
9
 step=         207     theta[rad]=           2.1677
  C        -0.01797         -0.00000         0.02942
  C         0.02193          0.00000         1.33158
  H         0.86876         -0.00000        -0.51879
  H         1.09218         -0.00000         1.97796
  H        -1.04578          0.00000         2.05224
  C        -1.28916         -0.00000        -0.76757
  H        -1.08275          0.00000        -1.83118
  H        -1.88853         -0.87884        -0.53091
  H        -1.88853          0.87884        -0.53091
9
 step=         208     theta[rad]=           2.1782
  C        -0.02014         -0.00000         0.02969
  C         0.02048          0.00000         1.34554
  H         0.89428         -0.00000        -0.53366
  H         0.97753         -0.00000         1.91056
  H        -0.91344          0.00000         1.96440
  C        -1.28921         -0.00000        -0.76734
  H        -1.08258          0.00000        -1.83326
  H        -1.88834         -0.87861        -0.53094
  H        -1.88834          0.87861        -0.53094
9
 step=         209     theta[rad]=           2.1886
  C        -0.02401         -0.00000         0.03017
  C         0.01791          0.00000         1.37037
  H         0.93969         -0.00000        -0.56013
  H         0.77355         -0.00000         1.79064
  H        -0.67796          0.00000         1.80810
  C        -1.28929         -0.00000        -0.76694
  H        -1.08228          0.00000        -1.83696
  H        -1.88801         -0.87821        -0.53098
  H        -1.88801          0.87821        -0.53098
9
 step=         210     theta[rad]=           2.1991
  C        -0.01737         -0.00000         0.02934
  C         0.02234          0.00000         1.32770
  H         0.86166         -0.00000        -0.51465
  H         1.12405         -0.00000         1.99669
  H        -1.08257          0.00000         2.07666
  C        -1.28914         -0.00000        -0.76763
  H        -1.08279          0.00000        -1.83060
  H        -1.88858         -0.87890        -0.53091
  H        -1.88858          0.87890        -0.53091
9
 step=         211     theta[rad]=           2.2096
  C        -0.02131         -0.00000         0.02983
  C         0.01971          0.00000         1.35303
  H         0.90798         -0.00000        -0.54165
  H         0.91600         -0.00000         1.87438
  H        -0.84240          0.00000         1.91725
  C        -1.28923         -0.00000        -0.76722
  H        -1.08249          0.00000        -1.83438
  H        -1.88824         -0.87849        -0.53095
  H        -1.88824          0.87849        -0.53095
9
 step=         212     theta[rad]=           2.2201
  C        -0.02324         -0.00000         0.03008
  C         0.01842          0.00000         1.36543
  H         0.93065         -0.00000        -0.55486
  H         0.81416         -0.00000         1.81451
  H        -0.72484          0.00000         1.83922
  C        -1.28928         -0.00000        -0.76702
  H        -1.08234          0.00000        -1.83623
  H        -1.88807         -0.87829        -0.53097
  H        -1.88807          0.87829        -0.53097
9
 step=         213     theta[rad]=           2.2305
  C        -0.01698         -0.00000         0.02929
  C         0.02260          0.00000         1.32520
  H         0.85708         -0.00000        -0.51198
  H         1.14462         -0.00000         2.00878
  H        -1.10631          0.00000         2.09242
  C        -1.28913         -0.00000        -0.76767
  H        -1.08283          0.00000        -1.83022
  H        -1.88861         -0.87894        -0.53090
  H        -1.88861          0.87894        -0.53090
9
 step=         214     theta[rad]=           2.2410
  C        -0.02272         -0.00000         0.03001
  C         0.01877          0.00000         1.36208
  H         0.92453         -0.00000        -0.55129
  H         0.84168         -0.00000         1.83069
  H        -0.75660          0.00000         1.86030
  C        -1.28926         -0.00000        -0.76707
  H        -1.08238          0.00000        -1.83573
  H        -1.88812         -0.87834        -0.53096
  H        -1.88812          0.87834        -0.53096
9
 step=         215     theta[rad]=           2.2515
  C        -0.02184         -0.00000         0.02990
  C         0.01935          0.00000         1.35643
  H         0.91421         -0.00000        -0.54528
  H         0.88802         -0.00000         1.85793
  H        -0.81010          0.00000         1.89581
  C        -1.28924         -0.00000        -0.76716
  H        -1.08245          0.00000        -1.83488
  H        -1.88819         -0.87843        -0.53096
  H        -1.88819          0.87843        -0.53096
9
 step=         216     theta[rad]=           2.2619
  C        -0.01722         -0.00000         0.02932
  C         0.02243          0.00000         1.32677
  H         0.85996         -0.00000        -0.51366
  H         1.13168         -0.00000         2.00118
  H        -1.09138          0.00000         2.08251
  C        -1.28914         -0.00000        -0.76764
  H        -1.08281          0.00000        -1.83046
  H        -1.88859         -0.87891        -0.53090
  H        -1.88859          0.87891        -0.53090
9
 step=         217     theta[rad]=           2.2724
  C        -0.02398         -0.00000         0.03017
  C         0.01793          0.00000         1.37014
  H         0.93927         -0.00000        -0.55988
  H         0.77546         -0.00000         1.79176
  H        -0.68016          0.00000         1.80956
  C        -1.28929         -0.00000        -0.76694
  H        -1.08228          0.00000        -1.83693
  H        -1.88801         -0.87821        -0.53098
  H        -1.88801          0.87821        -0.53098
9
 step=         218     theta[rad]=           2.2829
  C        -0.01988         -0.00000         0.02965
  C         0.02066          0.00000         1.34381
  H         0.89113         -0.00000        -0.53182
  H         0.99171         -0.00000         1.91889
  H        -0.92980          0.00000         1.97526
  C        -1.28920         -0.00000        -0.76737
  H        -1.08260          0.00000        -1.83300
  H        -1.88836         -0.87864        -0.53093
  H        -1.88836          0.87864        -0.53093
9
 step=         219     theta[rad]=           2.2934
  C        -0.01850         -0.00000         0.02948
  C         0.02158          0.00000         1.33496
  H         0.87494         -0.00000        -0.52239
  H         1.06441         -0.00000         1.96163
  H        -1.01373          0.00000         2.03097
  C        -1.28917         -0.00000        -0.76751
  H        -1.08271          0.00000        -1.83168
  H        -1.88848         -0.87878        -0.53092
  H        -1.88848          0.87878        -0.53092
9
 step=         220     theta[rad]=           2.3038
  C        -0.02440         -0.00000         0.03022
  C         0.01765          0.00000         1.37285
  H         0.94422         -0.00000        -0.56277
  H         0.75319         -0.00000         1.77867
  H        -0.65446          0.00000         1.79250
  C        -1.28930         -0.00000        -0.76690
  H        -1.08225          0.00000        -1.83733
  H        -1.88797         -0.87817        -0.53098
  H        -1.88797          0.87817        -0.53098
9
 step=         221     theta[rad]=           2.3143
  C        -0.01789         -0.00000         0.02941
  C         0.02199          0.00000         1.33108
  H         0.86783         -0.00000        -0.51825
  H         1.09634         -0.00000         1.98040
  H        -1.05058          0.00000         2.05543
  C        -1.28915         -0.00000        -0.76757
  H        -1.08275          0.00000        -1.83110
  H        -1.88853         -0.87884        -0.53091
  H        -1.88853          0.87884        -0.53091
9
 step=         222     theta[rad]=           2.3248
  C        -0.02081         -0.00000         0.02977
  C         0.02004          0.00000         1.34979
  H         0.90205         -0.00000        -0.53819
  H         0.94262         -0.00000         1.89003
  H        -0.87313          0.00000         1.93765
  C        -1.28922         -0.00000        -0.76727
  H        -1.08253          0.00000        -1.83389
  H        -1.88828         -0.87854        -0.53094
  H        -1.88828          0.87854        -0.53094
9
 step=         223     theta[rad]=           2.3353
  C        -0.02330         -0.00000         0.03008
  C         0.01838          0.00000         1.36579
  H         0.93131         -0.00000        -0.55525
  H         0.81118         -0.00000         1.81276
  H        -0.72140          0.00000         1.83694
  C        -1.28928         -0.00000        -0.76701
  H        -1.08233          0.00000        -1.83628
  H        -1.88807         -0.87828        -0.53097
  H        -1.88807          0.87828        -0.53097
9
 step=         224     theta[rad]=           2.3457
  C        -0.01696         -0.00000         0.02929
  C         0.02261          0.00000         1.32509
  H         0.85689         -0.00000        -0.51187
  H         1.14549         -0.00000         2.00930
  H        -1.10732          0.00000         2.09309
  C        -1.28913         -0.00000        -0.76767
  H        -1.08283          0.00000        -1.83021
  H        -1.88861         -0.87894        -0.53090
  H        -1.88861          0.87894        -0.53090
9
 step=         225     theta[rad]=           2.3562
  C        -0.02333         -0.00000         0.03009
  C         0.01836          0.00000         1.36597
  H         0.93164         -0.00000        -0.55544
  H         0.80972         -0.00000         1.81190
  H        -0.71971          0.00000         1.83582
  C        -1.28928         -0.00000        -0.76701
  H        -1.08233          0.00000        -1.83631
  H        -1.88807         -0.87828        -0.53097
  H        -1.88807          0.87828        -0.53097
9
 step=         226     theta[rad]=           2.3667
  C        -0.02065         -0.00000         0.02975
  C         0.02015          0.00000         1.34879
  H         0.90022         -0.00000        -0.53712
  H         0.95086         -0.00000         1.89488
  H        -0.88264          0.00000         1.94396
  C        -1.28922         -0.00000        -0.76729
  H        -1.08254          0.00000        -1.83374
  H        -1.88830         -0.87856        -0.53094
  H        -1.88830          0.87856        -0.53094
9
 step=         227     theta[rad]=           2.3771
  C        -0.01814         -0.00000         0.02944
  C         0.02182          0.00000         1.33265
  H         0.87070         -0.00000        -0.51992
  H         1.08344         -0.00000         1.97282
  H        -1.03570          0.00000         2.04555
  C        -1.28916         -0.00000        -0.76755
  H        -1.08273          0.00000        -1.83133
  H        -1.88851         -0.87882        -0.53091
  H        -1.88851          0.87882        -0.53091
9
 step=         228     theta[rad]=           2.3876
  C        -0.02441         -0.00000         0.03022
  C         0.01764          0.00000         1.37293
  H         0.94438         -0.00000        -0.56286
  H         0.75250         -0.00000         1.77826
  H        -0.65366          0.00000         1.79197
  C        -1.28930         -0.00000        -0.76690
  H        -1.08225          0.00000        -1.83735
  H        -1.88797         -0.87817        -0.53098
  H        -1.88797          0.87817        -0.53098
9
 step=         229     theta[rad]=           2.3981
  C        -0.01779         -0.00000         0.02939
  C         0.02205          0.00000         1.33043
  H         0.86665         -0.00000        -0.51756
  H         1.10166         -0.00000         1.98353
  H        -1.05672          0.00000         2.05950
  C        -1.28915         -0.00000        -0.76759
  H        -1.08276          0.00000        -1.83100
  H        -1.88854         -0.87886        -0.53091
  H        -1.88854          0.87886        -0.53091
9
 step=         230     theta[rad]=           2.4086
  C        -0.02127         -0.00000         0.02983
  C         0.01973          0.00000         1.35278
  H         0.90753         -0.00000        -0.54138
  H         0.91803         -0.00000         1.87558
  H        -0.84475          0.00000         1.91881
  C        -1.28923         -0.00000        -0.76722
  H        -1.08249          0.00000        -1.83434
  H        -1.88824         -0.87849        -0.53095
  H        -1.88824          0.87849        -0.53095
9
 step=         231     theta[rad]=           2.4190
  C        -0.02269         -0.00000         0.03001
  C         0.01879          0.00000         1.36187
  H         0.92414         -0.00000        -0.55107
  H         0.84341         -0.00000         1.83171
  H        -0.75860          0.00000         1.86163
  C        -1.28926         -0.00000        -0.76708
  H        -1.08238          0.00000        -1.83570
  H        -1.88812         -0.87835        -0.53096
  H        -1.88812          0.87835        -0.53096
9
 step=         232     theta[rad]=           2.4295
  C        -0.01712         -0.00000         0.02931
  C         0.02250          0.00000         1.32611
  H         0.85876         -0.00000        -0.51296
  H         1.13710         -0.00000         2.00436
  H        -1.09763          0.00000         2.08666
  C        -1.28914         -0.00000        -0.76766
  H        -1.08281          0.00000        -1.83036
  H        -1.88860         -0.87893        -0.53090
  H        -1.88860          0.87893        -0.53090
9
 step=         233     theta[rad]=           2.4400
  C        -0.02411         -0.00000         0.03019
  C         0.01784          0.00000         1.37101
  H         0.94086         -0.00000        -0.56081
  H         0.76829         -0.00000         1.78754
  H        -0.67189          0.00000         1.80407
  C        -1.28930         -0.00000        -0.76693
  H        -1.08227          0.00000        -1.83706
  H        -1.88800         -0.87820        -0.53098
  H        -1.88800          0.87820        -0.53098
9
 step=         234     theta[rad]=           2.4504
  C        -0.01900         -0.00000         0.02954
  C         0.02125          0.00000         1.33817
  H         0.88080         -0.00000        -0.52581
  H         1.03810         -0.00000         1.94616
  H        -0.98335          0.00000         2.01080
  C        -1.28918         -0.00000        -0.76746
  H        -1.08267          0.00000        -1.83216
  H        -1.88844         -0.87873        -0.53092
  H        -1.88844          0.87873        -0.53092
9
 step=         235     theta[rad]=           2.4609
  C        -0.01991         -0.00000         0.02966
  C         0.02064          0.00000         1.34406
  H         0.89157         -0.00000        -0.53209
  H         0.98969         -0.00000         1.91771
  H        -0.92747          0.00000         1.97372
  C        -1.28920         -0.00000        -0.76736
  H        -1.08260          0.00000        -1.83304
  H        -1.88836         -0.87863        -0.53093
  H        -1.88836          0.87863        -0.53093
9
 step=         236     theta[rad]=           2.4714
  C        -0.02356         -0.00000         0.03012
  C         0.01821          0.00000         1.36748
  H         0.93442         -0.00000        -0.55705
  H         0.79725         -0.00000         1.80457
  H        -0.70532          0.00000         1.82626
  C        -1.28928         -0.00000        -0.76698
  H        -1.08231          0.00000        -1.83653
  H        -1.88805         -0.87825        -0.53097
  H        -1.88805          0.87825        -0.53097
9
 step=         237     theta[rad]=           2.4819
  C        -0.01696         -0.00000         0.02929
  C         0.02261          0.00000         1.32510
  H         0.85691         -0.00000        -0.51188
  H         1.14539         -0.00000         2.00924
  H        -1.10721          0.00000         2.09302
  C        -1.28913         -0.00000        -0.76767
  H        -1.08283          0.00000        -1.83021
  H        -1.88861         -0.87894        -0.53090
  H        -1.88861          0.87894        -0.53090
9
 step=         238     theta[rad]=           2.4923
  C        -0.02373         -0.00000         0.03014
  C         0.01809          0.00000         1.36855
  H         0.93637         -0.00000        -0.55819
  H         0.78847         -0.00000         1.79941
  H        -0.69519          0.00000         1.81954
  C        -1.28929         -0.00000        -0.76697
  H        -1.08230          0.00000        -1.83669
  H        -1.88803         -0.87824        -0.53098
  H        -1.88803          0.87824        -0.53098
9
 step=         239     theta[rad]=           2.5028
  C        -0.01954         -0.00000         0.02961
  C         0.02089          0.00000         1.34164
  H         0.88715         -0.00000        -0.52951
  H         1.00958         -0.00000         1.92940
  H        -0.95043          0.00000         1.98895
  C        -1.28919         -0.00000        -0.76740
  H        -1.08263          0.00000        -1.83268
  H        -1.88839         -0.87867        -0.53093
  H        -1.88839          0.87867        -0.53093
9
 step=         240     theta[rad]=           2.5133
  C        -0.01954         -0.00000         0.02961
  C         0.02089          0.00000         1.34164
  H         0.88715         -0.00000        -0.52951
  H         1.00958         -0.00000         1.92940
  H        -0.95043          0.00000         1.98895
  C        -1.28919         -0.00000        -0.76740
  H        -1.08263          0.00000        -1.83268
  H        -1.88839         -0.87867        -0.53093
  H        -1.88839          0.87867        -0.53093
9
 step=         241     theta[rad]=           2.5237
  C        -0.02368         -0.00000         0.03013
  C         0.01813          0.00000         1.36826
  H         0.93583         -0.00000        -0.55788
  H         0.79090         -0.00000         1.80083
  H        -0.69798          0.00000         1.82139
  C        -1.28929         -0.00000        -0.76697
  H        -1.08230          0.00000        -1.83665
  H        -1.88804         -0.87824        -0.53098
  H        -1.88804          0.87824        -0.53098
9
 step=         242     theta[rad]=           2.5342
  C        -0.01696         -0.00000         0.02929
  C         0.02261          0.00000         1.32510
  H         0.85691         -0.00000        -0.51188
  H         1.14539         -0.00000         2.00924
  H        -1.10721          0.00000         2.09302
  C        -1.28913         -0.00000        -0.76767
  H        -1.08283          0.00000        -1.83021
  H        -1.88861         -0.87894        -0.53090
  H        -1.88861          0.87894        -0.53090
9
 step=         243     theta[rad]=           2.5447
  C        -0.02384         -0.00000         0.03015
  C         0.01802          0.00000         1.36925
  H         0.93765         -0.00000        -0.55894
  H         0.78273         -0.00000         1.79603
  H        -0.68856          0.00000         1.81514
  C        -1.28929         -0.00000        -0.76696
  H        -1.08229          0.00000        -1.83680
  H        -1.88802         -0.87823        -0.53098
  H        -1.88802          0.87823        -0.53098
9
 step=         244     theta[rad]=           2.5552
  C        -0.01917         -0.00000         0.02957
  C         0.02113          0.00000         1.33930
  H         0.88287         -0.00000        -0.52701
  H         1.02880         -0.00000         1.94070
  H        -0.97262          0.00000         2.00368
  C        -1.28918         -0.00000        -0.76744
  H        -1.08265          0.00000        -1.83233
  H        -1.88842         -0.87871        -0.53093
  H        -1.88842          0.87871        -0.53093
9
 step=         245     theta[rad]=           2.5656
  C        -0.02011         -0.00000         0.02968
  C         0.02051          0.00000         1.34529
  H         0.89383         -0.00000        -0.53340
  H         0.97957         -0.00000         1.91175
  H        -0.91579          0.00000         1.96596
  C        -1.28920         -0.00000        -0.76734
  H        -1.08258          0.00000        -1.83322
  H        -1.88834         -0.87861        -0.53094
  H        -1.88834          0.87861        -0.53094
9
 step=         246     theta[rad]=           2.5761
  C        -0.02316         -0.00000         0.03007
  C         0.01848          0.00000         1.36487
  H         0.92963         -0.00000        -0.55427
  H         0.81873         -0.00000         1.81720
  H        -0.73011          0.00000         1.84272
  C        -1.28927         -0.00000        -0.76703
  H        -1.08235          0.00000        -1.83614
  H        -1.88808         -0.87830        -0.53097
  H        -1.88808          0.87830        -0.53097
9
 step=         247     theta[rad]=           2.5866
  C        -0.01712         -0.00000         0.02931
  C         0.02250          0.00000         1.32611
  H         0.85876         -0.00000        -0.51296
  H         1.13710         -0.00000         2.00436
  H        -1.09763          0.00000         2.08666
  C        -1.28914         -0.00000        -0.76766
  H        -1.08281          0.00000        -1.83036
  H        -1.88860         -0.87893        -0.53090
  H        -1.88860          0.87893        -0.53090
9
 step=         248     theta[rad]=           2.5970
  C        -0.02430         -0.00000         0.03021
  C         0.01771          0.00000         1.37223
  H         0.94309         -0.00000        -0.56211
  H         0.75829         -0.00000         1.78167
  H        -0.66035          0.00000         1.79641
  C        -1.28930         -0.00000        -0.76691
  H        -1.08226          0.00000        -1.83724
  H        -1.88798         -0.87818        -0.53098
  H        -1.88798          0.87818        -0.53098
9
 step=         249     theta[rad]=           2.6075
  C        -0.01805         -0.00000         0.02943
  C         0.02188          0.00000         1.33211
  H         0.86971         -0.00000        -0.51935
  H         1.08788         -0.00000         1.97543
  H        -1.04082          0.00000         2.04895
  C        -1.28916         -0.00000        -0.76756
  H        -1.08274          0.00000        -1.83125
  H        -1.88852         -0.87883        -0.53091
  H        -1.88852          0.87883        -0.53091
9
 step=         250     theta[rad]=           2.6180
  C        -0.02165         -0.00000         0.02988
  C         0.01948          0.00000         1.35523
  H         0.91201         -0.00000        -0.54400
  H         0.89789         -0.00000         1.86374
  H        -0.82150          0.00000         1.90338
  C        -1.28924         -0.00000        -0.76718
  H        -1.08246          0.00000        -1.83471
  H        -1.88821         -0.87845        -0.53095
  H        -1.88821          0.87845        -0.53095
9
 step=         251     theta[rad]=           2.6285
  C        -0.02162         -0.00000         0.02987
  C         0.01950          0.00000         1.35499
  H         0.91157         -0.00000        -0.54374
  H         0.89989         -0.00000         1.86491
  H        -0.82380          0.00000         1.90490
  C        -1.28924         -0.00000        -0.76719
  H        -1.08246          0.00000        -1.83467
  H        -1.88821         -0.87846        -0.53095
  H        -1.88821          0.87846        -0.53095
9
 step=         252     theta[rad]=           2.6389
  C        -0.01814         -0.00000         0.02944
  C         0.02182          0.00000         1.33265
  H         0.87070         -0.00000        -0.51992
  H         1.08344         -0.00000         1.97282
  H        -1.03570          0.00000         2.04555
  C        -1.28916         -0.00000        -0.76755
  H        -1.08273          0.00000        -1.83133
  H        -1.88851         -0.87882        -0.53091
  H        -1.88851          0.87882        -0.53091
9
 step=         253     theta[rad]=           2.6494
  C        -0.02422         -0.00000         0.03020
  C         0.01776          0.00000         1.37173
  H         0.94218         -0.00000        -0.56158
  H         0.76238         -0.00000         1.78407
  H        -0.66507          0.00000         1.79955
  C        -1.28930         -0.00000        -0.76692
  H        -1.08226          0.00000        -1.83717
  H        -1.88799         -0.87819        -0.53098
  H        -1.88799          0.87819        -0.53098
9
 step=         254     theta[rad]=           2.6599
  C        -0.01701         -0.00000         0.02929
  C         0.02258          0.00000         1.32539
  H         0.85743         -0.00000        -0.51219
  H         1.14307         -0.00000         2.00787
  H        -1.10453          0.00000         2.09123
  C        -1.28913         -0.00000        -0.76767
  H        -1.08282          0.00000        -1.83025
  H        -1.88861         -0.87894        -0.53090
  H        -1.88861          0.87894        -0.53090
9
 step=         255     theta[rad]=           2.6704
  C        -0.02371         -0.00000         0.03014
  C         0.01811          0.00000         1.36841
  H         0.93610         -0.00000        -0.55804
  H         0.78968         -0.00000         1.80012
  H        -0.69658          0.00000         1.82046
  C        -1.28929         -0.00000        -0.76697
  H        -1.08230          0.00000        -1.83667
  H        -1.88803         -0.87824        -0.53098
  H        -1.88803          0.87824        -0.53098
9
 step=         256     theta[rad]=           2.6808
  C        -0.01896         -0.00000         0.02954
  C         0.02127          0.00000         1.33794
  H         0.88039         -0.00000        -0.52557
  H         1.03993         -0.00000         1.94724
  H        -0.98546          0.00000         2.01220
  C        -1.28918         -0.00000        -0.76746
  H        -1.08267          0.00000        -1.83213
  H        -1.88844         -0.87873        -0.53092
  H        -1.88844          0.87873        -0.53092
9
 step=         257     theta[rad]=           2.6913
  C        -0.02081         -0.00000         0.02977
  C         0.02004          0.00000         1.34979
  H         0.90205         -0.00000        -0.53819
  H         0.94262         -0.00000         1.89003
  H        -0.87313          0.00000         1.93765
  C        -1.28922         -0.00000        -0.76727
  H        -1.08253          0.00000        -1.83389
  H        -1.88828         -0.87854        -0.53094
  H        -1.88828          0.87854        -0.53094
9
 step=         258     theta[rad]=           2.7018
  C        -0.02217         -0.00000         0.02994
  C         0.01913          0.00000         1.35854
  H         0.91807         -0.00000        -0.54753
  H         0.87069         -0.00000         1.84774
  H        -0.79009          0.00000         1.88253
  C        -1.28925         -0.00000        -0.76713
  H        -1.08242          0.00000        -1.83520
  H        -1.88817         -0.87840        -0.53096
  H        -1.88817          0.87840        -0.53096
9
 step=         259     theta[rad]=           2.7122
  C        -0.01792         -0.00000         0.02941
  C         0.02197          0.00000         1.33124
  H         0.86814         -0.00000        -0.51843
  H         1.09497         -0.00000         1.97960
  H        -1.04900          0.00000         2.05438
  C        -1.28915         -0.00000        -0.76757
  H        -1.08275          0.00000        -1.83113
  H        -1.88853         -0.87884        -0.53091
  H        -1.88853          0.87884        -0.53091
9
 step=         260     theta[rad]=           2.7227
  C        -0.02424         -0.00000         0.03020
  C         0.01776          0.00000         1.37181
  H         0.94232         -0.00000        -0.56166
  H         0.76174         -0.00000         1.78369
  H        -0.66432          0.00000         1.79905
  C        -1.28930         -0.00000        -0.76691
  H        -1.08226          0.00000        -1.83718
  H        -1.88799         -0.87818        -0.53098
  H        -1.88799          0.87818        -0.53098
9
 step=         261     theta[rad]=           2.7332
  C        -0.01698         -0.00000         0.02929
  C         0.02260          0.00000         1.32520
  H         0.85708         -0.00000        -0.51198
  H         1.14462         -0.00000         2.00878
  H        -1.10631          0.00000         2.09242
  C        -1.28913         -0.00000        -0.76767
  H        -1.08283          0.00000        -1.83022
  H        -1.88861         -0.87894        -0.53090
  H        -1.88861          0.87894        -0.53090
9
 step=         262     theta[rad]=           2.7437
  C        -0.02398         -0.00000         0.03017
  C         0.01793          0.00000         1.37014
  H         0.93927         -0.00000        -0.55988
  H         0.77546         -0.00000         1.79176
  H        -0.68016          0.00000         1.80956
  C        -1.28929         -0.00000        -0.76694
  H        -1.08228          0.00000        -1.83693
  H        -1.88801         -0.87821        -0.53098
  H        -1.88801          0.87821        -0.53098
9
 step=         263     theta[rad]=           2.7541
  C        -0.01831         -0.00000         0.02946
  C         0.02171          0.00000         1.33377
  H         0.87277         -0.00000        -0.52112
  H         1.07418         -0.00000         1.96737
  H        -1.02500          0.00000         2.03845
  C        -1.28916         -0.00000        -0.76753
  H        -1.08272          0.00000        -1.83150
  H        -1.88850         -0.87880        -0.53092
  H        -1.88850          0.87880        -0.53092
9
 step=         264     theta[rad]=           2.7646
  C        -0.02184         -0.00000         0.02990
  C         0.01935          0.00000         1.35643
  H         0.91421         -0.00000        -0.54528
  H         0.88802         -0.00000         1.85793
  H        -0.81010          0.00000         1.89581
  C        -1.28924         -0.00000        -0.76716
  H        -1.08245          0.00000        -1.83488
  H        -1.88819         -0.87843        -0.53096
  H        -1.88819          0.87843        -0.53096
9
 step=         265     theta[rad]=           2.7751
  C        -0.02088         -0.00000         0.02978
  C         0.01999          0.00000         1.35029
  H         0.90297         -0.00000        -0.53873
  H         0.93851         -0.00000         1.88761
  H        -0.86838          0.00000         1.93449
  C        -1.28922         -0.00000        -0.76726
  H        -1.08252          0.00000        -1.83397
  H        -1.88828         -0.87853        -0.53094
  H        -1.88828          0.87853        -0.53094
9
 step=         266     theta[rad]=           2.7855
  C        -0.01921         -0.00000         0.02957
  C         0.02111          0.00000         1.33953
  H         0.88329         -0.00000        -0.52726
  H         1.02692         -0.00000         1.93959
  H        -0.97044          0.00000         2.00224
  C        -1.28918         -0.00000        -0.76744
  H        -1.08265          0.00000        -1.83236
  H        -1.88842         -0.87871        -0.53093
  H        -1.88842          0.87871        -0.53093
9
 step=         267     theta[rad]=           2.7960
  C        -0.02324         -0.00000         0.03008
  C         0.01842          0.00000         1.36543
  H         0.93065         -0.00000        -0.55486
  H         0.81416         -0.00000         1.81451
  H        -0.72484          0.00000         1.83922
  C        -1.28928         -0.00000        -0.76702
  H        -1.08234          0.00000        -1.83623
  H        -1.88807         -0.87829        -0.53097
  H        -1.88807          0.87829        -0.53097
9
 step=         268     theta[rad]=           2.8065
  C        -0.01738         -0.00000         0.02934
  C         0.02233          0.00000         1.32782
  H         0.86187         -0.00000        -0.51478
  H         1.12311         -0.00000         1.99614
  H        -1.08148          0.00000         2.07594
  C        -1.28914         -0.00000        -0.76763
  H        -1.08279          0.00000        -1.83061
  H        -1.88858         -0.87890        -0.53091
  H        -1.88858          0.87890        -0.53091
9
 step=         269     theta[rad]=           2.8170
  C        -0.02437         -0.00000         0.03022
  C         0.01767          0.00000         1.37268
  H         0.94393         -0.00000        -0.56260
  H         0.75453         -0.00000         1.77946
  H        -0.65601          0.00000         1.79353
  C        -1.28930         -0.00000        -0.76690
  H        -1.08225          0.00000        -1.83731
  H        -1.88798         -0.87817        -0.53098
  H        -1.88798          0.87817        -0.53098
9
 step=         270     theta[rad]=           2.8274
  C        -0.01701         -0.00000         0.02929
  C         0.02258          0.00000         1.32539
  H         0.85743         -0.00000        -0.51219
  H         1.14307         -0.00000         2.00787
  H        -1.10453          0.00000         2.09123
  C        -1.28913         -0.00000        -0.76767
  H        -1.08282          0.00000        -1.83025
  H        -1.88861         -0.87894        -0.53090
  H        -1.88861          0.87894        -0.53090
9
 step=         271     theta[rad]=           2.8379
  C        -0.02403         -0.00000         0.03018
  C         0.01789          0.00000         1.37048
  H         0.93990         -0.00000        -0.56025
  H         0.77262         -0.00000         1.79009
  H        -0.67689          0.00000         1.80739
  C        -1.28929         -0.00000        -0.76694
  H        -1.08228          0.00000        -1.83698
  H        -1.88801         -0.87821        -0.53098
  H        -1.88801          0.87821        -0.53098
9
 step=         272     theta[rad]=           2.8484
  C        -0.01797         -0.00000         0.02942
  C         0.02193          0.00000         1.33158
  H         0.86876         -0.00000        -0.51879
  H         1.09218         -0.00000         1.97796
  H        -1.04578          0.00000         2.05224
  C        -1.28916         -0.00000        -0.76757
  H        -1.08275          0.00000        -1.83118
  H        -1.88853         -0.87884        -0.53091
  H        -1.88853          0.87884        -0.53091
9
 step=         273     theta[rad]=           2.8588
  C        -0.02259         -0.00000         0.03000
  C         0.01886          0.00000         1.36122
  H         0.92297         -0.00000        -0.55038
  H         0.84868         -0.00000         1.83480
  H        -0.76469          0.00000         1.86567
  C        -1.28926         -0.00000        -0.76709
  H        -1.08239          0.00000        -1.83560
  H        -1.88813         -0.87836        -0.53096
  H        -1.88813          0.87836        -0.53096
9
 step=         274     theta[rad]=           2.8693
  C        -0.01972         -0.00000         0.02964
  C         0.02077          0.00000         1.34284
  H         0.88934         -0.00000        -0.53079
  H         0.99971         -0.00000         1.92359
  H        -0.93903          0.00000         1.98139
  C        -1.28920         -0.00000        -0.76738
  H        -1.08261          0.00000        -1.83286
  H        -1.88838         -0.87865        -0.53093
  H        -1.88838          0.87865        -0.53093
9
 step=         275     theta[rad]=           2.8798
  C        -0.02069         -0.00000         0.02976
  C         0.02012          0.00000         1.34904
  H         0.90068         -0.00000        -0.53739
  H         0.94880         -0.00000         1.89367
  H        -0.88027          0.00000         1.94238
  C        -1.28922         -0.00000        -0.76728
  H        -1.08254          0.00000        -1.83378
  H        -1.88829         -0.87855        -0.53094
  H        -1.88829          0.87855        -0.53094
9
 step=         276     theta[rad]=           2.8903
  C        -0.02162         -0.00000         0.02987
  C         0.01950          0.00000         1.35499
  H         0.91157         -0.00000        -0.54374
  H         0.89989         -0.00000         1.86491
  H        -0.82380          0.00000         1.90490
  C        -1.28924         -0.00000        -0.76719
  H        -1.08246          0.00000        -1.83467
  H        -1.88821         -0.87846        -0.53095
  H        -1.88821          0.87846        -0.53095
9
 step=         277     theta[rad]=           2.9007
  C        -0.01893         -0.00000         0.02954
  C         0.02130          0.00000         1.33772
  H         0.87999         -0.00000        -0.52533
  H         1.04175         -0.00000         1.94831
  H        -0.98756          0.00000         2.01360
  C        -1.28918         -0.00000        -0.76747
  H        -1.08267          0.00000        -1.83209
  H        -1.88844         -0.87874        -0.53092
  H        -1.88844          0.87874        -0.53092
9
 step=         278     theta[rad]=           2.9112
  C        -0.02316         -0.00000         0.03007
  C         0.01848          0.00000         1.36487
  H         0.92963         -0.00000        -0.55427
  H         0.81873         -0.00000         1.81720
  H        -0.73011          0.00000         1.84272
  C        -1.28927         -0.00000        -0.76703
  H        -1.08235          0.00000        -1.83614
  H        -1.88808         -0.87830        -0.53097
  H        -1.88808          0.87830        -0.53097
9
 step=         279     theta[rad]=           2.9217
  C        -0.01767         -0.00000         0.02938
  C         0.02213          0.00000         1.32967
  H         0.86525         -0.00000        -0.51675
  H         1.10793         -0.00000         1.98721
  H        -1.06396          0.00000         2.06431
  C        -1.28915         -0.00000        -0.76760
  H        -1.08277          0.00000        -1.83089
  H        -1.88855         -0.87887        -0.53091
  H        -1.88855          0.87887        -0.53091
9
 step=         280     theta[rad]=           2.9322
  C        -0.02410         -0.00000         0.03019
  C         0.01785          0.00000         1.37091
  H         0.94068         -0.00000        -0.56070
  H         0.76912         -0.00000         1.78803
  H        -0.67284          0.00000         1.80470
  C        -1.28930         -0.00000        -0.76693
  H        -1.08227          0.00000        -1.83705
  H        -1.88800         -0.87820        -0.53098
  H        -1.88800          0.87820        -0.53098
9
 step=         281     theta[rad]=           2.9426
  C        -0.01705         -0.00000         0.02930
  C         0.02255          0.00000         1.32567
  H         0.85794         -0.00000        -0.51249
  H         1.14075         -0.00000         2.00651
  H        -1.10185          0.00000         2.08946
  C        -1.28914         -0.00000        -0.76766
  H        -1.08282          0.00000        -1.83029
  H        -1.88861         -0.87893        -0.53090
  H        -1.88861          0.87893        -0.53090
9
 step=         282     theta[rad]=           2.9531
  C        -0.02442         -0.00000         0.03023
  C         0.01764          0.00000         1.37297
  H         0.94444         -0.00000        -0.56290
  H         0.75221         -0.00000         1.77809
  H        -0.65332          0.00000         1.79175
  C        -1.28930         -0.00000        -0.76690
  H        -1.08225          0.00000        -1.83735
  H        -1.88797         -0.87817        -0.53098
  H        -1.88797          0.87817        -0.53098
9
 step=         283     theta[rad]=           2.9636
  C        -0.01700         -0.00000         0.02929
  C         0.02258          0.00000         1.32535
  H         0.85736         -0.00000        -0.51215
  H         1.14338         -0.00000         2.00806
  H        -1.10489          0.00000         2.09147
  C        -1.28913         -0.00000        -0.76767
  H        -1.08282          0.00000        -1.83025
  H        -1.88861         -0.87894        -0.53090
  H        -1.88861          0.87894        -0.53090
9
 step=         284     theta[rad]=           2.9740
  C        -0.02424         -0.00000         0.03020
  C         0.01776          0.00000         1.37181
  H         0.94232         -0.00000        -0.56166
  H         0.76174         -0.00000         1.78369
  H        -0.66432          0.00000         1.79905
  C        -1.28930         -0.00000        -0.76691
  H        -1.08226          0.00000        -1.83718
  H        -1.88799         -0.87818        -0.53098
  H        -1.88799          0.87818        -0.53098
9
 step=         285     theta[rad]=           2.9845
  C        -0.01737         -0.00000         0.02934
  C         0.02234          0.00000         1.32770
  H         0.86166         -0.00000        -0.51465
  H         1.12405         -0.00000         1.99669
  H        -1.08257          0.00000         2.07666
  C        -1.28914         -0.00000        -0.76763
  H        -1.08279          0.00000        -1.83060
  H        -1.88858         -0.87890        -0.53091
  H        -1.88858          0.87890        -0.53091
9
 step=         286     theta[rad]=           2.9950
  C        -0.02373         -0.00000         0.03014
  C         0.01809          0.00000         1.36855
  H         0.93637         -0.00000        -0.55819
  H         0.78847         -0.00000         1.79941
  H        -0.69519          0.00000         1.81954
  C        -1.28929         -0.00000        -0.76697
  H        -1.08230          0.00000        -1.83669
  H        -1.88803         -0.87824        -0.53098
  H        -1.88803          0.87824        -0.53098
9
 step=         287     theta[rad]=           3.0055
  C        -0.01797         -0.00000         0.02942
  C         0.02193          0.00000         1.33158
  H         0.86876         -0.00000        -0.51879
  H         1.09218         -0.00000         1.97796
  H        -1.04578          0.00000         2.05224
  C        -1.28916         -0.00000        -0.76757
  H        -1.08275          0.00000        -1.83118
  H        -1.88853         -0.87884        -0.53091
  H        -1.88853          0.87884        -0.53091
9
 step=         288     theta[rad]=           3.0159
  C        -0.02307         -0.00000         0.03006
  C         0.01854          0.00000         1.36430
  H         0.92859         -0.00000        -0.55366
  H         0.82343         -0.00000         1.81996
  H        -0.73554          0.00000         1.84632
  C        -1.28927         -0.00000        -0.76704
  H        -1.08235          0.00000        -1.83606
  H        -1.88809         -0.87831        -0.53097
  H        -1.88809          0.87831        -0.53097
9
 step=         289     theta[rad]=           3.0264
  C        -0.01866         -0.00000         0.02950
  C         0.02148          0.00000         1.33600
  H         0.87683         -0.00000        -0.52349
  H         1.05593         -0.00000         1.95664
  H        -1.00393          0.00000         2.02446
  C        -1.28917         -0.00000        -0.76750
  H        -1.08269          0.00000        -1.83183
  H        -1.88847         -0.87876        -0.53092
  H        -1.88847          0.87876        -0.53092
9
 step=         290     theta[rad]=           3.0369
  C        -0.02238         -0.00000         0.02997
  C         0.01899          0.00000         1.35991
  H         0.92056         -0.00000        -0.54898
  H         0.85951         -0.00000         1.84117
  H        -0.77719          0.00000         1.87396
  C        -1.28926         -0.00000        -0.76711
  H        -1.08241          0.00000        -1.83540
  H        -1.88815         -0.87838        -0.53096
  H        -1.88815          0.87838        -0.53096
9
 step=         291     theta[rad]=           3.0473
  C        -0.01932         -0.00000         0.02958
  C         0.02104          0.00000         1.34022
  H         0.88456         -0.00000        -0.52800
  H         1.02121         -0.00000         1.93623
  H        -0.96385          0.00000         1.99786
  C        -1.28919         -0.00000        -0.76743
  H        -1.08264          0.00000        -1.83247
  H        -1.88841         -0.87870        -0.53093
  H        -1.88841          0.87870        -0.53093
9
 step=         292     theta[rad]=           3.0578
  C        -0.02177         -0.00000         0.02989
  C         0.01940          0.00000         1.35596
  H         0.91333         -0.00000        -0.54477
  H         0.89195         -0.00000         1.86024
  H        -0.81464          0.00000         1.89882
  C        -1.28924         -0.00000        -0.76717
  H        -1.08245          0.00000        -1.83481
  H        -1.88820         -0.87844        -0.53095
  H        -1.88820          0.87844        -0.53095
9
 step=         293     theta[rad]=           3.0683
  C        -0.01988         -0.00000         0.02965
  C         0.02066          0.00000         1.34381
  H         0.89113         -0.00000        -0.53182
  H         0.99171         -0.00000         1.91889
  H        -0.92980          0.00000         1.97526
  C        -1.28920         -0.00000        -0.76737
  H        -1.08260          0.00000        -1.83300
  H        -1.88836         -0.87864        -0.53093
  H        -1.88836          0.87864        -0.53093
9
 step=         294     theta[rad]=           3.0788
  C        -0.02127         -0.00000         0.02983
  C         0.01973          0.00000         1.35278
  H         0.90753         -0.00000        -0.54138
  H         0.91803         -0.00000         1.87558
  H        -0.84475          0.00000         1.91881
  C        -1.28923         -0.00000        -0.76722
  H        -1.08249          0.00000        -1.83434
  H        -1.88824         -0.87849        -0.53095
  H        -1.88824          0.87849        -0.53095
9
 step=         295     theta[rad]=           3.0892
  C        -0.02030         -0.00000         0.02971
  C         0.02038          0.00000         1.34653
  H         0.89610         -0.00000        -0.53472
  H         0.96936         -0.00000         1.90575
  H        -0.90400          0.00000         1.95814
  C        -1.28921         -0.00000        -0.76732
  H        -1.08257          0.00000        -1.83341
  H        -1.88833         -0.87859        -0.53094
  H        -1.88833          0.87859        -0.53094
9
 step=         296     theta[rad]=           3.0997
  C        -0.02092         -0.00000         0.02979
  C         0.01997          0.00000         1.35054
  H         0.90343         -0.00000        -0.53899
  H         0.93645         -0.00000         1.88640
  H        -0.86601          0.00000         1.93292
  C        -1.28922         -0.00000        -0.76726
  H        -1.08252          0.00000        -1.83400
  H        -1.88827         -0.87853        -0.53095
  H        -1.88827          0.87853        -0.53095
9
 step=         297     theta[rad]=           3.1102
  C        -0.02057         -0.00000         0.02974
  C         0.02020          0.00000         1.34828
  H         0.89930         -0.00000        -0.53659
  H         0.95498         -0.00000         1.89730
  H        -0.88740          0.00000         1.94712
  C        -1.28922         -0.00000        -0.76730
  H        -1.08255          0.00000        -1.83367
  H        -1.88830         -0.87857        -0.53094
  H        -1.88830          0.87857        -0.53094
9
 step=         298     theta[rad]=           3.1206
  C        -0.02073         -0.00000         0.02976
  C         0.02010          0.00000         1.34929
  H         0.90114         -0.00000        -0.53766
  H         0.94674         -0.00000         1.89245
  H        -0.87789          0.00000         1.94080
  C        -1.28922         -0.00000        -0.76728
  H        -1.08253          0.00000        -1.83382
  H        -1.88829         -0.87855        -0.53094
  H        -1.88829          0.87855        -0.53094
9
 step=         299     theta[rad]=           3.1311
  C        -0.02069         -0.00000         0.02976
  C         0.02012          0.00000         1.34904
  H         0.90068         -0.00000        -0.53739
  H         0.94880         -0.00000         1.89367
  H        -0.88027          0.00000         1.94238
  C        -1.28922         -0.00000        -0.76728
  H        -1.08254          0.00000        -1.83378
  H        -1.88829         -0.87855        -0.53094
  H        -1.88829          0.87855        -0.53094
9
 step=         300     theta[rad]=           3.1416
  C        -0.02069         -0.00000         0.02976
  C         0.02012          0.00000         1.34904
  H         0.90068         -0.00000        -0.53739
  H         0.94880         -0.00000         1.89367
  H        -0.88027          0.00000         1.94238
  C        -1.28922         -0.00000        -0.76728
  H        -1.08254          0.00000        -1.83378
  H        -1.88829         -0.87855        -0.53094
  H        -1.88829          0.87855        -0.53094
9
 step=         301     theta[rad]=           3.1521
  C        -0.02065         -0.00000         0.02975
  C         0.02015          0.00000         1.34879
  H         0.90022         -0.00000        -0.53712
  H         0.95086         -0.00000         1.89488
  H        -0.88264          0.00000         1.94396
  C        -1.28922         -0.00000        -0.76729
  H        -1.08254          0.00000        -1.83374
  H        -1.88830         -0.87856        -0.53094
  H        -1.88830          0.87856        -0.53094
9
 step=         302     theta[rad]=           3.1625
  C        -0.02081         -0.00000         0.02977
  C         0.02004          0.00000         1.34979
  H         0.90205         -0.00000        -0.53819
  H         0.94262         -0.00000         1.89003
  H        -0.87313          0.00000         1.93765
  C        -1.28922         -0.00000        -0.76727
  H        -1.08253          0.00000        -1.83389
  H        -1.88828         -0.87854        -0.53094
  H        -1.88828          0.87854        -0.53094
9
 step=         303     theta[rad]=           3.1730
  C        -0.02046         -0.00000         0.02973
  C         0.02028          0.00000         1.34753
  H         0.89793         -0.00000        -0.53579
  H         0.96115         -0.00000         1.90093
  H        -0.89452          0.00000         1.95185
  C        -1.28921         -0.00000        -0.76731
  H        -1.08255          0.00000        -1.83356
  H        -1.88831         -0.87858        -0.53094
  H        -1.88831          0.87858        -0.53094
9
 step=         304     theta[rad]=           3.1835
  C        -0.02108         -0.00000         0.02981
  C         0.01986          0.00000         1.35154
  H         0.90525         -0.00000        -0.54006
  H         0.92824         -0.00000         1.88158
  H        -0.85653          0.00000         1.92663
  C        -1.28923         -0.00000        -0.76724
  H        -1.08251          0.00000        -1.83415
  H        -1.88826         -0.87851        -0.53095
  H        -1.88826          0.87851        -0.53095
9
 step=         305     theta[rad]=           3.1940
  C        -0.02011         -0.00000         0.02968
  C         0.02051          0.00000         1.34529
  H         0.89383         -0.00000        -0.53340
  H         0.97957         -0.00000         1.91175
  H        -0.91579          0.00000         1.96596
  C        -1.28920         -0.00000        -0.76734
  H        -1.08258          0.00000        -1.83322
  H        -1.88834         -0.87861        -0.53094
  H        -1.88834          0.87861        -0.53094
9
 step=         306     theta[rad]=           3.2044
  C        -0.02150         -0.00000         0.02986
  C         0.01958          0.00000         1.35426
  H         0.91023         -0.00000        -0.54296
  H         0.90589         -0.00000         1.86844
  H        -0.83074          0.00000         1.90951
  C        -1.28924         -0.00000        -0.76720
  H        -1.08247          0.00000        -1.83456
  H        -1.88822         -0.87847        -0.53095
  H        -1.88822          0.87847        -0.53095
9
 step=         307     theta[rad]=           3.2149
  C        -0.01961         -0.00000         0.02962
  C         0.02084          0.00000         1.34212
  H         0.88802         -0.00000        -0.53002
  H         1.00565         -0.00000         1.92709
  H        -0.94589          0.00000         1.98594
  C        -1.28919         -0.00000        -0.76740
  H        -1.08262          0.00000        -1.83275
  H        -1.88839         -0.87867        -0.53093
  H        -1.88839          0.87867        -0.53093
9
 step=         308     theta[rad]=           3.2254
  C        -0.02206         -0.00000         0.02993
  C         0.01921          0.00000         1.35785
  H         0.91680         -0.00000        -0.54679
  H         0.87639         -0.00000         1.85110
  H        -0.79668          0.00000         1.88690
  C        -1.28925         -0.00000        -0.76714
  H        -1.08243          0.00000        -1.83510
  H        -1.88818         -0.87841        -0.53096
  H        -1.88818          0.87841        -0.53096
9
 step=         309     theta[rad]=           3.2358
  C        -0.01900         -0.00000         0.02954
  C         0.02125          0.00000         1.33817
  H         0.88080         -0.00000        -0.52581
  H         1.03810         -0.00000         1.94616
  H        -0.98335          0.00000         2.01080
  C        -1.28918         -0.00000        -0.76746
  H        -1.08267          0.00000        -1.83216
  H        -1.88844         -0.87873        -0.53092
  H        -1.88844          0.87873        -0.53092
9
 step=         310     theta[rad]=           3.2463
  C        -0.02272         -0.00000         0.03001
  C         0.01877          0.00000         1.36208
  H         0.92453         -0.00000        -0.55129
  H         0.84168         -0.00000         1.83069
  H        -0.75660          0.00000         1.86030
  C        -1.28926         -0.00000        -0.76707
  H        -1.08238          0.00000        -1.83573
  H        -1.88812         -0.87834        -0.53096
  H        -1.88812          0.87834        -0.53096
9
 step=         311     theta[rad]=           3.2568
  C        -0.01831         -0.00000         0.02946
  C         0.02171          0.00000         1.33377
  H         0.87277         -0.00000        -0.52112
  H         1.07418         -0.00000         1.96737
  H        -1.02500          0.00000         2.03845
  C        -1.28916         -0.00000        -0.76753
  H        -1.08272          0.00000        -1.83150
  H        -1.88850         -0.87880        -0.53092
  H        -1.88850          0.87880        -0.53092
9
 step=         312     theta[rad]=           3.2673
  C        -0.02341         -0.00000         0.03010
  C         0.01831          0.00000         1.36649
  H         0.93260         -0.00000        -0.55599
  H         0.80542         -0.00000         1.80937
  H        -0.71475          0.00000         1.83252
  C        -1.28928         -0.00000        -0.76700
  H        -1.08233          0.00000        -1.83639
  H        -1.88806         -0.87827        -0.53097
  H        -1.88806          0.87827        -0.53097
9
 step=         313     theta[rad]=           3.2777
  C        -0.01765         -0.00000         0.02937
  C         0.02215          0.00000         1.32952
  H         0.86498         -0.00000        -0.51659
  H         1.10913         -0.00000         1.98792
  H        -1.06535          0.00000         2.06523
  C        -1.28915         -0.00000        -0.76760
  H        -1.08277          0.00000        -1.83087
  H        -1.88855         -0.87887        -0.53091
  H        -1.88855          0.87887        -0.53091
9
 step=         314     theta[rad]=           3.2882
  C        -0.02401         -0.00000         0.03017
  C         0.01791          0.00000         1.37037
  H         0.93969         -0.00000        -0.56013
  H         0.77355         -0.00000         1.79064
  H        -0.67796          0.00000         1.80810
  C        -1.28929         -0.00000        -0.76694
  H        -1.08228          0.00000        -1.83696
  H        -1.88801         -0.87821        -0.53098
  H        -1.88801          0.87821        -0.53098
9
 step=         315     theta[rad]=           3.2987
  C        -0.01714         -0.00000         0.02931
  C         0.02249          0.00000         1.32626
  H         0.85903         -0.00000        -0.51312
  H         1.13586         -0.00000         2.00364
  H        -1.09621          0.00000         2.08571
  C        -1.28914         -0.00000        -0.76765
  H        -1.08281          0.00000        -1.83038
  H        -1.88860         -0.87892        -0.53090
  H        -1.88860          0.87892        -0.53090
9
 step=         316     theta[rad]=           3.3091
  C        -0.02438         -0.00000         0.03022
  C         0.01766          0.00000         1.37272
  H         0.94400         -0.00000        -0.56264
  H         0.75422         -0.00000         1.77927
  H        -0.65565          0.00000         1.79329
  C        -1.28930         -0.00000        -0.76690
  H        -1.08225          0.00000        -1.83732
  H        -1.88798         -0.87817        -0.53098
  H        -1.88798          0.87817        -0.53098
9
 step=         317     theta[rad]=           3.3196
  C        -0.01696         -0.00000         0.02929
  C         0.02261          0.00000         1.32510
  H         0.85691         -0.00000        -0.51188
  H         1.14539         -0.00000         2.00924
  H        -1.10721          0.00000         2.09302
  C        -1.28913         -0.00000        -0.76767
  H        -1.08283          0.00000        -1.83021
  H        -1.88861         -0.87894        -0.53090
  H        -1.88861          0.87894        -0.53090
9
 step=         318     theta[rad]=           3.3301
  C        -0.02433         -0.00000         0.03021
  C         0.01769          0.00000         1.37240
  H         0.94341         -0.00000        -0.56230
  H         0.75685         -0.00000         1.78082
  H        -0.65868          0.00000         1.79530
  C        -1.28930         -0.00000        -0.76690
  H        -1.08225          0.00000        -1.83727
  H        -1.88798         -0.87817        -0.53098
  H        -1.88798          0.87817        -0.53098
9
 step=         319     theta[rad]=           3.3406
  C        -0.01728         -0.00000         0.02933
  C         0.02239          0.00000         1.32716
  H         0.86068         -0.00000        -0.51408
  H         1.12849         -0.00000         1.99930
  H        -1.08769          0.00000         2.08006
  C        -1.28914         -0.00000        -0.76764
  H        -1.08280          0.00000        -1.83052
  H        -1.88859         -0.87891        -0.53091
  H        -1.88859          0.87891        -0.53091
9
 step=         320     theta[rad]=           3.3510
  C        -0.02371         -0.00000         0.03014
  C         0.01811          0.00000         1.36841
  H         0.93610         -0.00000        -0.55804
  H         0.78968         -0.00000         1.80012
  H        -0.69658          0.00000         1.82046
  C        -1.28929         -0.00000        -0.76697
  H        -1.08230          0.00000        -1.83667
  H        -1.88803         -0.87824        -0.53098
  H        -1.88803          0.87824        -0.53098
9
 step=         321     theta[rad]=           3.3615
  C        -0.01822         -0.00000         0.02945
  C         0.02177          0.00000         1.33320
  H         0.87172         -0.00000        -0.52051
  H         1.07887         -0.00000         1.97013
  H        -1.03042          0.00000         2.04205
  C        -1.28916         -0.00000        -0.76754
  H        -1.08273          0.00000        -1.83142
  H        -1.88851         -0.87881        -0.53092
  H        -1.88851          0.87881        -0.53092
9
 step=         322     theta[rad]=           3.3720
  C        -0.02245         -0.00000         0.02998
  C         0.01895          0.00000         1.36035
  H         0.92137         -0.00000        -0.54945
  H         0.85586         -0.00000         1.83902
  H        -0.77297          0.00000         1.87117
  C        -1.28926         -0.00000        -0.76710
  H        -1.08240          0.00000        -1.83547
  H        -1.88814         -0.87837        -0.53096
  H        -1.88814          0.87837        -0.53096
9
 step=         323     theta[rad]=           3.3824
  C        -0.01976         -0.00000         0.02964
  C         0.02074          0.00000         1.34308
  H         0.88979         -0.00000        -0.53104
  H         0.99772         -0.00000         1.92242
  H        -0.93673          0.00000         1.97986
  C        -1.28920         -0.00000        -0.76738
  H        -1.08261          0.00000        -1.83289
  H        -1.88837         -0.87865        -0.53093
  H        -1.88837          0.87865        -0.53093
9
 step=         324     theta[rad]=           3.3929
  C        -0.02069         -0.00000         0.02976
  C         0.02012          0.00000         1.34904
  H         0.90068         -0.00000        -0.53739
  H         0.94880         -0.00000         1.89367
  H        -0.88027          0.00000         1.94238
  C        -1.28922         -0.00000        -0.76728
  H        -1.08254          0.00000        -1.83378
  H        -1.88829         -0.87855        -0.53094
  H        -1.88829          0.87855        -0.53094
9
 step=         325     theta[rad]=           3.4034
  C        -0.02165         -0.00000         0.02988
  C         0.01948          0.00000         1.35523
  H         0.91201         -0.00000        -0.54400
  H         0.89789         -0.00000         1.86374
  H        -0.82150          0.00000         1.90338
  C        -1.28924         -0.00000        -0.76718
  H        -1.08246          0.00000        -1.83471
  H        -1.88821         -0.87845        -0.53095
  H        -1.88821          0.87845        -0.53095
9
 step=         326     theta[rad]=           3.4139
  C        -0.01879         -0.00000         0.02952
  C         0.02139          0.00000         1.33685
  H         0.87839         -0.00000        -0.52440
  H         1.04892         -0.00000         1.95253
  H        -0.99585          0.00000         2.01910
  C        -1.28917         -0.00000        -0.76748
  H        -1.08268          0.00000        -1.83196
  H        -1.88846         -0.87875        -0.53092
  H        -1.88846          0.87875        -0.53092
9
 step=         327     theta[rad]=           3.4243
  C        -0.02341         -0.00000         0.03010
  C         0.01831          0.00000         1.36649
  H         0.93260         -0.00000        -0.55599
  H         0.80542         -0.00000         1.80937
  H        -0.71475          0.00000         1.83252
  C        -1.28928         -0.00000        -0.76700
  H        -1.08233          0.00000        -1.83639
  H        -1.88806         -0.87827        -0.53097
  H        -1.88806          0.87827        -0.53097
9
 step=         328     theta[rad]=           3.4348
  C        -0.01735         -0.00000         0.02934
  C         0.02235          0.00000         1.32759
  H         0.86146         -0.00000        -0.51453
  H         1.12498         -0.00000         1.99724
  H        -1.08364          0.00000         2.07737
  C        -1.28914         -0.00000        -0.76763
  H        -1.08280          0.00000        -1.83058
  H        -1.88858         -0.87890        -0.53091
  H        -1.88858          0.87890        -0.53091
9
 step=         329     theta[rad]=           3.4453
  C        -0.02437         -0.00000         0.03022
  C         0.01767          0.00000         1.37268
  H         0.94393         -0.00000        -0.56260
  H         0.75453         -0.00000         1.77946
  H        -0.65601          0.00000         1.79353
  C        -1.28930         -0.00000        -0.76690
  H        -1.08225          0.00000        -1.83731
  H        -1.88798         -0.87817        -0.53098
  H        -1.88798          0.87817        -0.53098
9
 step=         330     theta[rad]=           3.4558
  C        -0.01701         -0.00000         0.02929
  C         0.02258          0.00000         1.32539
  H         0.85743         -0.00000        -0.51219
  H         1.14307         -0.00000         2.00787
  H        -1.10453          0.00000         2.09123
  C        -1.28913         -0.00000        -0.76767
  H        -1.08282          0.00000        -1.83025
  H        -1.88861         -0.87894        -0.53090
  H        -1.88861          0.87894        -0.53090
9
 step=         331     theta[rad]=           3.4662
  C        -0.02399         -0.00000         0.03017
  C         0.01792          0.00000         1.37025
  H         0.93948         -0.00000        -0.56001
  H         0.77449         -0.00000         1.79119
  H        -0.67905          0.00000         1.80882
  C        -1.28929         -0.00000        -0.76694
  H        -1.08228          0.00000        -1.83695
  H        -1.88801         -0.87821        -0.53098
  H        -1.88801          0.87821        -0.53098
9
 step=         332     theta[rad]=           3.4767
  C        -0.01814         -0.00000         0.02944
  C         0.02182          0.00000         1.33265
  H         0.87070         -0.00000        -0.51992
  H         1.08344         -0.00000         1.97282
  H        -1.03570          0.00000         2.04555
  C        -1.28916         -0.00000        -0.76755
  H        -1.08273          0.00000        -1.83133
  H        -1.88851         -0.87882        -0.53091
  H        -1.88851          0.87882        -0.53091
9
 step=         333     theta[rad]=           3.4872
  C        -0.02217         -0.00000         0.02994
  C         0.01913          0.00000         1.35854
  H         0.91807         -0.00000        -0.54753
  H         0.87069         -0.00000         1.84774
  H        -0.79009          0.00000         1.88253
  C        -1.28925         -0.00000        -0.76713
  H        -1.08242          0.00000        -1.83520
  H        -1.88817         -0.87840        -0.53096
  H        -1.88817          0.87840        -0.53096
9
 step=         334     theta[rad]=           3.4976
  C        -0.02049         -0.00000         0.02973
  C         0.02025          0.00000         1.34778
  H         0.89839         -0.00000        -0.53606
  H         0.95909         -0.00000         1.89972
  H        -0.89215          0.00000         1.95027
  C        -1.28921         -0.00000        -0.76730
  H        -1.08255          0.00000        -1.83359
  H        -1.88831         -0.87857        -0.53094
  H        -1.88831          0.87857        -0.53094
9
 step=         335     theta[rad]=           3.5081
  C        -0.01954         -0.00000         0.02961
  C         0.02089          0.00000         1.34164
  H         0.88715         -0.00000        -0.52951
  H         1.00958         -0.00000         1.92940
  H        -0.95043          0.00000         1.98895
  C        -1.28919         -0.00000        -0.76740
  H        -1.08263          0.00000        -1.83268
  H        -1.88839         -0.87867        -0.53093
  H        -1.88839          0.87867        -0.53093
9
 step=         336     theta[rad]=           3.5186
  C        -0.02307         -0.00000         0.03006
  C         0.01854          0.00000         1.36430
  H         0.92859         -0.00000        -0.55366
  H         0.82343         -0.00000         1.81996
  H        -0.73554          0.00000         1.84632
  C        -1.28927         -0.00000        -0.76704
  H        -1.08235          0.00000        -1.83606
  H        -1.88809         -0.87831        -0.53097
  H        -1.88809          0.87831        -0.53097
9
 step=         337     theta[rad]=           3.5291
  C        -0.01740         -0.00000         0.02934
  C         0.02231          0.00000         1.32793
  H         0.86209         -0.00000        -0.51490
  H         1.12214         -0.00000         1.99557
  H        -1.08037          0.00000         2.07520
  C        -1.28914         -0.00000        -0.76763
  H        -1.08279          0.00000        -1.83063
  H        -1.88858         -0.87890        -0.53091
  H        -1.88858          0.87890        -0.53091
9
 step=         338     theta[rad]=           3.5395
  C        -0.02440         -0.00000         0.03022
  C         0.01765          0.00000         1.37287
  H         0.94427         -0.00000        -0.56280
  H         0.75298         -0.00000         1.77855
  H        -0.65422          0.00000         1.79234
  C        -1.28930         -0.00000        -0.76690
  H        -1.08225          0.00000        -1.83734
  H        -1.88797         -0.87817        -0.53098
  H        -1.88797          0.87817        -0.53098
9
 step=         339     theta[rad]=           3.5500
  C        -0.01714         -0.00000         0.02931
  C         0.02249          0.00000         1.32626
  H         0.85903         -0.00000        -0.51312
  H         1.13586         -0.00000         2.00364
  H        -1.09621          0.00000         2.08571
  C        -1.28914         -0.00000        -0.76765
  H        -1.08281          0.00000        -1.83038
  H        -1.88860         -0.87892        -0.53090
  H        -1.88860          0.87892        -0.53090
9
 step=         340     theta[rad]=           3.5605
  C        -0.02346         -0.00000         0.03011
  C         0.01827          0.00000         1.36683
  H         0.93322         -0.00000        -0.55636
  H         0.80263         -0.00000         1.80773
  H        -0.71153          0.00000         1.83038
  C        -1.28928         -0.00000        -0.76699
  H        -1.08232          0.00000        -1.83644
  H        -1.88806         -0.87827        -0.53097
  H        -1.88806          0.87827        -0.53097
9
 step=         341     theta[rad]=           3.5709
  C        -0.01921         -0.00000         0.02957
  C         0.02111          0.00000         1.33953
  H         0.88329         -0.00000        -0.52726
  H         1.02692         -0.00000         1.93959
  H        -0.97044          0.00000         2.00224
  C        -1.28918         -0.00000        -0.76744
  H        -1.08265          0.00000        -1.83236
  H        -1.88842         -0.87871        -0.53093
  H        -1.88842          0.87871        -0.53093
9
 step=         342     theta[rad]=           3.5814
  C        -0.02057         -0.00000         0.02974
  C         0.02020          0.00000         1.34828
  H         0.89930         -0.00000        -0.53659
  H         0.95498         -0.00000         1.89730
  H        -0.88740          0.00000         1.94712
  C        -1.28922         -0.00000        -0.76730
  H        -1.08255          0.00000        -1.83367
  H        -1.88830         -0.87857        -0.53094
  H        -1.88830          0.87857        -0.53094
9
 step=         343     theta[rad]=           3.5919
  C        -0.02242         -0.00000         0.02997
  C         0.01897          0.00000         1.36013
  H         0.92096         -0.00000        -0.54921
  H         0.85768         -0.00000         1.84009
  H        -0.77507          0.00000         1.87256
  C        -1.28926         -0.00000        -0.76710
  H        -1.08240          0.00000        -1.83544
  H        -1.88814         -0.87837        -0.53096
  H        -1.88814          0.87837        -0.53096
9
 step=         344     theta[rad]=           3.6024
  C        -0.01767         -0.00000         0.02938
  C         0.02213          0.00000         1.32967
  H         0.86525         -0.00000        -0.51675
  H         1.10793         -0.00000         1.98721
  H        -1.06396          0.00000         2.06431
  C        -1.28915         -0.00000        -0.76760
  H        -1.08277          0.00000        -1.83089
  H        -1.88855         -0.87887        -0.53091
  H        -1.88855          0.87887        -0.53091
9
 step=         345     theta[rad]=           3.6128
  C        -0.02437         -0.00000         0.03022
  C         0.01767          0.00000         1.37268
  H         0.94393         -0.00000        -0.56260
  H         0.75453         -0.00000         1.77946
  H        -0.65601          0.00000         1.79353
  C        -1.28930         -0.00000        -0.76690
  H        -1.08225          0.00000        -1.83731
  H        -1.88798         -0.87817        -0.53098
  H        -1.88798          0.87817        -0.53098
9
 step=         346     theta[rad]=           3.6233
  C        -0.01715         -0.00000         0.02931
  C         0.02248          0.00000         1.32634
  H         0.85918         -0.00000        -0.51320
  H         1.13522         -0.00000         2.00326
  H        -1.09546          0.00000         2.08522
  C        -1.28914         -0.00000        -0.76765
  H        -1.08281          0.00000        -1.83039
  H        -1.88860         -0.87892        -0.53090
  H        -1.88860          0.87892        -0.53090
9
 step=         347     theta[rad]=           3.6338
  C        -0.02324         -0.00000         0.03008
  C         0.01842          0.00000         1.36543
  H         0.93065         -0.00000        -0.55486
  H         0.81416         -0.00000         1.81451
  H        -0.72484          0.00000         1.83922
  C        -1.28928         -0.00000        -0.76702
  H        -1.08234          0.00000        -1.83623
  H        -1.88807         -0.87829        -0.53097
  H        -1.88807          0.87829        -0.53097
9
 step=         348     theta[rad]=           3.6442
  C        -0.01976         -0.00000         0.02964
  C         0.02074          0.00000         1.34308
  H         0.88979         -0.00000        -0.53104
  H         0.99772         -0.00000         1.92242
  H        -0.93673          0.00000         1.97986
  C        -1.28920         -0.00000        -0.76738
  H        -1.08261          0.00000        -1.83289
  H        -1.88837         -0.87865        -0.53093
  H        -1.88837          0.87865        -0.53093
9
 step=         349     theta[rad]=           3.6547
  C        -0.01972         -0.00000         0.02964
  C         0.02077          0.00000         1.34284
  H         0.88934         -0.00000        -0.53079
  H         0.99971         -0.00000         1.92359
  H        -0.93903          0.00000         1.98139
  C        -1.28920         -0.00000        -0.76738
  H        -1.08261          0.00000        -1.83286
  H        -1.88838         -0.87865        -0.53093
  H        -1.88838          0.87865        -0.53093
9
 step=         350     theta[rad]=           3.6652
  C        -0.02333         -0.00000         0.03009
  C         0.01836          0.00000         1.36597
  H         0.93164         -0.00000        -0.55544
  H         0.80972         -0.00000         1.81190
  H        -0.71971          0.00000         1.83582
  C        -1.28928         -0.00000        -0.76701
  H        -1.08233          0.00000        -1.83631
  H        -1.88807         -0.87828        -0.53097
  H        -1.88807          0.87828        -0.53097
9
 step=         351     theta[rad]=           3.6757
  C        -0.01708         -0.00000         0.02930
  C         0.02253          0.00000         1.32584
  H         0.85827         -0.00000        -0.51267
  H         1.13931         -0.00000         2.00566
  H        -1.10019          0.00000         2.08836
  C        -1.28914         -0.00000        -0.76766
  H        -1.08282          0.00000        -1.83032
  H        -1.88860         -0.87893        -0.53090
  H        -1.88860          0.87893        -0.53090
9
 step=         352     theta[rad]=           3.6861
  C        -0.02426         -0.00000         0.03021
  C         0.01774          0.00000         1.37196
  H         0.94260         -0.00000        -0.56182
  H         0.76051         -0.00000         1.78297
  H        -0.66290          0.00000         1.79811
  C        -1.28930         -0.00000        -0.76691
  H        -1.08226          0.00000        -1.83720
  H        -1.88799         -0.87818        -0.53098
  H        -1.88799          0.87818        -0.53098
9
 step=         353     theta[rad]=           3.6966
  C        -0.01822         -0.00000         0.02945
  C         0.02177          0.00000         1.33320
  H         0.87172         -0.00000        -0.52051
  H         1.07887         -0.00000         1.97013
  H        -1.03042          0.00000         2.04205
  C        -1.28916         -0.00000        -0.76754
  H        -1.08273          0.00000        -1.83142
  H        -1.88851         -0.87881        -0.53092
  H        -1.88851          0.87881        -0.53092
9
 step=         354     theta[rad]=           3.7071
  C        -0.02127         -0.00000         0.02983
  C         0.01973          0.00000         1.35278
  H         0.90753         -0.00000        -0.54138
  H         0.91803         -0.00000         1.87558
  H        -0.84475          0.00000         1.91881
  C        -1.28923         -0.00000        -0.76722
  H        -1.08249          0.00000        -1.83434
  H        -1.88824         -0.87849        -0.53095
  H        -1.88824          0.87849        -0.53095
9
 step=         355     theta[rad]=           3.7176
  C        -0.02221         -0.00000         0.02995
  C         0.01911          0.00000         1.35877
  H         0.91849         -0.00000        -0.54777
  H         0.86880         -0.00000         1.84663
  H        -0.78791          0.00000         1.88108
  C        -1.28925         -0.00000        -0.76713
  H        -1.08242          0.00000        -1.83523
  H        -1.88816         -0.87840        -0.53096
  H        -1.88816          0.87840        -0.53096
9
 step=         356     theta[rad]=           3.7280
  C        -0.01754         -0.00000         0.02936
  C         0.02222          0.00000         1.32882
  H         0.86371         -0.00000        -0.51584
  H         1.11487         -0.00000         1.99130
  H        -1.07198          0.00000         2.06963
  C        -1.28915         -0.00000        -0.76761
  H        -1.08278          0.00000        -1.83076
  H        -1.88856         -0.87888        -0.53091
  H        -1.88856          0.87888        -0.53091
9
 step=         357     theta[rad]=           3.7385
  C        -0.02442         -0.00000         0.03023
  C         0.01764          0.00000         1.37297
  H         0.94444         -0.00000        -0.56290
  H         0.75221         -0.00000         1.77809
  H        -0.65332          0.00000         1.79175
  C        -1.28930         -0.00000        -0.76690
  H        -1.08225          0.00000        -1.83735
  H        -1.88797         -0.87817        -0.53098
  H        -1.88797          0.87817        -0.53098
9
 step=         358     theta[rad]=           3.7490
  C        -0.01770         -0.00000         0.02938
  C         0.02212          0.00000         1.32981
  H         0.86552         -0.00000        -0.51690
  H         1.10671         -0.00000         1.98650
  H        -1.06255          0.00000         2.06337
  C        -1.28915         -0.00000        -0.76760
  H        -1.08277          0.00000        -1.83091
  H        -1.88855         -0.87887        -0.53091
  H        -1.88855          0.87887        -0.53091
9
 step=         359     theta[rad]=           3.7594
  C        -0.02184         -0.00000         0.02990
  C         0.01935          0.00000         1.35643
  H         0.91421         -0.00000        -0.54528
  H         0.88802         -0.00000         1.85793
  H        -0.81010          0.00000         1.89581
  C        -1.28924         -0.00000        -0.76716
  H        -1.08245          0.00000        -1.83488
  H        -1.88819         -0.87843        -0.53096
  H        -1.88819          0.87843        -0.53096
9
 step=         360     theta[rad]=           3.7699
  C        -0.02184         -0.00000         0.02990
  C         0.01935          0.00000         1.35643
  H         0.91421         -0.00000        -0.54528
  H         0.88802         -0.00000         1.85793
  H        -0.81010          0.00000         1.89581
  C        -1.28924         -0.00000        -0.76716
  H        -1.08245          0.00000        -1.83488
  H        -1.88819         -0.87843        -0.53096
  H        -1.88819          0.87843        -0.53096
9
 step=         361     theta[rad]=           3.7804
  C        -0.01765         -0.00000         0.02937
  C         0.02215          0.00000         1.32952
  H         0.86498         -0.00000        -0.51659
  H         1.10913         -0.00000         1.98792
  H        -1.06535          0.00000         2.06523
  C        -1.28915         -0.00000        -0.76760
  H        -1.08277          0.00000        -1.83087
  H        -1.88855         -0.87887        -0.53091
  H        -1.88855          0.87887        -0.53091
9
 step=         362     theta[rad]=           3.7909
  C        -0.02442         -0.00000         0.03023
  C         0.01764          0.00000         1.37297
  H         0.94444         -0.00000        -0.56290
  H         0.75221         -0.00000         1.77809
  H        -0.65332          0.00000         1.79175
  C        -1.28930         -0.00000        -0.76690
  H        -1.08225          0.00000        -1.83735
  H        -1.88797         -0.87817        -0.53098
  H        -1.88797          0.87817        -0.53098
9
 step=         363     theta[rad]=           3.8013
  C        -0.01782         -0.00000         0.02940
  C         0.02204          0.00000         1.33059
  H         0.86694         -0.00000        -0.51773
  H         1.10035         -0.00000         1.98276
  H        -1.05522          0.00000         2.05850
  C        -1.28915         -0.00000        -0.76758
  H        -1.08276          0.00000        -1.83103
  H        -1.88854         -0.87885        -0.53091
  H        -1.88854          0.87885        -0.53091
9
 step=         364     theta[rad]=           3.8118
  C        -0.02146         -0.00000         0.02985
  C         0.01960          0.00000         1.35401
  H         0.90978         -0.00000        -0.54270
  H         0.90791         -0.00000         1.86962
  H        -0.83306          0.00000         1.91105
  C        -1.28924         -0.00000        -0.76720
  H        -1.08248          0.00000        -1.83452
  H        -1.88823         -0.87847        -0.53095
  H        -1.88823          0.87847        -0.53095
9
 step=         365     theta[rad]=           3.8223
  C        -0.02238         -0.00000         0.02997
  C         0.01899          0.00000         1.35991
  H         0.92056         -0.00000        -0.54898
  H         0.85951         -0.00000         1.84117
  H        -0.77719          0.00000         1.87396
  C        -1.28926         -0.00000        -0.76711
  H        -1.08241          0.00000        -1.83540
  H        -1.88815         -0.87838        -0.53096
  H        -1.88815          0.87838        -0.53096
9
 step=         366     theta[rad]=           3.8327
  C        -0.01727         -0.00000         0.02933
  C         0.02240          0.00000         1.32706
  H         0.86049         -0.00000        -0.51397
  H         1.12931         -0.00000         1.99979
  H        -1.08865          0.00000         2.08069
  C        -1.28914         -0.00000        -0.76764
  H        -1.08280          0.00000        -1.83050
  H        -1.88859         -0.87891        -0.53091
  H        -1.88859          0.87891        -0.53091
9
 step=         367     theta[rad]=           3.8432
  C        -0.02426         -0.00000         0.03021
  C         0.01774          0.00000         1.37196
  H         0.94260         -0.00000        -0.56182
  H         0.76051         -0.00000         1.78297
  H        -0.66290          0.00000         1.79811
  C        -1.28930         -0.00000        -0.76691
  H        -1.08226          0.00000        -1.83720
  H        -1.88799         -0.87818        -0.53098
  H        -1.88799          0.87818        -0.53098
9
 step=         368     theta[rad]=           3.8537
  C        -0.01869         -0.00000         0.02951
  C         0.02145          0.00000         1.33621
  H         0.87721         -0.00000        -0.52372
  H         1.05419         -0.00000         1.95562
  H        -1.00193          0.00000         2.02314
  C        -1.28917         -0.00000        -0.76749
  H        -1.08269          0.00000        -1.83187
  H        -1.88846         -0.87876        -0.53092
  H        -1.88846          0.87876        -0.53092
9
 step=         369     theta[rad]=           3.8642
  C        -0.02011         -0.00000         0.02968
  C         0.02051          0.00000         1.34529
  H         0.89383         -0.00000        -0.53340
  H         0.97957         -0.00000         1.91175
  H        -0.91579          0.00000         1.96596
  C        -1.28920         -0.00000        -0.76734
  H        -1.08258          0.00000        -1.83322
  H        -1.88834         -0.87861        -0.53094
  H        -1.88834          0.87861        -0.53094
9
 step=         370     theta[rad]=           3.8746
  C        -0.02359         -0.00000         0.03012
  C         0.01819          0.00000         1.36764
  H         0.93471         -0.00000        -0.55722
  H         0.79594         -0.00000         1.80380
  H        -0.70381          0.00000         1.82526
  C        -1.28928         -0.00000        -0.76698
  H        -1.08231          0.00000        -1.83656
  H        -1.88804         -0.87825        -0.53097
  H        -1.88804          0.87825        -0.53097
9
 step=         371     theta[rad]=           3.8851
  C        -0.01697         -0.00000         0.02929
  C         0.02260          0.00000         1.32514
  H         0.85698         -0.00000        -0.51192
  H         1.14510         -0.00000         2.00907
  H        -1.10687          0.00000         2.09279
  C        -1.28913         -0.00000        -0.76767
  H        -1.08283          0.00000        -1.83021
  H        -1.88861         -0.87894        -0.53090
  H        -1.88861          0.87894        -0.53090
9
 step=         372     theta[rad]=           3.8956
  C        -0.02324         -0.00000         0.03008
  C         0.01842          0.00000         1.36543
  H         0.93065         -0.00000        -0.55486
  H         0.81416         -0.00000         1.81451
  H        -0.72484          0.00000         1.83922
  C        -1.28928         -0.00000        -0.76702
  H        -1.08234          0.00000        -1.83623
  H        -1.88807         -0.87829        -0.53097
  H        -1.88807          0.87829        -0.53097
9
 step=         373     theta[rad]=           3.9060
  C        -0.02073         -0.00000         0.02976
  C         0.02010          0.00000         1.34929
  H         0.90114         -0.00000        -0.53766
  H         0.94674         -0.00000         1.89245
  H        -0.87789          0.00000         1.94080
  C        -1.28922         -0.00000        -0.76728
  H        -1.08253          0.00000        -1.83382
  H        -1.88829         -0.87855        -0.53094
  H        -1.88829          0.87855        -0.53094
9
 step=         374     theta[rad]=           3.9165
  C        -0.01805         -0.00000         0.02943
  C         0.02188          0.00000         1.33211
  H         0.86971         -0.00000        -0.51935
  H         1.08788         -0.00000         1.97543
  H        -1.04082          0.00000         2.04895
  C        -1.28916         -0.00000        -0.76756
  H        -1.08274          0.00000        -1.83125
  H        -1.88852         -0.87883        -0.53091
  H        -1.88852          0.87883        -0.53091
9
 step=         375     theta[rad]=           3.9270
  C        -0.02442         -0.00000         0.03023
  C         0.01763          0.00000         1.37298
  H         0.94446         -0.00000        -0.56291
  H         0.75211         -0.00000         1.77803
  H        -0.65321          0.00000         1.79167
  C        -1.28930         -0.00000        -0.76690
  H        -1.08225          0.00000        -1.83735
  H        -1.88797         -0.87817        -0.53098
  H        -1.88797          0.87817        -0.53098
9
 step=         376     theta[rad]=           3.9375
  C        -0.01808         -0.00000         0.02943
  C         0.02186          0.00000         1.33228
  H         0.87004         -0.00000        -0.51954
  H         1.08642         -0.00000         1.97457
  H        -1.03913          0.00000         2.04783
  C        -1.28916         -0.00000        -0.76756
  H        -1.08274          0.00000        -1.83128
  H        -1.88852         -0.87883        -0.53091
  H        -1.88852          0.87883        -0.53091
9
 step=         377     theta[rad]=           3.9479
  C        -0.02057         -0.00000         0.02974
  C         0.02020          0.00000         1.34828
  H         0.89930         -0.00000        -0.53659
  H         0.95498         -0.00000         1.89730
  H        -0.88740          0.00000         1.94712
  C        -1.28922         -0.00000        -0.76730
  H        -1.08255          0.00000        -1.83367
  H        -1.88830         -0.87857        -0.53094
  H        -1.88830          0.87857        -0.53094
9
 step=         378     theta[rad]=           3.9584
  C        -0.02349         -0.00000         0.03011
  C         0.01826          0.00000         1.36700
  H         0.93352         -0.00000        -0.55653
  H         0.80126         -0.00000         1.80693
  H        -0.70995          0.00000         1.82933
  C        -1.28928         -0.00000        -0.76699
  H        -1.08232          0.00000        -1.83646
  H        -1.88805         -0.87826        -0.53097
  H        -1.88805          0.87826        -0.53097
9
 step=         379     theta[rad]=           3.9689
  C        -0.01698         -0.00000         0.02929
  C         0.02259          0.00000         1.32522
  H         0.85713         -0.00000        -0.51201
  H         1.14441         -0.00000         2.00866
  H        -1.10608          0.00000         2.09226
  C        -1.28913         -0.00000        -0.76767
  H        -1.08282          0.00000        -1.83023
  H        -1.88861         -0.87894        -0.53090
  H        -1.88861          0.87894        -0.53090
9
 step=         380     theta[rad]=           3.9794
  C        -0.02288         -0.00000         0.03003
  C         0.01866          0.00000         1.36311
  H         0.92641         -0.00000        -0.55239
  H         0.83319         -0.00000         1.82570
  H        -0.74681          0.00000         1.85380
  C        -1.28927         -0.00000        -0.76706
  H        -1.08237          0.00000        -1.83588
  H        -1.88811         -0.87833        -0.53097
  H        -1.88811          0.87833        -0.53097
9
 step=         381     theta[rad]=           3.9898
  C        -0.02150         -0.00000         0.02986
  C         0.01958          0.00000         1.35426
  H         0.91023         -0.00000        -0.54296
  H         0.90589         -0.00000         1.86844
  H        -0.83074          0.00000         1.90951
  C        -1.28924         -0.00000        -0.76720
  H        -1.08247          0.00000        -1.83456
  H        -1.88822         -0.87847        -0.53095
  H        -1.88822          0.87847        -0.53095
9
 step=         382     theta[rad]=           4.0003
  C        -0.01740         -0.00000         0.02934
  C         0.02231          0.00000         1.32793
  H         0.86209         -0.00000        -0.51490
  H         1.12214         -0.00000         1.99557
  H        -1.08037          0.00000         2.07520
  C        -1.28914         -0.00000        -0.76763
  H        -1.08279          0.00000        -1.83063
  H        -1.88858         -0.87890        -0.53091
  H        -1.88858          0.87890        -0.53091
9
 step=         383     theta[rad]=           4.0108
  C        -0.02416         -0.00000         0.03019
  C         0.01781          0.00000         1.37130
  H         0.94139         -0.00000        -0.56112
  H         0.76592         -0.00000         1.78615
  H        -0.66916          0.00000         1.80226
  C        -1.28930         -0.00000        -0.76692
  H        -1.08227          0.00000        -1.83710
  H        -1.88800         -0.87819        -0.53098
  H        -1.88800          0.87819        -0.53098
9
 step=         384     theta[rad]=           4.0212
  C        -0.01954         -0.00000         0.02961
  C         0.02089          0.00000         1.34164
  H         0.88715         -0.00000        -0.52951
  H         1.00958         -0.00000         1.92940
  H        -0.95043          0.00000         1.98895
  C        -1.28919         -0.00000        -0.76740
  H        -1.08263          0.00000        -1.83268
  H        -1.88839         -0.87867        -0.53093
  H        -1.88839          0.87867        -0.53093
9
 step=         385     theta[rad]=           4.0317
  C        -0.01866         -0.00000         0.02950
  C         0.02148          0.00000         1.33600
  H         0.87683         -0.00000        -0.52349
  H         1.05593         -0.00000         1.95664
  H        -1.00393          0.00000         2.02446
  C        -1.28917         -0.00000        -0.76750
  H        -1.08269          0.00000        -1.83183
  H        -1.88847         -0.87876        -0.53092
  H        -1.88847          0.87876        -0.53092
9
 step=         386     theta[rad]=           4.0422
  C        -0.02440         -0.00000         0.03022
  C         0.01765          0.00000         1.37287
  H         0.94427         -0.00000        -0.56280
  H         0.75298         -0.00000         1.77855
  H        -0.65422          0.00000         1.79234
  C        -1.28930         -0.00000        -0.76690
  H        -1.08225          0.00000        -1.83734
  H        -1.88797         -0.87817        -0.53098
  H        -1.88797          0.87817        -0.53098
9
 step=         387     theta[rad]=           4.0527
  C        -0.01814         -0.00000         0.02944
  C         0.02182          0.00000         1.33265
  H         0.87070         -0.00000        -0.51992
  H         1.08344         -0.00000         1.97282
  H        -1.03570          0.00000         2.04555
  C        -1.28916         -0.00000        -0.76755
  H        -1.08273          0.00000        -1.83133
  H        -1.88851         -0.87882        -0.53091
  H        -1.88851          0.87882        -0.53091
9
 step=         388     theta[rad]=           4.0631
  C        -0.02007         -0.00000         0.02968
  C         0.02054          0.00000         1.34504
  H         0.89337         -0.00000        -0.53314
  H         0.98160         -0.00000         1.91295
  H        -0.91813          0.00000         1.96752
  C        -1.28920         -0.00000        -0.76735
  H        -1.08259          0.00000        -1.83318
  H        -1.88835         -0.87862        -0.53094
  H        -1.88835          0.87862        -0.53094
9
 step=         389     theta[rad]=           4.0736
  C        -0.02401         -0.00000         0.03017
  C         0.01791          0.00000         1.37037
  H         0.93969         -0.00000        -0.56013
  H         0.77355         -0.00000         1.79064
  H        -0.67796          0.00000         1.80810
  C        -1.28929         -0.00000        -0.76694
  H        -1.08228          0.00000        -1.83696
  H        -1.88801         -0.87821        -0.53098
  H        -1.88801          0.87821        -0.53098
9
 step=         390     theta[rad]=           4.0841
  C        -0.01737         -0.00000         0.02934
  C         0.02234          0.00000         1.32770
  H         0.86166         -0.00000        -0.51465
  H         1.12405         -0.00000         1.99669
  H        -1.08257          0.00000         2.07666
  C        -1.28914         -0.00000        -0.76763
  H        -1.08279          0.00000        -1.83060
  H        -1.88858         -0.87890        -0.53091
  H        -1.88858          0.87890        -0.53091
9
 step=         391     theta[rad]=           4.0945
  C        -0.02123         -0.00000         0.02983
  C         0.01976          0.00000         1.35253
  H         0.90707         -0.00000        -0.54112
  H         0.92007         -0.00000         1.87677
  H        -0.84710          0.00000         1.92037
  C        -1.28923         -0.00000        -0.76723
  H        -1.08249          0.00000        -1.83430
  H        -1.88825         -0.87850        -0.53095
  H        -1.88825          0.87850        -0.53095
9
 step=         392     theta[rad]=           4.1050
  C        -0.02341         -0.00000         0.03010
  C         0.01831          0.00000         1.36649
  H         0.93260         -0.00000        -0.55599
  H         0.80542         -0.00000         1.80937
  H        -0.71475          0.00000         1.83252
  C        -1.28928         -0.00000        -0.76700
  H        -1.08233          0.00000        -1.83639
  H        -1.88806         -0.87827        -0.53097
  H        -1.88806          0.87827        -0.53097
9
 step=         393     theta[rad]=           4.1155
  C        -0.01705         -0.00000         0.02930
  C         0.02255          0.00000         1.32567
  H         0.85794         -0.00000        -0.51249
  H         1.14075         -0.00000         2.00651
  H        -1.10185          0.00000         2.08946
  C        -1.28914         -0.00000        -0.76766
  H        -1.08282          0.00000        -1.83029
  H        -1.88861         -0.87893        -0.53090
  H        -1.88861          0.87893        -0.53090
9
 step=         394     theta[rad]=           4.1260
  C        -0.02203         -0.00000         0.02992
  C         0.01923          0.00000         1.35762
  H         0.91637         -0.00000        -0.54654
  H         0.87831         -0.00000         1.85223
  H        -0.79890          0.00000         1.88837
  C        -1.28925         -0.00000        -0.76714
  H        -1.08243          0.00000        -1.83506
  H        -1.88818         -0.87841        -0.53096
  H        -1.88818          0.87841        -0.53096
9
 step=         395     theta[rad]=           4.1364
  C        -0.02288         -0.00000         0.03003
  C         0.01866          0.00000         1.36311
  H         0.92641         -0.00000        -0.55239
  H         0.83319         -0.00000         1.82570
  H        -0.74681          0.00000         1.85380
  C        -1.28927         -0.00000        -0.76706
  H        -1.08237          0.00000        -1.83588
  H        -1.88811         -0.87833        -0.53097
  H        -1.88811          0.87833        -0.53097
9
 step=         396     theta[rad]=           4.1469
  C        -0.01697         -0.00000         0.02929
  C         0.02260          0.00000         1.32514
  H         0.85698         -0.00000        -0.51192
  H         1.14510         -0.00000         2.00907
  H        -1.10687          0.00000         2.09279
  C        -1.28913         -0.00000        -0.76767
  H        -1.08283          0.00000        -1.83021
  H        -1.88861         -0.87894        -0.53090
  H        -1.88861          0.87894        -0.53090
9
 step=         397     theta[rad]=           4.1574
  C        -0.02245         -0.00000         0.02998
  C         0.01895          0.00000         1.36035
  H         0.92137         -0.00000        -0.54945
  H         0.85586         -0.00000         1.83902
  H        -0.77297          0.00000         1.87117
  C        -1.28926         -0.00000        -0.76710
  H        -1.08240          0.00000        -1.83547
  H        -1.88814         -0.87837        -0.53096
  H        -1.88814          0.87837        -0.53096
9
 step=         398     theta[rad]=           4.1678
  C        -0.02259         -0.00000         0.03000
  C         0.01886          0.00000         1.36122
  H         0.92297         -0.00000        -0.55038
  H         0.84868         -0.00000         1.83480
  H        -0.76469          0.00000         1.86567
  C        -1.28926         -0.00000        -0.76709
  H        -1.08239          0.00000        -1.83560
  H        -1.88813         -0.87836        -0.53096
  H        -1.88813          0.87836        -0.53096
9
 step=         399     theta[rad]=           4.1783
  C        -0.01696         -0.00000         0.02929
  C         0.02261          0.00000         1.32509
  H         0.85689         -0.00000        -0.51187
  H         1.14549         -0.00000         2.00930
  H        -1.10732          0.00000         2.09309
  C        -1.28913         -0.00000        -0.76767
  H        -1.08283          0.00000        -1.83021
  H        -1.88861         -0.87894        -0.53090
  H        -1.88861          0.87894        -0.53090
9
 step=         400     theta[rad]=           4.1888
  C        -0.02255         -0.00000         0.02999
  C         0.01888          0.00000         1.36101
  H         0.92257         -0.00000        -0.55015
  H         0.85046         -0.00000         1.83585
  H        -0.76674          0.00000         1.86703
  C        -1.28926         -0.00000        -0.76709
  H        -1.08239          0.00000        -1.83557
  H        -1.88813         -0.87836        -0.53096
  H        -1.88813          0.87836        -0.53096
9
 step=         401     theta[rad]=           4.1993
  C        -0.02259         -0.00000         0.03000
  C         0.01886          0.00000         1.36122
  H         0.92297         -0.00000        -0.55038
  H         0.84868         -0.00000         1.83480
  H        -0.76469          0.00000         1.86567
  C        -1.28926         -0.00000        -0.76709
  H        -1.08239          0.00000        -1.83560
  H        -1.88813         -0.87836        -0.53096
  H        -1.88813          0.87836        -0.53096
9
 step=         402     theta[rad]=           4.2097
  C        -0.01696         -0.00000         0.02929
  C         0.02261          0.00000         1.32510
  H         0.85691         -0.00000        -0.51188
  H         1.14539         -0.00000         2.00924
  H        -1.10721          0.00000         2.09302
  C        -1.28913         -0.00000        -0.76767
  H        -1.08283          0.00000        -1.83021
  H        -1.88861         -0.87894        -0.53090
  H        -1.88861          0.87894        -0.53090
9
 step=         403     theta[rad]=           4.2202
  C        -0.02235         -0.00000         0.02997
  C         0.01902          0.00000         1.35968
  H         0.92015         -0.00000        -0.54874
  H         0.86135         -0.00000         1.84225
  H        -0.77931          0.00000         1.87537
  C        -1.28926         -0.00000        -0.76711
  H        -1.08241          0.00000        -1.83537
  H        -1.88815         -0.87838        -0.53096
  H        -1.88815          0.87838        -0.53096
9
 step=         404     theta[rad]=           4.2307
  C        -0.02288         -0.00000         0.03003
  C         0.01866          0.00000         1.36311
  H         0.92641         -0.00000        -0.55239
  H         0.83319         -0.00000         1.82570
  H        -0.74681          0.00000         1.85380
  C        -1.28927         -0.00000        -0.76706
  H        -1.08237          0.00000        -1.83588
  H        -1.88811         -0.87833        -0.53097
  H        -1.88811          0.87833        -0.53097
9
 step=         405     theta[rad]=           4.2412
  C        -0.01701         -0.00000         0.02929
  C         0.02258          0.00000         1.32539
  H         0.85743         -0.00000        -0.51219
  H         1.14307         -0.00000         2.00787
  H        -1.10453          0.00000         2.09123
  C        -1.28913         -0.00000        -0.76767
  H        -1.08282          0.00000        -1.83025
  H        -1.88861         -0.87894        -0.53090
  H        -1.88861          0.87894        -0.53090
9
 step=         406     theta[rad]=           4.2516
  C        -0.02180         -0.00000         0.02990
  C         0.01938          0.00000         1.35620
  H         0.91377         -0.00000        -0.54502
  H         0.88998         -0.00000         1.85909
  H        -0.81237          0.00000         1.89731
  C        -1.28924         -0.00000        -0.76717
  H        -1.08245          0.00000        -1.83485
  H        -1.88820         -0.87844        -0.53095
  H        -1.88820          0.87844        -0.53095
9
 step=         407     theta[rad]=           4.2621
  C        -0.02341         -0.00000         0.03010
  C         0.01831          0.00000         1.36649
  H         0.93260         -0.00000        -0.55599
  H         0.80542         -0.00000         1.80937
  H        -0.71475          0.00000         1.83252
  C        -1.28928         -0.00000        -0.76700
  H        -1.08233          0.00000        -1.83639
  H        -1.88806         -0.87827        -0.53097
  H        -1.88806          0.87827        -0.53097
9
 step=         408     theta[rad]=           4.2726
  C        -0.01722         -0.00000         0.02932
  C         0.02243          0.00000         1.32677
  H         0.85996         -0.00000        -0.51366
  H         1.13168         -0.00000         2.00118
  H        -1.09138          0.00000         2.08251
  C        -1.28914         -0.00000        -0.76764
  H        -1.08281          0.00000        -1.83046
  H        -1.88859         -0.87891        -0.53090
  H        -1.88859          0.87891        -0.53090
9
 step=         409     theta[rad]=           4.2830
  C        -0.02088         -0.00000         0.02978
  C         0.01999          0.00000         1.35029
  H         0.90297         -0.00000        -0.53873
  H         0.93851         -0.00000         1.88761
  H        -0.86838          0.00000         1.93449
  C        -1.28922         -0.00000        -0.76726
  H        -1.08252          0.00000        -1.83397
  H        -1.88828         -0.87853        -0.53094
  H        -1.88828          0.87853        -0.53094
9
 step=         410     theta[rad]=           4.2935
  C        -0.02401         -0.00000         0.03017
  C         0.01791          0.00000         1.37037
  H         0.93969         -0.00000        -0.56013
  H         0.77355         -0.00000         1.79064
  H        -0.67796          0.00000         1.80810
  C        -1.28929         -0.00000        -0.76694
  H        -1.08228          0.00000        -1.83696
  H        -1.88801         -0.87821        -0.53098
  H        -1.88801          0.87821        -0.53098
9
 step=         411     theta[rad]=           4.3040
  C        -0.01782         -0.00000         0.02940
  C         0.02204          0.00000         1.33059
  H         0.86694         -0.00000        -0.51773
  H         1.10035         -0.00000         1.98276
  H        -1.05522          0.00000         2.05850
  C        -1.28915         -0.00000        -0.76758
  H        -1.08276          0.00000        -1.83103
  H        -1.88854         -0.87885        -0.53091
  H        -1.88854          0.87885        -0.53091
9
 step=         412     theta[rad]=           4.3145
  C        -0.01961         -0.00000         0.02962
  C         0.02084          0.00000         1.34212
  H         0.88802         -0.00000        -0.53002
  H         1.00565         -0.00000         1.92709
  H        -0.94589          0.00000         1.98594
  C        -1.28919         -0.00000        -0.76740
  H        -1.08262          0.00000        -1.83275
  H        -1.88839         -0.87867        -0.53093
  H        -1.88839          0.87867        -0.53093
9
 step=         413     theta[rad]=           4.3249
  C        -0.02440         -0.00000         0.03022
  C         0.01765          0.00000         1.37287
  H         0.94427         -0.00000        -0.56280
  H         0.75298         -0.00000         1.77855
  H        -0.65422          0.00000         1.79234
  C        -1.28930         -0.00000        -0.76690
  H        -1.08225          0.00000        -1.83734
  H        -1.88797         -0.87817        -0.53098
  H        -1.88797          0.87817        -0.53098
9
 step=         414     theta[rad]=           4.3354
  C        -0.01900         -0.00000         0.02954
  C         0.02125          0.00000         1.33817
  H         0.88080         -0.00000        -0.52581
  H         1.03810         -0.00000         1.94616
  H        -0.98335          0.00000         2.01080
  C        -1.28918         -0.00000        -0.76746
  H        -1.08267          0.00000        -1.83216
  H        -1.88844         -0.87873        -0.53092
  H        -1.88844          0.87873        -0.53092
9
 step=         415     theta[rad]=           4.3459
  C        -0.01819         -0.00000         0.02944
  C         0.02179          0.00000         1.33301
  H         0.87138         -0.00000        -0.52032
  H         1.08041         -0.00000         1.97104
  H        -1.03220          0.00000         2.04323
  C        -1.28916         -0.00000        -0.76754
  H        -1.08273          0.00000        -1.83139
  H        -1.88851         -0.87881        -0.53092
  H        -1.88851          0.87881        -0.53092
9
 step=         416     theta[rad]=           4.3563
  C        -0.02416         -0.00000         0.03019
  C         0.01781          0.00000         1.37130
  H         0.94139         -0.00000        -0.56112
  H         0.76592         -0.00000         1.78615
  H        -0.66916          0.00000         1.80226
  C        -1.28930         -0.00000        -0.76692
  H        -1.08227          0.00000        -1.83710
  H        -1.88800         -0.87819        -0.53098
  H        -1.88800          0.87819        -0.53098
9
 step=         417     theta[rad]=           4.3668
  C        -0.02081         -0.00000         0.02977
  C         0.02004          0.00000         1.34979
  H         0.90205         -0.00000        -0.53819
  H         0.94262         -0.00000         1.89003
  H        -0.87313          0.00000         1.93765
  C        -1.28922         -0.00000        -0.76727
  H        -1.08253          0.00000        -1.83389
  H        -1.88828         -0.87854        -0.53094
  H        -1.88828          0.87854        -0.53094
9
 step=         418     theta[rad]=           4.3773
  C        -0.01713         -0.00000         0.02931
  C         0.02249          0.00000         1.32619
  H         0.85889         -0.00000        -0.51304
  H         1.13649         -0.00000         2.00400
  H        -1.09693          0.00000         2.08619
  C        -1.28914         -0.00000        -0.76765
  H        -1.08281          0.00000        -1.83037
  H        -1.88860         -0.87892        -0.53090
  H        -1.88860          0.87892        -0.53090
9
 step=         419     theta[rad]=           4.3878
  C        -0.02288         -0.00000         0.03003
  C         0.01866          0.00000         1.36311
  H         0.92641         -0.00000        -0.55239
  H         0.83319         -0.00000         1.82570
  H        -0.74681          0.00000         1.85380
  C        -1.28927         -0.00000        -0.76706
  H        -1.08237          0.00000        -1.83588
  H        -1.88811         -0.87833        -0.53097
  H        -1.88811          0.87833        -0.53097
9
 step=         420     theta[rad]=           4.3982
  C        -0.02288         -0.00000         0.03003
  C         0.01866          0.00000         1.36311
  H         0.92641         -0.00000        -0.55239
  H         0.83319         -0.00000         1.82570
  H        -0.74681          0.00000         1.85380
  C        -1.28927         -0.00000        -0.76706
  H        -1.08237          0.00000        -1.83588
  H        -1.88811         -0.87833        -0.53097
  H        -1.88811          0.87833        -0.53097
9
 step=         421     theta[rad]=           4.4087
  C        -0.01715         -0.00000         0.02931
  C         0.02248          0.00000         1.32634
  H         0.85918         -0.00000        -0.51320
  H         1.13522         -0.00000         2.00326
  H        -1.09546          0.00000         2.08522
  C        -1.28914         -0.00000        -0.76765
  H        -1.08281          0.00000        -1.83039
  H        -1.88860         -0.87892        -0.53090
  H        -1.88860          0.87892        -0.53090
9
 step=         422     theta[rad]=           4.4192
  C        -0.02057         -0.00000         0.02974
  C         0.02020          0.00000         1.34828
  H         0.89930         -0.00000        -0.53659
  H         0.95498         -0.00000         1.89730
  H        -0.88740          0.00000         1.94712
  C        -1.28922         -0.00000        -0.76730
  H        -1.08255          0.00000        -1.83367
  H        -1.88830         -0.87857        -0.53094
  H        -1.88830          0.87857        -0.53094
9
 step=         423     theta[rad]=           4.4296
  C        -0.02430         -0.00000         0.03021
  C         0.01771          0.00000         1.37223
  H         0.94309         -0.00000        -0.56211
  H         0.75829         -0.00000         1.78167
  H        -0.66035          0.00000         1.79641
  C        -1.28930         -0.00000        -0.76691
  H        -1.08226          0.00000        -1.83724
  H        -1.88798         -0.87818        -0.53098
  H        -1.88798          0.87818        -0.53098
9
 step=         424     theta[rad]=           4.4401
  C        -0.01882         -0.00000         0.02952
  C         0.02136          0.00000         1.33706
  H         0.87878         -0.00000        -0.52463
  H         1.04715         -0.00000         1.95148
  H        -0.99379          0.00000         2.01774
  C        -1.28918         -0.00000        -0.76748
  H        -1.08268          0.00000        -1.83199
  H        -1.88845         -0.87875        -0.53092
  H        -1.88845          0.87875        -0.53092
9
 step=         425     theta[rad]=           4.4506
  C        -0.01805         -0.00000         0.02943
  C         0.02188          0.00000         1.33211
  H         0.86971         -0.00000        -0.51935
  H         1.08788         -0.00000         1.97543
  H        -1.04082          0.00000         2.04895
  C        -1.28916         -0.00000        -0.76756
  H        -1.08274          0.00000        -1.83125
  H        -1.88852         -0.87883        -0.53091
  H        -1.88852          0.87883        -0.53091
9
 step=         426     theta[rad]=           4.4611
  C        -0.02390         -0.00000         0.03016
  C         0.01798          0.00000         1.36964
  H         0.93837         -0.00000        -0.55936
  H         0.77950         -0.00000         1.79414
  H        -0.68483          0.00000         1.81266
  C        -1.28929         -0.00000        -0.76695
  H        -1.08229          0.00000        -1.83686
  H        -1.88802         -0.87822        -0.53098
  H        -1.88802          0.87822        -0.53098
9
 step=         427     theta[rad]=           4.4715
  C        -0.02177         -0.00000         0.02989
  C         0.01940          0.00000         1.35596
  H         0.91333         -0.00000        -0.54477
  H         0.89195         -0.00000         1.86024
  H        -0.81464          0.00000         1.89882
  C        -1.28924         -0.00000        -0.76717
  H        -1.08245          0.00000        -1.83481
  H        -1.88820         -0.87844        -0.53095
  H        -1.88820          0.87844        -0.53095
9
 step=         428     theta[rad]=           4.4820
  C        -0.01697         -0.00000         0.02929
  C         0.02260          0.00000         1.32514
  H         0.85698         -0.00000        -0.51192
  H         1.14510         -0.00000         2.00907
  H        -1.10687          0.00000         2.09279
  C        -1.28913         -0.00000        -0.76767
  H        -1.08283          0.00000        -1.83021
  H        -1.88861         -0.87894        -0.53090
  H        -1.88861          0.87894        -0.53090
9
 step=         429     theta[rad]=           4.4925
  C        -0.02127         -0.00000         0.02983
  C         0.01973          0.00000         1.35278
  H         0.90753         -0.00000        -0.54138
  H         0.91803         -0.00000         1.87558
  H        -0.84475          0.00000         1.91881
  C        -1.28923         -0.00000        -0.76722
  H        -1.08249          0.00000        -1.83434
  H        -1.88824         -0.87849        -0.53095
  H        -1.88824          0.87849        -0.53095
9
 step=         430     theta[rad]=           4.5029
  C        -0.02417         -0.00000         0.03019
  C         0.01780          0.00000         1.37139
  H         0.94156         -0.00000        -0.56122
  H         0.76518         -0.00000         1.78571
  H        -0.66829          0.00000         1.80168
  C        -1.28930         -0.00000        -0.76692
  H        -1.08227          0.00000        -1.83712
  H        -1.88799         -0.87819        -0.53098
  H        -1.88799          0.87819        -0.53098
9
 step=         431     theta[rad]=           4.5134
  C        -0.01869         -0.00000         0.02951
  C         0.02145          0.00000         1.33621
  H         0.87721         -0.00000        -0.52372
  H         1.05419         -0.00000         1.95562
  H        -1.00193          0.00000         2.02314
  C        -1.28917         -0.00000        -0.76749
  H        -1.08269          0.00000        -1.83187
  H        -1.88846         -0.87876        -0.53092
  H        -1.88846          0.87876        -0.53092
9
 step=         432     theta[rad]=           4.5239
  C        -0.01797         -0.00000         0.02942
  C         0.02193          0.00000         1.33158
  H         0.86876         -0.00000        -0.51879
  H         1.09218         -0.00000         1.97796
  H        -1.04578          0.00000         2.05224
  C        -1.28916         -0.00000        -0.76757
  H        -1.08275          0.00000        -1.83118
  H        -1.88853         -0.87884        -0.53091
  H        -1.88853          0.87884        -0.53091
9
 step=         433     theta[rad]=           4.5344
  C        -0.02368         -0.00000         0.03013
  C         0.01813          0.00000         1.36826
  H         0.93583         -0.00000        -0.55788
  H         0.79090         -0.00000         1.80083
  H        -0.69798          0.00000         1.82139
  C        -1.28929         -0.00000        -0.76697
  H        -1.08230          0.00000        -1.83665
  H        -1.88804         -0.87824        -0.53098
  H        -1.88804          0.87824        -0.53098
9
 step=         434     theta[rad]=           4.5448
  C        -0.02238         -0.00000         0.02997
  C         0.01899          0.00000         1.35991
  H         0.92056         -0.00000        -0.54898
  H         0.85951         -0.00000         1.84117
  H        -0.77719          0.00000         1.87396
  C        -1.28926         -0.00000        -0.76711
  H        -1.08241          0.00000        -1.83540
  H        -1.88815         -0.87838        -0.53096
  H        -1.88815          0.87838        -0.53096
9
 step=         435     theta[rad]=           4.5553
  C        -0.01714         -0.00000         0.02931
  C         0.02249          0.00000         1.32626
  H         0.85903         -0.00000        -0.51312
  H         1.13586         -0.00000         2.00364
  H        -1.09621          0.00000         2.08571
  C        -1.28914         -0.00000        -0.76765
  H        -1.08281          0.00000        -1.83038
  H        -1.88860         -0.87892        -0.53090
  H        -1.88860          0.87892        -0.53090
9
 step=         436     theta[rad]=           4.5658
  C        -0.02007         -0.00000         0.02968
  C         0.02054          0.00000         1.34504
  H         0.89337         -0.00000        -0.53314
  H         0.98160         -0.00000         1.91295
  H        -0.91813          0.00000         1.96752
  C        -1.28920         -0.00000        -0.76735
  H        -1.08259          0.00000        -1.83318
  H        -1.88835         -0.87862        -0.53094
  H        -1.88835          0.87862        -0.53094
9
 step=         437     theta[rad]=           4.5763
  C        -0.02442         -0.00000         0.03023
  C         0.01764          0.00000         1.37297
  H         0.94444         -0.00000        -0.56290
  H         0.75221         -0.00000         1.77809
  H        -0.65332          0.00000         1.79175
  C        -1.28930         -0.00000        -0.76690
  H        -1.08225          0.00000        -1.83735
  H        -1.88797         -0.87817        -0.53098
  H        -1.88797          0.87817        -0.53098
9
 step=         438     theta[rad]=           4.5867
  C        -0.02034         -0.00000         0.02971
  C         0.02036          0.00000         1.34678
  H         0.89656         -0.00000        -0.53499
  H         0.96731         -0.00000         1.90455
  H        -0.90163          0.00000         1.95656
  C        -1.28921         -0.00000        -0.76732
  H        -1.08256          0.00000        -1.83344
  H        -1.88832         -0.87859        -0.53094
  H        -1.88832          0.87859        -0.53094
9
 step=         439     theta[rad]=           4.5972
  C        -0.01704         -0.00000         0.02930
  C         0.02255          0.00000         1.32562
  H         0.85785         -0.00000        -0.51243
  H         1.14119         -0.00000         2.00677
  H        -1.10236          0.00000         2.08980
  C        -1.28913         -0.00000        -0.76766
  H        -1.08282          0.00000        -1.83029
  H        -1.88861         -0.87893        -0.53090
  H        -1.88861          0.87893        -0.53090
9
 step=         440     theta[rad]=           4.6077
  C        -0.02184         -0.00000         0.02990
  C         0.01935          0.00000         1.35643
  H         0.91421         -0.00000        -0.54528
  H         0.88802         -0.00000         1.85793
  H        -0.81010          0.00000         1.89581
  C        -1.28924         -0.00000        -0.76716
  H        -1.08245          0.00000        -1.83488
  H        -1.88819         -0.87843        -0.53096
  H        -1.88819          0.87843        -0.53096
9
 step=         441     theta[rad]=           4.6181
  C        -0.02411         -0.00000         0.03019
  C         0.01784          0.00000         1.37101
  H         0.94086         -0.00000        -0.56081
  H         0.76829         -0.00000         1.78754
  H        -0.67189          0.00000         1.80407
  C        -1.28930         -0.00000        -0.76693
  H        -1.08227          0.00000        -1.83706
  H        -1.88800         -0.87820        -0.53098
  H        -1.88800          0.87820        -0.53098
9
 step=         442     theta[rad]=           4.6286
  C        -0.01893         -0.00000         0.02954
  C         0.02130          0.00000         1.33772
  H         0.87999         -0.00000        -0.52533
  H         1.04175         -0.00000         1.94831
  H        -0.98756          0.00000         2.01360
  C        -1.28918         -0.00000        -0.76747
  H        -1.08267          0.00000        -1.83209
  H        -1.88844         -0.87874        -0.53092
  H        -1.88844          0.87874        -0.53092
9
 step=         443     theta[rad]=           4.6391
  C        -0.01754         -0.00000         0.02936
  C         0.02222          0.00000         1.32882
  H         0.86371         -0.00000        -0.51584
  H         1.11487         -0.00000         1.99130
  H        -1.07198          0.00000         2.06963
  C        -1.28915         -0.00000        -0.76761
  H        -1.08278          0.00000        -1.83076
  H        -1.88856         -0.87888        -0.53091
  H        -1.88856          0.87888        -0.53091
9
 step=         444     theta[rad]=           4.6496
  C        -0.02288         -0.00000         0.03003
  C         0.01866          0.00000         1.36311
  H         0.92641         -0.00000        -0.55239
  H         0.83319         -0.00000         1.82570
  H        -0.74681          0.00000         1.85380
  C        -1.28927         -0.00000        -0.76706
  H        -1.08237          0.00000        -1.83588
  H        -1.88811         -0.87833        -0.53097
  H        -1.88811          0.87833        -0.53097
9
 step=         445     theta[rad]=           4.6600
  C        -0.02359         -0.00000         0.03012
  C         0.01819          0.00000         1.36764
  H         0.93471         -0.00000        -0.55722
  H         0.79594         -0.00000         1.80380
  H        -0.70381          0.00000         1.82526
  C        -1.28928         -0.00000        -0.76698
  H        -1.08231          0.00000        -1.83656
  H        -1.88804         -0.87825        -0.53097
  H        -1.88804          0.87825        -0.53097
9
 step=         446     theta[rad]=           4.6705
  C        -0.01822         -0.00000         0.02945
  C         0.02177          0.00000         1.33320
  H         0.87172         -0.00000        -0.52051
  H         1.07887         -0.00000         1.97013
  H        -1.03042          0.00000         2.04205
  C        -1.28916         -0.00000        -0.76754
  H        -1.08273          0.00000        -1.83142
  H        -1.88851         -0.87881        -0.53092
  H        -1.88851          0.87881        -0.53092
9
 step=         447     theta[rad]=           4.6810
  C        -0.01797         -0.00000         0.02942
  C         0.02193          0.00000         1.33158
  H         0.86876         -0.00000        -0.51879
  H         1.09218         -0.00000         1.97796
  H        -1.04578          0.00000         2.05224
  C        -1.28916         -0.00000        -0.76757
  H        -1.08275          0.00000        -1.83118
  H        -1.88853         -0.87884        -0.53091
  H        -1.88853          0.87884        -0.53091
9
 step=         448     theta[rad]=           4.6914
  C        -0.02330         -0.00000         0.03008
  C         0.01838          0.00000         1.36579
  H         0.93131         -0.00000        -0.55525
  H         0.81118         -0.00000         1.81276
  H        -0.72140          0.00000         1.83694
  C        -1.28928         -0.00000        -0.76701
  H        -1.08233          0.00000        -1.83628
  H        -1.88807         -0.87828        -0.53097
  H        -1.88807          0.87828        -0.53097
9
 step=         449     theta[rad]=           4.7019
  C        -0.02333         -0.00000         0.03009
  C         0.01836          0.00000         1.36597
  H         0.93164         -0.00000        -0.55544
  H         0.80972         -0.00000         1.81190
  H        -0.71971          0.00000         1.83582
  C        -1.28928         -0.00000        -0.76701
  H        -1.08233          0.00000        -1.83631
  H        -1.88807         -0.87828        -0.53097
  H        -1.88807          0.87828        -0.53097
9
 step=         450     theta[rad]=           4.7124
  C        -0.01805         -0.00000         0.02943
  C         0.02188          0.00000         1.33211
  H         0.86971         -0.00000        -0.51935
  H         1.08788         -0.00000         1.97543
  H        -1.04082          0.00000         2.04895
  C        -1.28916         -0.00000        -0.76756
  H        -1.08274          0.00000        -1.83125
  H        -1.88852         -0.87883        -0.53091
  H        -1.88852          0.87883        -0.53091
9
 step=         451     theta[rad]=           4.7229
  C        -0.01802         -0.00000         0.02942
  C         0.02190          0.00000         1.33193
  H         0.86939         -0.00000        -0.51916
  H         1.08933         -0.00000         1.97628
  H        -1.04249          0.00000         2.05006
  C        -1.28916         -0.00000        -0.76756
  H        -1.08274          0.00000        -1.83123
  H        -1.88852         -0.87883        -0.53091
  H        -1.88852          0.87883        -0.53091
9
 step=         452     theta[rad]=           4.7333
  C        -0.02324         -0.00000         0.03008
  C         0.01842          0.00000         1.36543
  H         0.93065         -0.00000        -0.55486
  H         0.81416         -0.00000         1.81451
  H        -0.72484          0.00000         1.83922
  C        -1.28928         -0.00000        -0.76702
  H        -1.08234          0.00000        -1.83623
  H        -1.88807         -0.87829        -0.53097
  H        -1.88807          0.87829        -0.53097
9
 step=         453     theta[rad]=           4.7438
  C        -0.02349         -0.00000         0.03011
  C         0.01826          0.00000         1.36700
  H         0.93352         -0.00000        -0.55653
  H         0.80126         -0.00000         1.80693
  H        -0.70995          0.00000         1.82933
  C        -1.28928         -0.00000        -0.76699
  H        -1.08232          0.00000        -1.83646
  H        -1.88805         -0.87826        -0.53097
  H        -1.88805          0.87826        -0.53097
9
 step=         454     theta[rad]=           4.7543
  C        -0.01834         -0.00000         0.02946
  C         0.02169          0.00000         1.33397
  H         0.87312         -0.00000        -0.52133
  H         1.07258         -0.00000         1.96643
  H        -1.02316          0.00000         2.03723
  C        -1.28916         -0.00000        -0.76753
  H        -1.08272          0.00000        -1.83153
  H        -1.88849         -0.87880        -0.53092
  H        -1.88849          0.87880        -0.53092
9
 step=         455     theta[rad]=           4.7647
  C        -0.01767         -0.00000         0.02938
  C         0.02213          0.00000         1.32967
  H         0.86525         -0.00000        -0.51675
  H         1.10793         -0.00000         1.98721
  H        -1.06396          0.00000         2.06431
  C        -1.28915         -0.00000        -0.76760
  H        -1.08277          0.00000        -1.83089
  H        -1.88855         -0.87887        -0.53091
  H        -1.88855          0.87887        -0.53091
9
 step=         456     theta[rad]=           4.7752
  C        -0.02269         -0.00000         0.03001
  C         0.01879          0.00000         1.36187
  H         0.92414         -0.00000        -0.55107
  H         0.84341         -0.00000         1.83171
  H        -0.75860          0.00000         1.86163
  C        -1.28926         -0.00000        -0.76708
  H        -1.08238          0.00000        -1.83570
  H        -1.88812         -0.87835        -0.53096
  H        -1.88812          0.87835        -0.53096
9
 step=         457     theta[rad]=           4.7857
  C        -0.02398         -0.00000         0.03017
  C         0.01793          0.00000         1.37014
  H         0.93927         -0.00000        -0.55988
  H         0.77546         -0.00000         1.79176
  H        -0.68016          0.00000         1.80956
  C        -1.28929         -0.00000        -0.76694
  H        -1.08228          0.00000        -1.83693
  H        -1.88801         -0.87821        -0.53098
  H        -1.88801          0.87821        -0.53098
9
 step=         458     theta[rad]=           4.7962
  C        -0.01921         -0.00000         0.02957
  C         0.02111          0.00000         1.33953
  H         0.88329         -0.00000        -0.52726
  H         1.02692         -0.00000         1.93959
  H        -0.97044          0.00000         2.00224
  C        -1.28918         -0.00000        -0.76744
  H        -1.08265          0.00000        -1.83236
  H        -1.88842         -0.87871        -0.53093
  H        -1.88842          0.87871        -0.53093
9
 step=         459     theta[rad]=           4.8066
  C        -0.01714         -0.00000         0.02931
  C         0.02249          0.00000         1.32626
  H         0.85903         -0.00000        -0.51312
  H         1.13586         -0.00000         2.00364
  H        -1.09621          0.00000         2.08571
  C        -1.28914         -0.00000        -0.76765
  H        -1.08281          0.00000        -1.83038
  H        -1.88860         -0.87892        -0.53090
  H        -1.88860          0.87892        -0.53090
9
 step=         460     theta[rad]=           4.8171
  C        -0.02146         -0.00000         0.02985
  C         0.01960          0.00000         1.35401
  H         0.90978         -0.00000        -0.54270
  H         0.90791         -0.00000         1.86962
  H        -0.83306          0.00000         1.91105
  C        -1.28924         -0.00000        -0.76720
  H        -1.08248          0.00000        -1.83452
  H        -1.88823         -0.87847        -0.53095
  H        -1.88823          0.87847        -0.53095
9
 step=         461     theta[rad]=           4.8276
  C        -0.02440         -0.00000         0.03022
  C         0.01765          0.00000         1.37287
  H         0.94427         -0.00000        -0.56280
  H         0.75298         -0.00000         1.77855
  H        -0.65422          0.00000         1.79234
  C        -1.28930         -0.00000        -0.76690
  H        -1.08225          0.00000        -1.83734
  H        -1.88797         -0.87817        -0.53098
  H        -1.88797          0.87817        -0.53098
9
 step=         462     theta[rad]=           4.8381
  C        -0.02081         -0.00000         0.02977
  C         0.02004          0.00000         1.34979
  H         0.90205         -0.00000        -0.53819
  H         0.94262         -0.00000         1.89003
  H        -0.87313          0.00000         1.93765
  C        -1.28922         -0.00000        -0.76727
  H        -1.08253          0.00000        -1.83389
  H        -1.88828         -0.87854        -0.53094
  H        -1.88828          0.87854        -0.53094
9
 step=         463     theta[rad]=           4.8485
  C        -0.01701         -0.00000         0.02929
  C         0.02257          0.00000         1.32543
  H         0.85750         -0.00000        -0.51223
  H         1.14274         -0.00000         2.00768
  H        -1.10414          0.00000         2.09098
  C        -1.28913         -0.00000        -0.76767
  H        -1.08282          0.00000        -1.83026
  H        -1.88861         -0.87894        -0.53090
  H        -1.88861          0.87894        -0.53090
9
 step=         464     theta[rad]=           4.8590
  C        -0.01954         -0.00000         0.02961
  C         0.02089          0.00000         1.34164
  H         0.88715         -0.00000        -0.52951
  H         1.00958         -0.00000         1.92940
  H        -0.95043          0.00000         1.98895
  C        -1.28919         -0.00000        -0.76740
  H        -1.08263          0.00000        -1.83268
  H        -1.88839         -0.87867        -0.53093
  H        -1.88839          0.87867        -0.53093
9
 step=         465     theta[rad]=           4.8695
  C        -0.02401         -0.00000         0.03017
  C         0.01791          0.00000         1.37037
  H         0.93969         -0.00000        -0.56013
  H         0.77355         -0.00000         1.79064
  H        -0.67796          0.00000         1.80810
  C        -1.28929         -0.00000        -0.76694
  H        -1.08228          0.00000        -1.83696
  H        -1.88801         -0.87821        -0.53098
  H        -1.88801          0.87821        -0.53098
9
 step=         466     theta[rad]=           4.8799
  C        -0.02291         -0.00000         0.03004
  C         0.01864          0.00000         1.36331
  H         0.92678         -0.00000        -0.55261
  H         0.83153         -0.00000         1.82472
  H        -0.74489          0.00000         1.85253
  C        -1.28927         -0.00000        -0.76705
  H        -1.08236          0.00000        -1.83591
  H        -1.88810         -0.87832        -0.53097
  H        -1.88810          0.87832        -0.53097
9
 step=         467     theta[rad]=           4.8904
  C        -0.01814         -0.00000         0.02944
  C         0.02182          0.00000         1.33265
  H         0.87070         -0.00000        -0.51992
  H         1.08344         -0.00000         1.97282
  H        -1.03570          0.00000         2.04555
  C        -1.28916         -0.00000        -0.76755
  H        -1.08273          0.00000        -1.83133
  H        -1.88851         -0.87882        -0.53091
  H        -1.88851          0.87882        -0.53091
9
 step=         468     theta[rad]=           4.9009
  C        -0.01754         -0.00000         0.02936
  C         0.02222          0.00000         1.32882
  H         0.86371         -0.00000        -0.51584
  H         1.11487         -0.00000         1.99130
  H        -1.07198          0.00000         2.06963
  C        -1.28915         -0.00000        -0.76761
  H        -1.08278          0.00000        -1.83076
  H        -1.88856         -0.87888        -0.53091
  H        -1.88856          0.87888        -0.53091
9
 step=         469     theta[rad]=           4.9114
  C        -0.02203         -0.00000         0.02992
  C         0.01923          0.00000         1.35762
  H         0.91637         -0.00000        -0.54654
  H         0.87831         -0.00000         1.85223
  H        -0.79890          0.00000         1.88837
  C        -1.28925         -0.00000        -0.76714
  H        -1.08243          0.00000        -1.83506
  H        -1.88818         -0.87841        -0.53096
  H        -1.88818          0.87841        -0.53096
9
 step=         470     theta[rad]=           4.9218
  C        -0.02437         -0.00000         0.03022
  C         0.01767          0.00000         1.37268
  H         0.94393         -0.00000        -0.56260
  H         0.75453         -0.00000         1.77946
  H        -0.65601          0.00000         1.79353
  C        -1.28930         -0.00000        -0.76690
  H        -1.08225          0.00000        -1.83731
  H        -1.88798         -0.87817        -0.53098
  H        -1.88798          0.87817        -0.53098
9
 step=         471     theta[rad]=           4.9323
  C        -0.02092         -0.00000         0.02979
  C         0.01997          0.00000         1.35054
  H         0.90343         -0.00000        -0.53899
  H         0.93645         -0.00000         1.88640
  H        -0.86601          0.00000         1.93292
  C        -1.28922         -0.00000        -0.76726
  H        -1.08252          0.00000        -1.83400
  H        -1.88827         -0.87853        -0.53095
  H        -1.88827          0.87853        -0.53095
9
 step=         472     theta[rad]=           4.9428
  C        -0.01712         -0.00000         0.02931
  C         0.02250          0.00000         1.32611
  H         0.85876         -0.00000        -0.51296
  H         1.13710         -0.00000         2.00436
  H        -1.09763          0.00000         2.08666
  C        -1.28914         -0.00000        -0.76766
  H        -1.08281          0.00000        -1.83036
  H        -1.88860         -0.87893        -0.53090
  H        -1.88860          0.87893        -0.53090
9
 step=         473     theta[rad]=           4.9532
  C        -0.01879         -0.00000         0.02952
  C         0.02139          0.00000         1.33685
  H         0.87839         -0.00000        -0.52440
  H         1.04892         -0.00000         1.95253
  H        -0.99585          0.00000         2.01910
  C        -1.28917         -0.00000        -0.76748
  H        -1.08268          0.00000        -1.83196
  H        -1.88846         -0.87875        -0.53092
  H        -1.88846          0.87875        -0.53092
9
 step=         474     theta[rad]=           4.9637
  C        -0.02333         -0.00000         0.03009
  C         0.01836          0.00000         1.36597
  H         0.93164         -0.00000        -0.55544
  H         0.80972         -0.00000         1.81190
  H        -0.71971          0.00000         1.83582
  C        -1.28928         -0.00000        -0.76701
  H        -1.08233          0.00000        -1.83631
  H        -1.88807         -0.87828        -0.53097
  H        -1.88807          0.87828        -0.53097
9
 step=         475     theta[rad]=           4.9742
  C        -0.02392         -0.00000         0.03016
  C         0.01797          0.00000         1.36977
  H         0.93860         -0.00000        -0.55949
  H         0.77846         -0.00000         1.79353
  H        -0.68363          0.00000         1.81187
  C        -1.28929         -0.00000        -0.76695
  H        -1.08229          0.00000        -1.83688
  H        -1.88802         -0.87822        -0.53098
  H        -1.88802          0.87822        -0.53098
9
 step=         476     theta[rad]=           4.9847
  C        -0.01976         -0.00000         0.02964
  C         0.02074          0.00000         1.34308
  H         0.88979         -0.00000        -0.53104
  H         0.99772         -0.00000         1.92242
  H        -0.93673          0.00000         1.97986
  C        -1.28920         -0.00000        -0.76738
  H        -1.08261          0.00000        -1.83289
  H        -1.88837         -0.87865        -0.53093
  H        -1.88837          0.87865        -0.53093
9
 step=         477     theta[rad]=           4.9951
  C        -0.01696         -0.00000         0.02929
  C         0.02261          0.00000         1.32510
  H         0.85691         -0.00000        -0.51188
  H         1.14539         -0.00000         2.00924
  H        -1.10721          0.00000         2.09302
  C        -1.28913         -0.00000        -0.76767
  H        -1.08283          0.00000        -1.83021
  H        -1.88861         -0.87894        -0.53090
  H        -1.88861          0.87894        -0.53090
9
 step=         478     theta[rad]=           5.0056
  C        -0.01950         -0.00000         0.02961
  C         0.02091          0.00000         1.34140
  H         0.88671         -0.00000        -0.52925
  H         1.01154         -0.00000         1.93055
  H        -0.95269          0.00000         1.99045
  C        -1.28919         -0.00000        -0.76741
  H        -1.08263          0.00000        -1.83264
  H        -1.88840         -0.87868        -0.53093
  H        -1.88840          0.87868        -0.53093
9
 step=         479     theta[rad]=           5.0161
  C        -0.02371         -0.00000         0.03014
  C         0.01811          0.00000         1.36841
  H         0.93610         -0.00000        -0.55804
  H         0.78968         -0.00000         1.80012
  H        -0.69658          0.00000         1.82046
  C        -1.28929         -0.00000        -0.76697
  H        -1.08230          0.00000        -1.83667
  H        -1.88803         -0.87824        -0.53098
  H        -1.88803          0.87824        -0.53098
9
 step=         480     theta[rad]=           5.0265
  C        -0.02371         -0.00000         0.03014
  C         0.01811          0.00000         1.36841
  H         0.93610         -0.00000        -0.55804
  H         0.78968         -0.00000         1.80012
  H        -0.69658          0.00000         1.82046
  C        -1.28929         -0.00000        -0.76697
  H        -1.08230          0.00000        -1.83667
  H        -1.88803         -0.87824        -0.53098
  H        -1.88803          0.87824        -0.53098
9
 step=         481     theta[rad]=           5.0370
  C        -0.01957         -0.00000         0.02962
  C         0.02087          0.00000         1.34188
  H         0.88758         -0.00000        -0.52976
  H         1.00762         -0.00000         1.92824
  H        -0.94817          0.00000         1.98745
  C        -1.28919         -0.00000        -0.76740
  H        -1.08262          0.00000        -1.83271
  H        -1.88839         -0.87867        -0.53093
  H        -1.88839          0.87867        -0.53093
9
 step=         482     theta[rad]=           5.0475
  C        -0.01696         -0.00000         0.02929
  C         0.02261          0.00000         1.32510
  H         0.85691         -0.00000        -0.51188
  H         1.14539         -0.00000         2.00924
  H        -1.10721          0.00000         2.09302
  C        -1.28913         -0.00000        -0.76767
  H        -1.08283          0.00000        -1.83021
  H        -1.88861         -0.87894        -0.53090
  H        -1.88861          0.87894        -0.53090
9
 step=         483     theta[rad]=           5.0580
  C        -0.01932         -0.00000         0.02958
  C         0.02104          0.00000         1.34022
  H         0.88456         -0.00000        -0.52800
  H         1.02121         -0.00000         1.93623
  H        -0.96385          0.00000         1.99786
  C        -1.28919         -0.00000        -0.76743
  H        -1.08264          0.00000        -1.83247
  H        -1.88841         -0.87870        -0.53093
  H        -1.88841          0.87870        -0.53093
9
 step=         484     theta[rad]=           5.0684
  C        -0.02346         -0.00000         0.03011
  C         0.01827          0.00000         1.36683
  H         0.93322         -0.00000        -0.55636
  H         0.80263         -0.00000         1.80773
  H        -0.71153          0.00000         1.83038
  C        -1.28928         -0.00000        -0.76699
  H        -1.08232          0.00000        -1.83644
  H        -1.88806         -0.87827        -0.53097
  H        -1.88806          0.87827        -0.53097
9
 step=         485     theta[rad]=           5.0789
  C        -0.02401         -0.00000         0.03017
  C         0.01791          0.00000         1.37037
  H         0.93969         -0.00000        -0.56013
  H         0.77355         -0.00000         1.79064
  H        -0.67796          0.00000         1.80810
  C        -1.28929         -0.00000        -0.76694
  H        -1.08228          0.00000        -1.83696
  H        -1.88801         -0.87821        -0.53098
  H        -1.88801          0.87821        -0.53098
9
 step=         486     theta[rad]=           5.0894
  C        -0.02034         -0.00000         0.02971
  C         0.02036          0.00000         1.34678
  H         0.89656         -0.00000        -0.53499
  H         0.96731         -0.00000         1.90455
  H        -0.90163          0.00000         1.95656
  C        -1.28921         -0.00000        -0.76732
  H        -1.08256          0.00000        -1.83344
  H        -1.88832         -0.87859        -0.53094
  H        -1.88832          0.87859        -0.53094
9
 step=         487     theta[rad]=           5.0999
  C        -0.01712         -0.00000         0.02931
  C         0.02250          0.00000         1.32611
  H         0.85876         -0.00000        -0.51296
  H         1.13710         -0.00000         2.00436
  H        -1.09763          0.00000         2.08666
  C        -1.28914         -0.00000        -0.76766
  H        -1.08281          0.00000        -1.83036
  H        -1.88860         -0.87893        -0.53090
  H        -1.88860          0.87893        -0.53090
9
 step=         488     theta[rad]=           5.1103
  C        -0.01831         -0.00000         0.02946
  C         0.02171          0.00000         1.33377
  H         0.87277         -0.00000        -0.52112
  H         1.07418         -0.00000         1.96737
  H        -1.02500          0.00000         2.03845
  C        -1.28916         -0.00000        -0.76753
  H        -1.08272          0.00000        -1.83150
  H        -1.88850         -0.87880        -0.53092
  H        -1.88850          0.87880        -0.53092
9
 step=         489     theta[rad]=           5.1208
  C        -0.02238         -0.00000         0.02997
  C         0.01899          0.00000         1.35991
  H         0.92056         -0.00000        -0.54898
  H         0.85951         -0.00000         1.84117
  H        -0.77719          0.00000         1.87396
  C        -1.28926         -0.00000        -0.76711
  H        -1.08241          0.00000        -1.83540
  H        -1.88815         -0.87838        -0.53096
  H        -1.88815          0.87838        -0.53096
9
 step=         490     theta[rad]=           5.1313
  C        -0.02441         -0.00000         0.03022
  C         0.01764          0.00000         1.37295
  H         0.94440         -0.00000        -0.56288
  H         0.75238         -0.00000         1.77819
  H        -0.65352          0.00000         1.79188
  C        -1.28930         -0.00000        -0.76690
  H        -1.08225          0.00000        -1.83735
  H        -1.88797         -0.87817        -0.53098
  H        -1.88797          0.87817        -0.53098
9
 step=         491     theta[rad]=           5.1417
  C        -0.02206         -0.00000         0.02993
  C         0.01921          0.00000         1.35785
  H         0.91680         -0.00000        -0.54679
  H         0.87639         -0.00000         1.85110
  H        -0.79668          0.00000         1.88690
  C        -1.28925         -0.00000        -0.76714
  H        -1.08243          0.00000        -1.83510
  H        -1.88818         -0.87841        -0.53096
  H        -1.88818          0.87841        -0.53096
9
 step=         492     theta[rad]=           5.1522
  C        -0.01814         -0.00000         0.02944
  C         0.02182          0.00000         1.33265
  H         0.87070         -0.00000        -0.51992
  H         1.08344         -0.00000         1.97282
  H        -1.03570          0.00000         2.04555
  C        -1.28916         -0.00000        -0.76755
  H        -1.08273          0.00000        -1.83133
  H        -1.88851         -0.87882        -0.53091
  H        -1.88851          0.87882        -0.53091
9
 step=         493     theta[rad]=           5.1627
  C        -0.01713         -0.00000         0.02931
  C         0.02249          0.00000         1.32619
  H         0.85889         -0.00000        -0.51304
  H         1.13649         -0.00000         2.00400
  H        -1.09693          0.00000         2.08619
  C        -1.28914         -0.00000        -0.76765
  H        -1.08281          0.00000        -1.83037
  H        -1.88860         -0.87892        -0.53090
  H        -1.88860          0.87892        -0.53090
9
 step=         494     theta[rad]=           5.1732
  C        -0.02011         -0.00000         0.02968
  C         0.02051          0.00000         1.34529
  H         0.89383         -0.00000        -0.53340
  H         0.97957         -0.00000         1.91175
  H        -0.91579          0.00000         1.96596
  C        -1.28920         -0.00000        -0.76734
  H        -1.08258          0.00000        -1.83322
  H        -1.88834         -0.87861        -0.53094
  H        -1.88834          0.87861        -0.53094
9
 step=         495     theta[rad]=           5.1836
  C        -0.02371         -0.00000         0.03014
  C         0.01811          0.00000         1.36841
  H         0.93610         -0.00000        -0.55804
  H         0.78968         -0.00000         1.80012
  H        -0.69658          0.00000         1.82046
  C        -1.28929         -0.00000        -0.76697
  H        -1.08230          0.00000        -1.83667
  H        -1.88803         -0.87824        -0.53098
  H        -1.88803          0.87824        -0.53098
9
 step=         496     theta[rad]=           5.1941
  C        -0.02403         -0.00000         0.03018
  C         0.01789          0.00000         1.37048
  H         0.93990         -0.00000        -0.56025
  H         0.77262         -0.00000         1.79009
  H        -0.67689          0.00000         1.80739
  C        -1.28929         -0.00000        -0.76694
  H        -1.08228          0.00000        -1.83698
  H        -1.88801         -0.87821        -0.53098
  H        -1.88801          0.87821        -0.53098
9
 step=         497     theta[rad]=           5.2046
  C        -0.02081         -0.00000         0.02977
  C         0.02004          0.00000         1.34979
  H         0.90205         -0.00000        -0.53819
  H         0.94262         -0.00000         1.89003
  H        -0.87313          0.00000         1.93765
  C        -1.28922         -0.00000        -0.76727
  H        -1.08253          0.00000        -1.83389
  H        -1.88828         -0.87854        -0.53094
  H        -1.88828          0.87854        -0.53094
9
 step=         498     theta[rad]=           5.2150
  C        -0.01748         -0.00000         0.02935
  C         0.02226          0.00000         1.32843
  H         0.86299         -0.00000        -0.51543
  H         1.11810         -0.00000         1.99319
  H        -1.07570          0.00000         2.07210
  C        -1.28914         -0.00000        -0.76762
  H        -1.08279          0.00000        -1.83070
  H        -1.88857         -0.87889        -0.53091
  H        -1.88857          0.87889        -0.53091
9
 step=         499     theta[rad]=           5.2255
  C        -0.01746         -0.00000         0.02935
  C         0.02227          0.00000         1.32830
  H         0.86276         -0.00000        -0.51529
  H         1.11914         -0.00000         1.99380
  H        -1.07690          0.00000         2.07290
  C        -1.28914         -0.00000        -0.76762
  H        -1.08279          0.00000        -1.83069
  H        -1.88857         -0.87889        -0.53091
  H        -1.88857          0.87889        -0.53091
9
 step=         500     theta[rad]=           5.2360
  C        -0.02069         -0.00000         0.02976
  C         0.02012          0.00000         1.34904
  H         0.90068         -0.00000        -0.53739
  H         0.94880         -0.00000         1.89367
  H        -0.88027          0.00000         1.94238
  C        -1.28922         -0.00000        -0.76728
  H        -1.08254          0.00000        -1.83378
  H        -1.88829         -0.87855        -0.53094
  H        -1.88829          0.87855        -0.53094
9
 step=         501     theta[rad]=           5.2465
  C        -0.02390         -0.00000         0.03016
  C         0.01798          0.00000         1.36964
  H         0.93837         -0.00000        -0.55936
  H         0.77950         -0.00000         1.79414
  H        -0.68483          0.00000         1.81266
  C        -1.28929         -0.00000        -0.76695
  H        -1.08229          0.00000        -1.83686
  H        -1.88802         -0.87822        -0.53098
  H        -1.88802          0.87822        -0.53098
9
 step=         502     theta[rad]=           5.2569
  C        -0.02398         -0.00000         0.03017
  C         0.01793          0.00000         1.37014
  H         0.93927         -0.00000        -0.55988
  H         0.77546         -0.00000         1.79176
  H        -0.68016          0.00000         1.80956
  C        -1.28929         -0.00000        -0.76694
  H        -1.08228          0.00000        -1.83693
  H        -1.88801         -0.87821        -0.53098
  H        -1.88801          0.87821        -0.53098
9
 step=         503     theta[rad]=           5.2674
  C        -0.02092         -0.00000         0.02979
  C         0.01997          0.00000         1.35054
  H         0.90343         -0.00000        -0.53899
  H         0.93645         -0.00000         1.88640
  H        -0.86601          0.00000         1.93292
  C        -1.28922         -0.00000        -0.76726
  H        -1.08252          0.00000        -1.83400
  H        -1.88827         -0.87853        -0.53095
  H        -1.88827          0.87853        -0.53095
9
 step=         504     theta[rad]=           5.2779
  C        -0.01767         -0.00000         0.02938
  C         0.02213          0.00000         1.32967
  H         0.86525         -0.00000        -0.51675
  H         1.10793         -0.00000         1.98721
  H        -1.06396          0.00000         2.06431
  C        -1.28915         -0.00000        -0.76760
  H        -1.08277          0.00000        -1.83089
  H        -1.88855         -0.87887        -0.53091
  H        -1.88855          0.87887        -0.53091
9
 step=         505     theta[rad]=           5.2883
  C        -0.01721         -0.00000         0.02932
  C         0.02244          0.00000         1.32668
  H         0.85980         -0.00000        -0.51357
  H         1.13243         -0.00000         2.00162
  H        -1.09224          0.00000         2.08308
  C        -1.28914         -0.00000        -0.76765
  H        -1.08281          0.00000        -1.83044
  H        -1.88859         -0.87892        -0.53090
  H        -1.88859          0.87892        -0.53090
9
 step=         506     theta[rad]=           5.2988
  C        -0.01988         -0.00000         0.02965
  C         0.02066          0.00000         1.34381
  H         0.89113         -0.00000        -0.53182
  H         0.99171         -0.00000         1.91889
  H        -0.92980          0.00000         1.97526
  C        -1.28920         -0.00000        -0.76737
  H        -1.08260          0.00000        -1.83300
  H        -1.88836         -0.87864        -0.53093
  H        -1.88836          0.87864        -0.53093
9
 step=         507     theta[rad]=           5.3093
  C        -0.02324         -0.00000         0.03008
  C         0.01842          0.00000         1.36543
  H         0.93065         -0.00000        -0.55486
  H         0.81416         -0.00000         1.81451
  H        -0.72484          0.00000         1.83922
  C        -1.28928         -0.00000        -0.76702
  H        -1.08234          0.00000        -1.83623
  H        -1.88807         -0.87829        -0.53097
  H        -1.88807          0.87829        -0.53097
9
 step=         508     theta[rad]=           5.3198
  C        -0.02438         -0.00000         0.03022
  C         0.01766          0.00000         1.37272
  H         0.94400         -0.00000        -0.56264
  H         0.75422         -0.00000         1.77927
  H        -0.65565          0.00000         1.79329
  C        -1.28930         -0.00000        -0.76690
  H        -1.08225          0.00000        -1.83732
  H        -1.88798         -0.87817        -0.53098
  H        -1.88798          0.87817        -0.53098
9
 step=         509     theta[rad]=           5.3302
  C        -0.02238         -0.00000         0.02997
  C         0.01899          0.00000         1.35991
  H         0.92056         -0.00000        -0.54898
  H         0.85951         -0.00000         1.84117
  H        -0.77719          0.00000         1.87396
  C        -1.28926         -0.00000        -0.76711
  H        -1.08241          0.00000        -1.83540
  H        -1.88815         -0.87838        -0.53096
  H        -1.88815          0.87838        -0.53096
9
 step=         510     theta[rad]=           5.3407
  C        -0.01900         -0.00000         0.02954
  C         0.02125          0.00000         1.33817
  H         0.88080         -0.00000        -0.52581
  H         1.03810         -0.00000         1.94616
  H        -0.98335          0.00000         2.01080
  C        -1.28918         -0.00000        -0.76746
  H        -1.08267          0.00000        -1.83216
  H        -1.88844         -0.87873        -0.53092
  H        -1.88844          0.87873        -0.53092
9
 step=         511     theta[rad]=           5.3512
  C        -0.01701         -0.00000         0.02929
  C         0.02257          0.00000         1.32543
  H         0.85750         -0.00000        -0.51223
  H         1.14274         -0.00000         2.00768
  H        -1.10414          0.00000         2.09098
  C        -1.28913         -0.00000        -0.76767
  H        -1.08282          0.00000        -1.83026
  H        -1.88861         -0.87894        -0.53090
  H        -1.88861          0.87894        -0.53090
9
 step=         512     theta[rad]=           5.3617
  C        -0.01797         -0.00000         0.02942
  C         0.02193          0.00000         1.33158
  H         0.86876         -0.00000        -0.51879
  H         1.09218         -0.00000         1.97796
  H        -1.04578          0.00000         2.05224
  C        -1.28916         -0.00000        -0.76757
  H        -1.08275          0.00000        -1.83118
  H        -1.88853         -0.87884        -0.53091
  H        -1.88853          0.87884        -0.53091
9
 step=         513     theta[rad]=           5.3721
  C        -0.02104         -0.00000         0.02980
  C         0.01989          0.00000         1.35129
  H         0.90480         -0.00000        -0.53979
  H         0.93029         -0.00000         1.88278
  H        -0.85890          0.00000         1.92820
  C        -1.28923         -0.00000        -0.76725
  H        -1.08251          0.00000        -1.83412
  H        -1.88826         -0.87852        -0.53095
  H        -1.88826          0.87852        -0.53095
9
 step=         514     theta[rad]=           5.3826
  C        -0.02382         -0.00000         0.03015
  C         0.01804          0.00000         1.36912
  H         0.93740         -0.00000        -0.55879
  H         0.78384         -0.00000         1.79669
  H        -0.68984          0.00000         1.81599
  C        -1.28929         -0.00000        -0.76696
  H        -1.08229          0.00000        -1.83678
  H        -1.88802         -0.87823        -0.53098
  H        -1.88802          0.87823        -0.53098
9
 step=         515     theta[rad]=           5.3931
  C        -0.02424         -0.00000         0.03020
  C         0.01776          0.00000         1.37181
  H         0.94232         -0.00000        -0.56166
  H         0.76174         -0.00000         1.78369
  H        -0.66432          0.00000         1.79905
  C        -1.28930         -0.00000        -0.76691
  H        -1.08226          0.00000        -1.83718
  H        -1.88799         -0.87818        -0.53098
  H        -1.88799          0.87818        -0.53098
9
 step=         516     theta[rad]=           5.4035
  C        -0.02206         -0.00000         0.02993
  C         0.01921          0.00000         1.35785
  H         0.91680         -0.00000        -0.54679
  H         0.87639         -0.00000         1.85110
  H        -0.79668          0.00000         1.88690
  C        -1.28925         -0.00000        -0.76714
  H        -1.08243          0.00000        -1.83510
  H        -1.88818         -0.87841        -0.53096
  H        -1.88818          0.87841        -0.53096
9
 step=         517     theta[rad]=           5.4140
  C        -0.01893         -0.00000         0.02954
  C         0.02130          0.00000         1.33772
  H         0.87999         -0.00000        -0.52533
  H         1.04175         -0.00000         1.94831
  H        -0.98756          0.00000         2.01360
  C        -1.28918         -0.00000        -0.76747
  H        -1.08267          0.00000        -1.83209
  H        -1.88844         -0.87874        -0.53092
  H        -1.88844          0.87874        -0.53092
9
 step=         518     theta[rad]=           5.4245
  C        -0.01705         -0.00000         0.02930
  C         0.02255          0.00000         1.32567
  H         0.85794         -0.00000        -0.51249
  H         1.14075         -0.00000         2.00651
  H        -1.10185          0.00000         2.08946
  C        -1.28914         -0.00000        -0.76766
  H        -1.08282          0.00000        -1.83029
  H        -1.88861         -0.87893        -0.53090
  H        -1.88861          0.87893        -0.53090
9
 step=         519     theta[rad]=           5.4350
  C        -0.01767         -0.00000         0.02938
  C         0.02213          0.00000         1.32967
  H         0.86525         -0.00000        -0.51675
  H         1.10793         -0.00000         1.98721
  H        -1.06396          0.00000         2.06431
  C        -1.28915         -0.00000        -0.76760
  H        -1.08277          0.00000        -1.83089
  H        -1.88855         -0.87887        -0.53091
  H        -1.88855          0.87887        -0.53091
9
 step=         520     theta[rad]=           5.4454
  C        -0.02030         -0.00000         0.02971
  C         0.02038          0.00000         1.34653
  H         0.89610         -0.00000        -0.53472
  H         0.96936         -0.00000         1.90575
  H        -0.90400          0.00000         1.95814
  C        -1.28921         -0.00000        -0.76732
  H        -1.08257          0.00000        -1.83341
  H        -1.88833         -0.87859        -0.53094
  H        -1.88833          0.87859        -0.53094
9
 step=         521     theta[rad]=           5.4559
  C        -0.02316         -0.00000         0.03007
  C         0.01848          0.00000         1.36487
  H         0.92963         -0.00000        -0.55427
  H         0.81873         -0.00000         1.81720
  H        -0.73011          0.00000         1.84272
  C        -1.28927         -0.00000        -0.76703
  H        -1.08235          0.00000        -1.83614
  H        -1.88808         -0.87830        -0.53097
  H        -1.88808          0.87830        -0.53097
9
 step=         522     theta[rad]=           5.4664
  C        -0.02442         -0.00000         0.03023
  C         0.01764          0.00000         1.37297
  H         0.94444         -0.00000        -0.56290
  H         0.75221         -0.00000         1.77809
  H        -0.65332          0.00000         1.79175
  C        -1.28930         -0.00000        -0.76690
  H        -1.08225          0.00000        -1.83735
  H        -1.88797         -0.87817        -0.53098
  H        -1.88797          0.87817        -0.53098
9
 step=         523     theta[rad]=           5.4768
  C        -0.02335         -0.00000         0.03009
  C         0.01834          0.00000         1.36614
  H         0.93196         -0.00000        -0.55562
  H         0.80827         -0.00000         1.81105
  H        -0.71804          0.00000         1.83471
  C        -1.28928         -0.00000        -0.76701
  H        -1.08233          0.00000        -1.83633
  H        -1.88806         -0.87828        -0.53097
  H        -1.88806          0.87828        -0.53097
9
 step=         524     theta[rad]=           5.4873
  C        -0.02069         -0.00000         0.02976
  C         0.02012          0.00000         1.34904
  H         0.90068         -0.00000        -0.53739
  H         0.94880         -0.00000         1.89367
  H        -0.88027          0.00000         1.94238
  C        -1.28922         -0.00000        -0.76728
  H        -1.08254          0.00000        -1.83378
  H        -1.88829         -0.87855        -0.53094
  H        -1.88829          0.87855        -0.53094
9
 step=         525     theta[rad]=           5.4978
  C        -0.01805         -0.00000         0.02943
  C         0.02188          0.00000         1.33211
  H         0.86971         -0.00000        -0.51935
  H         1.08788         -0.00000         1.97543
  H        -1.04082          0.00000         2.04895
  C        -1.28916         -0.00000        -0.76756
  H        -1.08274          0.00000        -1.83125
  H        -1.88852         -0.87883        -0.53091
  H        -1.88852          0.87883        -0.53091
9
 step=         526     theta[rad]=           5.5083
  C        -0.01696         -0.00000         0.02929
  C         0.02261          0.00000         1.32509
  H         0.85689         -0.00000        -0.51187
  H         1.14548         -0.00000         2.00929
  H        -1.10731          0.00000         2.09308
  C        -1.28913         -0.00000        -0.76767
  H        -1.08283          0.00000        -1.83021
  H        -1.88861         -0.87894        -0.53090
  H        -1.88861          0.87894        -0.53090
9
 step=         527     theta[rad]=           5.5187
  C        -0.01797         -0.00000         0.02942
  C         0.02193          0.00000         1.33158
  H         0.86876         -0.00000        -0.51879
  H         1.09218         -0.00000         1.97796
  H        -1.04578          0.00000         2.05224
  C        -1.28916         -0.00000        -0.76757
  H        -1.08275          0.00000        -1.83118
  H        -1.88853         -0.87884        -0.53091
  H        -1.88853          0.87884        -0.53091
9
 step=         528     theta[rad]=           5.5292
  C        -0.02046         -0.00000         0.02973
  C         0.02028          0.00000         1.34753
  H         0.89793         -0.00000        -0.53579
  H         0.96115         -0.00000         1.90093
  H        -0.89452          0.00000         1.95185
  C        -1.28921         -0.00000        -0.76731
  H        -1.08255          0.00000        -1.83356
  H        -1.88831         -0.87858        -0.53094
  H        -1.88831          0.87858        -0.53094
9
 step=         529     theta[rad]=           5.5397
  C        -0.02304         -0.00000         0.03005
  C         0.01856          0.00000         1.36410
  H         0.92823         -0.00000        -0.55345
  H         0.82502         -0.00000         1.82090
  H        -0.73738          0.00000         1.84754
  C        -1.28927         -0.00000        -0.76704
  H        -1.08235          0.00000        -1.83603
  H        -1.88809         -0.87831        -0.53097
  H        -1.88809          0.87831        -0.53097
9
 step=         530     theta[rad]=           5.5501
  C        -0.02437         -0.00000         0.03022
  C         0.01767          0.00000         1.37268
  H         0.94393         -0.00000        -0.56260
  H         0.75453         -0.00000         1.77946
  H        -0.65601          0.00000         1.79353
  C        -1.28930         -0.00000        -0.76690
  H        -1.08225          0.00000        -1.83731
  H        -1.88798         -0.87817        -0.53098
  H        -1.88798          0.87817        -0.53098
9
 step=         531     theta[rad]=           5.5606
  C        -0.02384         -0.00000         0.03015
  C         0.01802          0.00000         1.36925
  H         0.93765         -0.00000        -0.55894
  H         0.78273         -0.00000         1.79603
  H        -0.68856          0.00000         1.81514
  C        -1.28929         -0.00000        -0.76696
  H        -1.08229          0.00000        -1.83680
  H        -1.88802         -0.87823        -0.53098
  H        -1.88802          0.87823        -0.53098
9
 step=         532     theta[rad]=           5.5711
  C        -0.02177         -0.00000         0.02989
  C         0.01940          0.00000         1.35596
  H         0.91333         -0.00000        -0.54477
  H         0.89195         -0.00000         1.86024
  H        -0.81464          0.00000         1.89882
  C        -1.28924         -0.00000        -0.76717
  H        -1.08245          0.00000        -1.83481
  H        -1.88820         -0.87844        -0.53095
  H        -1.88820          0.87844        -0.53095
9
 step=         533     theta[rad]=           5.5816
  C        -0.01921         -0.00000         0.02957
  C         0.02111          0.00000         1.33953
  H         0.88329         -0.00000        -0.52726
  H         1.02692         -0.00000         1.93959
  H        -0.97044          0.00000         2.00224
  C        -1.28918         -0.00000        -0.76744
  H        -1.08265          0.00000        -1.83236
  H        -1.88842         -0.87871        -0.53093
  H        -1.88842          0.87871        -0.53093
9
 step=         534     theta[rad]=           5.5920
  C        -0.01737         -0.00000         0.02934
  C         0.02234          0.00000         1.32770
  H         0.86166         -0.00000        -0.51465
  H         1.12405         -0.00000         1.99669
  H        -1.08257          0.00000         2.07666
  C        -1.28914         -0.00000        -0.76763
  H        -1.08279          0.00000        -1.83060
  H        -1.88858         -0.87890        -0.53091
  H        -1.88858          0.87890        -0.53091
9
 step=         535     theta[rad]=           5.6025
  C        -0.01704         -0.00000         0.02930
  C         0.02255          0.00000         1.32562
  H         0.85785         -0.00000        -0.51243
  H         1.14119         -0.00000         2.00677
  H        -1.10236          0.00000         2.08980
  C        -1.28913         -0.00000        -0.76766
  H        -1.08282          0.00000        -1.83029
  H        -1.88861         -0.87893        -0.53090
  H        -1.88861          0.87893        -0.53090
9
 step=         536     theta[rad]=           5.6130
  C        -0.01831         -0.00000         0.02946
  C         0.02171          0.00000         1.33377
  H         0.87277         -0.00000        -0.52112
  H         1.07418         -0.00000         1.96737
  H        -1.02500          0.00000         2.03845
  C        -1.28916         -0.00000        -0.76753
  H        -1.08272          0.00000        -1.83150
  H        -1.88850         -0.87880        -0.53092
  H        -1.88850          0.87880        -0.53092
9
 step=         537     theta[rad]=           5.6235
  C        -0.02057         -0.00000         0.02974
  C         0.02020          0.00000         1.34828
  H         0.89930         -0.00000        -0.53659
  H         0.95498         -0.00000         1.89730
  H        -0.88740          0.00000         1.94712
  C        -1.28922         -0.00000        -0.76730
  H        -1.08255          0.00000        -1.83367
  H        -1.88830         -0.87857        -0.53094
  H        -1.88830          0.87857        -0.53094
9
 step=         538     theta[rad]=           5.6339
  C        -0.02285         -0.00000         0.03003
  C         0.01868          0.00000         1.36291
  H         0.92604         -0.00000        -0.55217
  H         0.83486         -0.00000         1.82668
  H        -0.74874          0.00000         1.85508
  C        -1.28927         -0.00000        -0.76706
  H        -1.08237          0.00000        -1.83585
  H        -1.88811         -0.87833        -0.53097
  H        -1.88811          0.87833        -0.53097
9
 step=         539     theta[rad]=           5.6444
  C        -0.02424         -0.00000         0.03020
  C         0.01776          0.00000         1.37181
  H         0.94232         -0.00000        -0.56166
  H         0.76174         -0.00000         1.78369
  H        -0.66432          0.00000         1.79905
  C        -1.28930         -0.00000        -0.76691
  H        -1.08226          0.00000        -1.83718
  H        -1.88799         -0.87818        -0.53098
  H        -1.88799          0.87818        -0.53098
9
 step=         540     theta[rad]=           5.6549
  C        -0.02424         -0.00000         0.03020
  C         0.01776          0.00000         1.37181
  H         0.94232         -0.00000        -0.56166
  H         0.76174         -0.00000         1.78369
  H        -0.66432          0.00000         1.79905
  C        -1.28930         -0.00000        -0.76691
  H        -1.08226          0.00000        -1.83718
  H        -1.88799         -0.87818        -0.53098
  H        -1.88799          0.87818        -0.53098
9
 step=         541     theta[rad]=           5.6653
  C        -0.02291         -0.00000         0.03004
  C         0.01864          0.00000         1.36331
  H         0.92678         -0.00000        -0.55261
  H         0.83153         -0.00000         1.82472
  H        -0.74489          0.00000         1.85253
  C        -1.28927         -0.00000        -0.76705
  H        -1.08236          0.00000        -1.83591
  H        -1.88810         -0.87832        -0.53097
  H        -1.88810          0.87832        -0.53097
9
 step=         542     theta[rad]=           5.6758
  C        -0.02081         -0.00000         0.02977
  C         0.02004          0.00000         1.34979
  H         0.90205         -0.00000        -0.53819
  H         0.94262         -0.00000         1.89003
  H        -0.87313          0.00000         1.93765
  C        -1.28922         -0.00000        -0.76727
  H        -1.08253          0.00000        -1.83389
  H        -1.88828         -0.87854        -0.53094
  H        -1.88828          0.87854        -0.53094
9
 step=         543     theta[rad]=           5.6863
  C        -0.01869         -0.00000         0.02951
  C         0.02145          0.00000         1.33621
  H         0.87721         -0.00000        -0.52372
  H         1.05419         -0.00000         1.95562
  H        -1.00193          0.00000         2.02314
  C        -1.28917         -0.00000        -0.76749
  H        -1.08269          0.00000        -1.83187
  H        -1.88846         -0.87876        -0.53092
  H        -1.88846          0.87876        -0.53092
9
 step=         544     theta[rad]=           5.6968
  C        -0.01728         -0.00000         0.02933
  C         0.02239          0.00000         1.32716
  H         0.86068         -0.00000        -0.51408
  H         1.12849         -0.00000         1.99930
  H        -1.08769          0.00000         2.08006
  C        -1.28914         -0.00000        -0.76764
  H        -1.08280          0.00000        -1.83052
  H        -1.88859         -0.87891        -0.53091
  H        -1.88859          0.87891        -0.53091
9
 step=         545     theta[rad]=           5.7072
  C        -0.01701         -0.00000         0.02929
  C         0.02258          0.00000         1.32539
  H         0.85743         -0.00000        -0.51219
  H         1.14307         -0.00000         2.00787
  H        -1.10453          0.00000         2.09123
  C        -1.28913         -0.00000        -0.76767
  H        -1.08282          0.00000        -1.83025
  H        -1.88861         -0.87894        -0.53090
  H        -1.88861          0.87894        -0.53090
9
 step=         546     theta[rad]=           5.7177
  C        -0.01789         -0.00000         0.02941
  C         0.02199          0.00000         1.33108
  H         0.86783         -0.00000        -0.51825
  H         1.09634         -0.00000         1.98040
  H        -1.05058          0.00000         2.05543
  C        -1.28915         -0.00000        -0.76757
  H        -1.08275          0.00000        -1.83110
  H        -1.88853         -0.87884        -0.53091
  H        -1.88853          0.87884        -0.53091
9
 step=         547     theta[rad]=           5.7282
  C        -0.01961         -0.00000         0.02962
  C         0.02084          0.00000         1.34212
  H         0.88802         -0.00000        -0.53002
  H         1.00565         -0.00000         1.92709
  H        -0.94589          0.00000         1.98594
  C        -1.28919         -0.00000        -0.76740
  H        -1.08262          0.00000        -1.83275
  H        -1.88839         -0.87867        -0.53093
  H        -1.88839          0.87867        -0.53093
9
 step=         548     theta[rad]=           5.7386
  C        -0.02162         -0.00000         0.02987
  C         0.01950          0.00000         1.35499
  H         0.91157         -0.00000        -0.54374
  H         0.89989         -0.00000         1.86491
  H        -0.82380          0.00000         1.90490
  C        -1.28924         -0.00000        -0.76719
  H        -1.08246          0.00000        -1.83467
  H        -1.88821         -0.87846        -0.53095
  H        -1.88821          0.87846        -0.53095
9
 step=         549     theta[rad]=           5.7491
  C        -0.02333         -0.00000         0.03009
  C         0.01836          0.00000         1.36597
  H         0.93164         -0.00000        -0.55544
  H         0.80972         -0.00000         1.81190
  H        -0.71971          0.00000         1.83582
  C        -1.28928         -0.00000        -0.76701
  H        -1.08233          0.00000        -1.83631
  H        -1.88807         -0.87828        -0.53097
  H        -1.88807          0.87828        -0.53097
9
 step=         550     theta[rad]=           5.7596
  C        -0.02429         -0.00000         0.03021
  C         0.01772          0.00000         1.37216
  H         0.94297         -0.00000        -0.56204
  H         0.75881         -0.00000         1.78197
  H        -0.66095          0.00000         1.79681
  C        -1.28930         -0.00000        -0.76691
  H        -1.08226          0.00000        -1.83723
  H        -1.88798         -0.87818        -0.53098
  H        -1.88798          0.87818        -0.53098
9
 step=         551     theta[rad]=           5.7701
  C        -0.02430         -0.00000         0.03021
  C         0.01771          0.00000         1.37223
  H         0.94309         -0.00000        -0.56211
  H         0.75829         -0.00000         1.78167
  H        -0.66035          0.00000         1.79641
  C        -1.28930         -0.00000        -0.76691
  H        -1.08226          0.00000        -1.83724
  H        -1.88798         -0.87818        -0.53098
  H        -1.88798          0.87818        -0.53098
9
 step=         552     theta[rad]=           5.7805
  C        -0.02341         -0.00000         0.03010
  C         0.01831          0.00000         1.36649
  H         0.93260         -0.00000        -0.55599
  H         0.80542         -0.00000         1.80937
  H        -0.71475          0.00000         1.83252
  C        -1.28928         -0.00000        -0.76700
  H        -1.08233          0.00000        -1.83639
  H        -1.88806         -0.87827        -0.53097
  H        -1.88806          0.87827        -0.53097
9
 step=         553     theta[rad]=           5.7910
  C        -0.02188         -0.00000         0.02991
  C         0.01933          0.00000         1.35667
  H         0.91464         -0.00000        -0.54553
  H         0.88606         -0.00000         1.85678
  H        -0.80785          0.00000         1.89431
  C        -1.28925         -0.00000        -0.76716
  H        -1.08244          0.00000        -1.83492
  H        -1.88819         -0.87843        -0.53096
  H        -1.88819          0.87843        -0.53096
9
 step=         554     theta[rad]=           5.8015
  C        -0.02011         -0.00000         0.02968
  C         0.02051          0.00000         1.34529
  H         0.89383         -0.00000        -0.53340
  H         0.97957         -0.00000         1.91175
  H        -0.91579          0.00000         1.96596
  C        -1.28920         -0.00000        -0.76734
  H        -1.08258          0.00000        -1.83322
  H        -1.88834         -0.87861        -0.53094
  H        -1.88834          0.87861        -0.53094
9
 step=         555     theta[rad]=           5.8119
  C        -0.01850         -0.00000         0.02948
  C         0.02158          0.00000         1.33496
  H         0.87494         -0.00000        -0.52239
  H         1.06441         -0.00000         1.96163
  H        -1.01373          0.00000         2.03097
  C        -1.28917         -0.00000        -0.76751
  H        -1.08271          0.00000        -1.83168
  H        -1.88848         -0.87878        -0.53092
  H        -1.88848          0.87878        -0.53092
9
 step=         556     theta[rad]=           5.8224
  C        -0.01738         -0.00000         0.02934
  C         0.02233          0.00000         1.32782
  H         0.86187         -0.00000        -0.51478
  H         1.12311         -0.00000         1.99614
  H        -1.08148          0.00000         2.07594
  C        -1.28914         -0.00000        -0.76763
  H        -1.08279          0.00000        -1.83061
  H        -1.88858         -0.87890        -0.53091
  H        -1.88858          0.87890        -0.53091
9
 step=         557     theta[rad]=           5.8329
  C        -0.01696         -0.00000         0.02929
  C         0.02261          0.00000         1.32510
  H         0.85691         -0.00000        -0.51188
  H         1.14539         -0.00000         2.00924
  H        -1.10721          0.00000         2.09302
  C        -1.28913         -0.00000        -0.76767
  H        -1.08283          0.00000        -1.83021
  H        -1.88861         -0.87894        -0.53090
  H        -1.88861          0.87894        -0.53090
9
 step=         558     theta[rad]=           5.8434
  C        -0.01727         -0.00000         0.02933
  C         0.02240          0.00000         1.32706
  H         0.86049         -0.00000        -0.51397
  H         1.12931         -0.00000         1.99979
  H        -1.08865          0.00000         2.08069
  C        -1.28914         -0.00000        -0.76764
  H        -1.08280          0.00000        -1.83050
  H        -1.88859         -0.87891        -0.53091
  H        -1.88859          0.87891        -0.53091
9
 step=         559     theta[rad]=           5.8538
  C        -0.01819         -0.00000         0.02944
  C         0.02179          0.00000         1.33301
  H         0.87138         -0.00000        -0.52032
  H         1.08041         -0.00000         1.97104
  H        -1.03220          0.00000         2.04323
  C        -1.28916         -0.00000        -0.76754
  H        -1.08273          0.00000        -1.83139
  H        -1.88851         -0.87881        -0.53092
  H        -1.88851          0.87881        -0.53092
9
 step=         560     theta[rad]=           5.8643
  C        -0.01954         -0.00000         0.02961
  C         0.02089          0.00000         1.34164
  H         0.88715         -0.00000        -0.52951
  H         1.00958         -0.00000         1.92940
  H        -0.95043          0.00000         1.98895
  C        -1.28919         -0.00000        -0.76740
  H        -1.08263          0.00000        -1.83268
  H        -1.88839         -0.87867        -0.53093
  H        -1.88839          0.87867        -0.53093
9
 step=         561     theta[rad]=           5.8748
  C        -0.02104         -0.00000         0.02980
  C         0.01989          0.00000         1.35129
  H         0.90480         -0.00000        -0.53979
  H         0.93029         -0.00000         1.88278
  H        -0.85890          0.00000         1.92820
  C        -1.28923         -0.00000        -0.76725
  H        -1.08251          0.00000        -1.83412
  H        -1.88826         -0.87852        -0.53095
  H        -1.88826          0.87852        -0.53095
9
 step=         562     theta[rad]=           5.8853
  C        -0.02245         -0.00000         0.02998
  C         0.01895          0.00000         1.36035
  H         0.92137         -0.00000        -0.54945
  H         0.85586         -0.00000         1.83902
  H        -0.77297          0.00000         1.87117
  C        -1.28926         -0.00000        -0.76710
  H        -1.08240          0.00000        -1.83547
  H        -1.88814         -0.87837        -0.53096
  H        -1.88814          0.87837        -0.53096
9
 step=         563     theta[rad]=           5.8957
  C        -0.02356         -0.00000         0.03012
  C         0.01821          0.00000         1.36748
  H         0.93442         -0.00000        -0.55705
  H         0.79725         -0.00000         1.80457
  H        -0.70532          0.00000         1.82626
  C        -1.28928         -0.00000        -0.76698
  H        -1.08231          0.00000        -1.83653
  H        -1.88805         -0.87825        -0.53097
  H        -1.88805          0.87825        -0.53097
9
 step=         564     theta[rad]=           5.9062
  C        -0.02424         -0.00000         0.03020
  C         0.01776          0.00000         1.37181
  H         0.94232         -0.00000        -0.56166
  H         0.76174         -0.00000         1.78369
  H        -0.66432          0.00000         1.79905
  C        -1.28930         -0.00000        -0.76691
  H        -1.08226          0.00000        -1.83718
  H        -1.88799         -0.87818        -0.53098
  H        -1.88799          0.87818        -0.53098
9
 step=         565     theta[rad]=           5.9167
  C        -0.02441         -0.00000         0.03022
  C         0.01764          0.00000         1.37295
  H         0.94440         -0.00000        -0.56288
  H         0.75238         -0.00000         1.77819
  H        -0.65352          0.00000         1.79188
  C        -1.28930         -0.00000        -0.76690
  H        -1.08225          0.00000        -1.83735
  H        -1.88797         -0.87817        -0.53098
  H        -1.88797          0.87817        -0.53098
9
 step=         566     theta[rad]=           5.9271
  C        -0.02411         -0.00000         0.03019
  C         0.01784          0.00000         1.37101
  H         0.94086         -0.00000        -0.56081
  H         0.76829         -0.00000         1.78754
  H        -0.67189          0.00000         1.80407
  C        -1.28930         -0.00000        -0.76693
  H        -1.08227          0.00000        -1.83706
  H        -1.88800         -0.87820        -0.53098
  H        -1.88800          0.87820        -0.53098
9
 step=         567     theta[rad]=           5.9376
  C        -0.02341         -0.00000         0.03010
  C         0.01831          0.00000         1.36649
  H         0.93260         -0.00000        -0.55599
  H         0.80542         -0.00000         1.80937
  H        -0.71475          0.00000         1.83252
  C        -1.28928         -0.00000        -0.76700
  H        -1.08233          0.00000        -1.83639
  H        -1.88806         -0.87827        -0.53097
  H        -1.88806          0.87827        -0.53097
9
 step=         568     theta[rad]=           5.9481
  C        -0.02242         -0.00000         0.02997
  C         0.01897          0.00000         1.36013
  H         0.92096         -0.00000        -0.54921
  H         0.85768         -0.00000         1.84009
  H        -0.77507          0.00000         1.87256
  C        -1.28926         -0.00000        -0.76710
  H        -1.08240          0.00000        -1.83544
  H        -1.88814         -0.87837        -0.53096
  H        -1.88814          0.87837        -0.53096
9
 step=         569     theta[rad]=           5.9586
  C        -0.02127         -0.00000         0.02983
  C         0.01973          0.00000         1.35278
  H         0.90753         -0.00000        -0.54138
  H         0.91803         -0.00000         1.87558
  H        -0.84475          0.00000         1.91881
  C        -1.28923         -0.00000        -0.76722
  H        -1.08249          0.00000        -1.83434
  H        -1.88824         -0.87849        -0.53095
  H        -1.88824          0.87849        -0.53095
9
 step=         570     theta[rad]=           5.9690
  C        -0.02011         -0.00000         0.02968
  C         0.02051          0.00000         1.34529
  H         0.89383         -0.00000        -0.53340
  H         0.97957         -0.00000         1.91175
  H        -0.91579          0.00000         1.96596
  C        -1.28920         -0.00000        -0.76734
  H        -1.08258          0.00000        -1.83322
  H        -1.88834         -0.87861        -0.53094
  H        -1.88834          0.87861        -0.53094
9
 step=         571     theta[rad]=           5.9795
  C        -0.01903         -0.00000         0.02955
  C         0.02123          0.00000         1.33839
  H         0.88121         -0.00000        -0.52604
  H         1.03626         -0.00000         1.94508
  H        -0.98122          0.00000         2.00939
  C        -1.28918         -0.00000        -0.76746
  H        -1.08267          0.00000        -1.83219
  H        -1.88844         -0.87873        -0.53092
  H        -1.88844          0.87873        -0.53092
9
 step=         572     theta[rad]=           5.9900
  C        -0.01814         -0.00000         0.02944
  C         0.02182          0.00000         1.33265
  H         0.87070         -0.00000        -0.51992
  H         1.08344         -0.00000         1.97282
  H        -1.03570          0.00000         2.04555
  C        -1.28916         -0.00000        -0.76755
  H        -1.08273          0.00000        -1.83133
  H        -1.88851         -0.87882        -0.53091
  H        -1.88851          0.87882        -0.53091
9
 step=         573     theta[rad]=           6.0004
  C        -0.01748         -0.00000         0.02935
  C         0.02226          0.00000         1.32843
  H         0.86299         -0.00000        -0.51543
  H         1.11810         -0.00000         1.99319
  H        -1.07570          0.00000         2.07210
  C        -1.28914         -0.00000        -0.76762
  H        -1.08279          0.00000        -1.83070
  H        -1.88857         -0.87889        -0.53091
  H        -1.88857          0.87889        -0.53091
9
 step=         574     theta[rad]=           6.0109
  C        -0.01709         -0.00000         0.02930
  C         0.02252          0.00000         1.32591
  H         0.85838         -0.00000        -0.51274
  H         1.13879         -0.00000         2.00536
  H        -1.09958          0.00000         2.08795
  C        -1.28914         -0.00000        -0.76766
  H        -1.08282          0.00000        -1.83033
  H        -1.88860         -0.87893        -0.53090
  H        -1.88860          0.87893        -0.53090
9
 step=         575     theta[rad]=           6.0214
  C        -0.01696         -0.00000         0.02929
  C         0.02261          0.00000         1.32509
  H         0.85689         -0.00000        -0.51187
  H         1.14549         -0.00000         2.00930
  H        -1.10732          0.00000         2.09309
  C        -1.28913         -0.00000        -0.76767
  H        -1.08283          0.00000        -1.83021
  H        -1.88861         -0.87894        -0.53090
  H        -1.88861          0.87894        -0.53090
9
 step=         576     theta[rad]=           6.0319
  C        -0.01708         -0.00000         0.02930
  C         0.02253          0.00000         1.32584
  H         0.85827         -0.00000        -0.51267
  H         1.13931         -0.00000         2.00566
  H        -1.10019          0.00000         2.08836
  C        -1.28914         -0.00000        -0.76766
  H        -1.08282          0.00000        -1.83032
  H        -1.88860         -0.87893        -0.53090
  H        -1.88860          0.87893        -0.53090
9
 step=         577     theta[rad]=           6.0423
  C        -0.01740         -0.00000         0.02934
  C         0.02231          0.00000         1.32793
  H         0.86209         -0.00000        -0.51490
  H         1.12214         -0.00000         1.99557
  H        -1.08037          0.00000         2.07520
  C        -1.28914         -0.00000        -0.76763
  H        -1.08279          0.00000        -1.83063
  H        -1.88858         -0.87890        -0.53091
  H        -1.88858          0.87890        -0.53091
9
 step=         578     theta[rad]=           6.0528
  C        -0.01789         -0.00000         0.02941
  C         0.02199          0.00000         1.33108
  H         0.86783         -0.00000        -0.51825
  H         1.09634         -0.00000         1.98040
  H        -1.05058          0.00000         2.05543
  C        -1.28915         -0.00000        -0.76757
  H        -1.08275          0.00000        -1.83110
  H        -1.88853         -0.87884        -0.53091
  H        -1.88853          0.87884        -0.53091
9
 step=         579     theta[rad]=           6.0633
  C        -0.01850         -0.00000         0.02948
  C         0.02158          0.00000         1.33496
  H         0.87494         -0.00000        -0.52239
  H         1.06441         -0.00000         1.96163
  H        -1.01373          0.00000         2.03097
  C        -1.28917         -0.00000        -0.76751
  H        -1.08271          0.00000        -1.83168
  H        -1.88848         -0.87878        -0.53092
  H        -1.88848          0.87878        -0.53092
9
 step=         580     theta[rad]=           6.0737
  C        -0.01917         -0.00000         0.02957
  C         0.02113          0.00000         1.33930
  H         0.88287         -0.00000        -0.52701
  H         1.02880         -0.00000         1.94070
  H        -0.97262          0.00000         2.00368
  C        -1.28918         -0.00000        -0.76744
  H        -1.08265          0.00000        -1.83233
  H        -1.88842         -0.87871        -0.53093
  H        -1.88842          0.87871        -0.53093
9
 step=         581     theta[rad]=           6.0842
  C        -0.01988         -0.00000         0.02965
  C         0.02066          0.00000         1.34381
  H         0.89113         -0.00000        -0.53182
  H         0.99171         -0.00000         1.91889
  H        -0.92980          0.00000         1.97526
  C        -1.28920         -0.00000        -0.76737
  H        -1.08260          0.00000        -1.83300
  H        -1.88836         -0.87864        -0.53093
  H        -1.88836          0.87864        -0.53093
9
 step=         582     theta[rad]=           6.0947
  C        -0.02057         -0.00000         0.02974
  C         0.02020          0.00000         1.34828
  H         0.89930         -0.00000        -0.53659
  H         0.95498         -0.00000         1.89730
  H        -0.88740          0.00000         1.94712
  C        -1.28922         -0.00000        -0.76730
  H        -1.08255          0.00000        -1.83367
  H        -1.88830         -0.87857        -0.53094
  H        -1.88830          0.87857        -0.53094
9
 step=         583     theta[rad]=           6.1052
  C        -0.02123         -0.00000         0.02983
  C         0.01976          0.00000         1.35253
  H         0.90707         -0.00000        -0.54112
  H         0.92007         -0.00000         1.87677
  H        -0.84710          0.00000         1.92037
  C        -1.28923         -0.00000        -0.76723
  H        -1.08249          0.00000        -1.83430
  H        -1.88825         -0.87850        -0.53095
  H        -1.88825          0.87850        -0.53095
9
 step=         584     theta[rad]=           6.1156
  C        -0.02184         -0.00000         0.02990
  C         0.01935          0.00000         1.35643
  H         0.91421         -0.00000        -0.54528
  H         0.88802         -0.00000         1.85793
  H        -0.81010          0.00000         1.89581
  C        -1.28924         -0.00000        -0.76716
  H        -1.08245          0.00000        -1.83488
  H        -1.88819         -0.87843        -0.53096
  H        -1.88819          0.87843        -0.53096
9
 step=         585     theta[rad]=           6.1261
  C        -0.02238         -0.00000         0.02997
  C         0.01899          0.00000         1.35991
  H         0.92056         -0.00000        -0.54898
  H         0.85951         -0.00000         1.84117
  H        -0.77719          0.00000         1.87396
  C        -1.28926         -0.00000        -0.76711
  H        -1.08241          0.00000        -1.83540
  H        -1.88815         -0.87838        -0.53096
  H        -1.88815          0.87838        -0.53096
9
 step=         586     theta[rad]=           6.1366
  C        -0.02285         -0.00000         0.03003
  C         0.01868          0.00000         1.36291
  H         0.92604         -0.00000        -0.55217
  H         0.83486         -0.00000         1.82668
  H        -0.74874          0.00000         1.85508
  C        -1.28927         -0.00000        -0.76706
  H        -1.08237          0.00000        -1.83585
  H        -1.88811         -0.87833        -0.53097
  H        -1.88811          0.87833        -0.53097
9
 step=         587     theta[rad]=           6.1470
  C        -0.02324         -0.00000         0.03008
  C         0.01842          0.00000         1.36543
  H         0.93065         -0.00000        -0.55486
  H         0.81416         -0.00000         1.81451
  H        -0.72484          0.00000         1.83922
  C        -1.28928         -0.00000        -0.76702
  H        -1.08234          0.00000        -1.83623
  H        -1.88807         -0.87829        -0.53097
  H        -1.88807          0.87829        -0.53097
9
 step=         588     theta[rad]=           6.1575
  C        -0.02356         -0.00000         0.03012
  C         0.01821          0.00000         1.36748
  H         0.93442         -0.00000        -0.55705
  H         0.79725         -0.00000         1.80457
  H        -0.70532          0.00000         1.82626
  C        -1.28928         -0.00000        -0.76698
  H        -1.08231          0.00000        -1.83653
  H        -1.88805         -0.87825        -0.53097
  H        -1.88805          0.87825        -0.53097
9
 step=         589     theta[rad]=           6.1680
  C        -0.02382         -0.00000         0.03015
  C         0.01804          0.00000         1.36912
  H         0.93740         -0.00000        -0.55879
  H         0.78384         -0.00000         1.79669
  H        -0.68984          0.00000         1.81599
  C        -1.28929         -0.00000        -0.76696
  H        -1.08229          0.00000        -1.83678
  H        -1.88802         -0.87823        -0.53098
  H        -1.88802          0.87823        -0.53098
9
 step=         590     theta[rad]=           6.1785
  C        -0.02401         -0.00000         0.03017
  C         0.01791          0.00000         1.37037
  H         0.93969         -0.00000        -0.56013
  H         0.77355         -0.00000         1.79064
  H        -0.67796          0.00000         1.80810
  C        -1.28929         -0.00000        -0.76694
  H        -1.08228          0.00000        -1.83696
  H        -1.88801         -0.87821        -0.53098
  H        -1.88801          0.87821        -0.53098
9
 step=         591     theta[rad]=           6.1889
  C        -0.02416         -0.00000         0.03019
  C         0.01781          0.00000         1.37130
  H         0.94139         -0.00000        -0.56112
  H         0.76592         -0.00000         1.78615
  H        -0.66916          0.00000         1.80226
  C        -1.28930         -0.00000        -0.76692
  H        -1.08227          0.00000        -1.83710
  H        -1.88800         -0.87819        -0.53098
  H        -1.88800          0.87819        -0.53098
9
 step=         592     theta[rad]=           6.1994
  C        -0.02426         -0.00000         0.03021
  C         0.01774          0.00000         1.37196
  H         0.94260         -0.00000        -0.56182
  H         0.76051         -0.00000         1.78297
  H        -0.66290          0.00000         1.79811
  C        -1.28930         -0.00000        -0.76691
  H        -1.08226          0.00000        -1.83720
  H        -1.88799         -0.87818        -0.53098
  H        -1.88799          0.87818        -0.53098
9
 step=         593     theta[rad]=           6.2099
  C        -0.02433         -0.00000         0.03021
  C         0.01769          0.00000         1.37240
  H         0.94341         -0.00000        -0.56230
  H         0.75685         -0.00000         1.78082
  H        -0.65868          0.00000         1.79530
  C        -1.28930         -0.00000        -0.76690
  H        -1.08225          0.00000        -1.83727
  H        -1.88798         -0.87817        -0.53098
  H        -1.88798          0.87817        -0.53098
9
 step=         594     theta[rad]=           6.2204
  C        -0.02437         -0.00000         0.03022
  C         0.01767          0.00000         1.37268
  H         0.94393         -0.00000        -0.56260
  H         0.75453         -0.00000         1.77946
  H        -0.65601          0.00000         1.79353
  C        -1.28930         -0.00000        -0.76690
  H        -1.08225          0.00000        -1.83731
  H        -1.88798         -0.87817        -0.53098
  H        -1.88798          0.87817        -0.53098
9
 step=         595     theta[rad]=           6.2308
  C        -0.02440         -0.00000         0.03022
  C         0.01765          0.00000         1.37285
  H         0.94422         -0.00000        -0.56277
  H         0.75319         -0.00000         1.77867
  H        -0.65446          0.00000         1.79250
  C        -1.28930         -0.00000        -0.76690
  H        -1.08225          0.00000        -1.83733
  H        -1.88797         -0.87817        -0.53098
  H        -1.88797          0.87817        -0.53098
9
 step=         596     theta[rad]=           6.2413
  C        -0.02441         -0.00000         0.03022
  C         0.01764          0.00000         1.37293
  H         0.94438         -0.00000        -0.56286
  H         0.75250         -0.00000         1.77826
  H        -0.65366          0.00000         1.79197
  C        -1.28930         -0.00000        -0.76690
  H        -1.08225          0.00000        -1.83735
  H        -1.88797         -0.87817        -0.53098
  H        -1.88797          0.87817        -0.53098
9
 step=         597     theta[rad]=           6.2518
  C        -0.02442         -0.00000         0.03023
  C         0.01764          0.00000         1.37297
  H         0.94444         -0.00000        -0.56290
  H         0.75221         -0.00000         1.77809
  H        -0.65332          0.00000         1.79175
  C        -1.28930         -0.00000        -0.76690
  H        -1.08225          0.00000        -1.83735
  H        -1.88797         -0.87817        -0.53098
  H        -1.88797          0.87817        -0.53098
9
 step=         598     theta[rad]=           6.2622
  C        -0.02442         -0.00000         0.03023
  C         0.01763          0.00000         1.37298
  H         0.94446         -0.00000        -0.56291
  H         0.75212         -0.00000         1.77804
  H        -0.65322          0.00000         1.79168
  C        -1.28930         -0.00000        -0.76690
  H        -1.08225          0.00000        -1.83735
  H        -1.88797         -0.87817        -0.53098
  H        -1.88797          0.87817        -0.53098
9
 step=         599     theta[rad]=           6.2727
  C        -0.02442         -0.00000         0.03023
  C         0.01763          0.00000         1.37298
  H         0.94446         -0.00000        -0.56291
  H         0.75211         -0.00000         1.77803
  H        -0.65321          0.00000         1.79167
  C        -1.28930         -0.00000        -0.76690
  H        -1.08225          0.00000        -1.83735
  H        -1.88797         -0.87817        -0.53098
  H        -1.88797          0.87817        -0.53098
9
 step=         600     theta[rad]=           6.2832
  C        -0.02442         -0.00000         0.03023
  C         0.01763          0.00000         1.37298
  H         0.94446         -0.00000        -0.56291
  H         0.75211         -0.00000         1.77803
  H        -0.65321          0.00000         1.79167
  C        -1.28930         -0.00000        -0.76690
  H        -1.08225          0.00000        -1.83735
  H        -1.88797         -0.87817        -0.53098
  H        -1.88797          0.87817        -0.53098
