9
 step=           0     theta[rad]=           0.0000
  C        -0.02069          0.02736         0.02976
  C         0.02012         -0.04911         1.34904
  H         0.90068         -0.14367        -0.53739
  H         0.94880          0.24533         1.89367
  H        -0.88027          0.11354         1.94238
  C        -1.28922          0.00723        -0.76728
  H        -1.08254         -0.01923        -1.83378
  H        -1.85293         -0.89000        -0.51037
  H        -1.92366          0.86711        -0.55151
9
 step=           1     theta[rad]=           0.0105
  C        -0.02069          0.02735         0.02976
  C         0.02012         -0.04911         1.34904
  H         0.90068         -0.14367        -0.53739
  H         0.94880          0.24532         1.89367
  H        -0.88027          0.11353         1.94238
  C        -1.28922          0.00723        -0.76728
  H        -1.08254         -0.01923        -1.83378
  H        -1.85293         -0.89000        -0.51037
  H        -1.92366          0.86711        -0.55151
9
 step=           2     theta[rad]=           0.0209
  C        -0.02069          0.02734         0.02976
  C         0.02012         -0.04909         1.34904
  H         0.90068         -0.14360        -0.53739
  H         0.94880          0.24521         1.89367
  H        -0.88027          0.11348         1.94238
  C        -1.28922          0.00723        -0.76728
  H        -1.08254         -0.01922        -1.83378
  H        -1.85295         -0.88999        -0.51038
  H        -1.92364          0.86711        -0.55150
9
 step=           3     theta[rad]=           0.0314
  C        -0.02069          0.02730         0.02976
  C         0.02012         -0.04902         1.34904
  H         0.90068         -0.14339        -0.53739
  H         0.94880          0.24484         1.89367
  H        -0.88027          0.11332         1.94238
  C        -1.28922          0.00722        -0.76728
  H        -1.08254         -0.01919        -1.83378
  H        -1.85300         -0.88998        -0.51041
  H        -1.92359          0.86713        -0.55147
9
 step=           4     theta[rad]=           0.0419
  C        -0.02069          0.02721         0.02976
  C         0.02012         -0.04884         1.34904
  H         0.90068         -0.14289        -0.53739
  H         0.94880          0.24398         1.89367
  H        -0.88027          0.11292         1.94238
  C        -1.28922          0.00719        -0.76728
  H        -1.08254         -0.01912        -1.83378
  H        -1.85312         -0.88994        -0.51048
  H        -1.92346          0.86717        -0.55140
9
 step=           5     theta[rad]=           0.0524
  C        -0.02069          0.02702         0.02976
  C         0.02012         -0.04851         1.34904
  H         0.90068         -0.14190        -0.53739
  H         0.94880          0.24231         1.89367
  H        -0.88027          0.11214         1.94238
  C        -1.28922          0.00714        -0.76728
  H        -1.08254         -0.01899        -1.83378
  H        -1.85336         -0.88986        -0.51062
  H        -1.92322          0.86725        -0.55126
9
 step=           6     theta[rad]=           0.0628
  C        -0.02069          0.02670         0.02976
  C         0.02012         -0.04793         1.34904
  H         0.90068         -0.14021        -0.53739
  H         0.94880          0.23942         1.89367
  H        -0.88027          0.11081         1.94238
  C        -1.28922          0.00706        -0.76728
  H        -1.08254         -0.01877        -1.83378
  H        -1.85378         -0.88972        -0.51087
  H        -1.92281          0.86738        -0.55102
9
 step=           7     theta[rad]=           0.0733
  C        -0.02069          0.02619         0.02976
  C         0.02012         -0.04702         1.34904
  H         0.90068         -0.13754        -0.53739
  H         0.94880          0.23486         1.89367
  H        -0.88027          0.10869         1.94238
  C        -1.28922          0.00692        -0.76728
  H        -1.08254         -0.01841        -1.83378
  H        -1.85444         -0.88951        -0.51125
  H        -1.92215          0.86760        -0.55064
9
 step=           8     theta[rad]=           0.0838
  C        -0.02069          0.02544         0.02976
  C         0.02012         -0.04566         1.34904
  H         0.90068         -0.13358        -0.53739
  H         0.94880          0.22810         1.89367
  H        -0.88027          0.10557         1.94238
  C        -1.28922          0.00672        -0.76728
  H        -1.08254         -0.01788        -1.83378
  H        -1.85541         -0.88920        -0.51182
  H        -1.92117          0.86791        -0.55007
9
 step=           9     theta[rad]=           0.0942
  C        -0.02069          0.02437         0.02976
  C         0.02012         -0.04376         1.34904
  H         0.90068         -0.12801        -0.53739
  H         0.94880          0.21859         1.89367
  H        -0.88027          0.10116         1.94238
  C        -1.28922          0.00644        -0.76728
  H        -1.08254         -0.01713        -1.83378
  H        -1.85678         -0.88875        -0.51261
  H        -1.91980          0.86835        -0.54927
9
 step=          10     theta[rad]=           0.1047
  C        -0.02069          0.02294         0.02976
  C         0.02012         -0.04119         1.34904
  H         0.90068         -0.12049        -0.53739
  H         0.94880          0.20575         1.89367
  H        -0.88027          0.09522         1.94238
  C        -1.28922          0.00606        -0.76728
  H        -1.08254         -0.01613        -1.83378
  H        -1.85863         -0.88815        -0.51369
  H        -1.91795          0.86895        -0.54820
9
 step=          11     theta[rad]=           0.1152
  C        -0.02069          0.02108         0.02976
  C         0.02012         -0.03784         1.34904
  H         0.90068         -0.11070        -0.53739
  H         0.94880          0.18903         1.89367
  H        -0.88027          0.08748         1.94238
  C        -1.28922          0.00557        -0.76728
  H        -1.08254         -0.01482        -1.83378
  H        -1.86104         -0.88737        -0.51509
  H        -1.91554          0.86973        -0.54679
9
 step=          12     theta[rad]=           0.1257
  C        -0.02069          0.01873         0.02976
  C         0.02012         -0.03362         1.34904
  H         0.90068         -0.09835        -0.53739
  H         0.94880          0.16794         1.89367
  H        -0.88027          0.07772         1.94238
  C        -1.28922          0.00495        -0.76728
  H        -1.08254         -0.01316        -1.83378
  H        -1.86408         -0.88639        -0.51686
  H        -1.91250          0.87072        -0.54502
9
 step=          13     theta[rad]=           0.1361
  C        -0.02069          0.01585         0.02976
  C         0.02012         -0.02845         1.34904
  H         0.90068         -0.08323        -0.53739
  H         0.94880          0.14211         1.89367
  H        -0.88027          0.06577         1.94238
  C        -1.28922          0.00419        -0.76728
  H        -1.08254         -0.01114        -1.83378
  H        -1.86781         -0.88518        -0.51903
  H        -1.90878          0.87192        -0.54286
9
 step=          14     theta[rad]=           0.1466
  C        -0.02069          0.01242         0.02976
  C         0.02012         -0.02230         1.34904
  H         0.90068         -0.06523        -0.53739
  H         0.94880          0.11138         1.89367
  H        -0.88027          0.05155         1.94238
  C        -1.28922          0.00328        -0.76728
  H        -1.08254         -0.00873        -1.83378
  H        -1.87224         -0.88375        -0.52160
  H        -1.90435          0.87336        -0.54028
9
 step=          15     theta[rad]=           0.1571
  C        -0.02069          0.00845         0.02976
  C         0.02012         -0.01518         1.34904
  H         0.90068         -0.04440        -0.53739
  H         0.94880          0.07581         1.89367
  H        -0.88027          0.03509         1.94238
  C        -1.28922          0.00223        -0.76728
  H        -1.08254         -0.00594        -1.83378
  H        -1.87737         -0.88209        -0.52459
  H        -1.89922          0.87502        -0.53730
9
 step=          16     theta[rad]=           0.1676
  C        -0.02069          0.00400         0.02976
  C         0.02012         -0.00717         1.34904
  H         0.90068         -0.02099        -0.53739
  H         0.94880          0.03584         1.89367
  H        -0.88027          0.01659         1.94238
  C        -1.28922          0.00106        -0.76728
  H        -1.08254         -0.00281        -1.83378
  H        -1.88313         -0.88023        -0.52794
  H        -1.89346          0.87688        -0.53395
9
 step=          17     theta[rad]=           0.1780
  C        -0.02069         -0.00086         0.02976
  C         0.02012          0.00154         1.34904
  H         0.90068          0.00451        -0.53739
  H         0.94880         -0.00771         1.89367
  H        -0.88027         -0.00357         1.94238
  C        -1.28922         -0.00023        -0.76728
  H        -1.08254          0.00060        -1.83378
  H        -1.88940         -0.87819        -0.53159
  H        -1.88718          0.87891        -0.53030
9
 step=          18     theta[rad]=           0.1885
  C        -0.02069         -0.00597         0.02976
  C         0.02012          0.01071         1.34904
  H         0.90068          0.03134        -0.53739
  H         0.94880         -0.05352         1.89367
  H        -0.88027         -0.02477         1.94238
  C        -1.28922         -0.00158        -0.76728
  H        -1.08254          0.00419        -1.83378
  H        -1.89601         -0.87606        -0.53543
  H        -1.88058          0.88105        -0.52646
9
 step=          19     theta[rad]=           0.1990
  C        -0.02069         -0.01113         0.02976
  C         0.02012          0.01998         1.34904
  H         0.90068          0.05844        -0.53739
  H         0.94880         -0.09978         1.89367
  H        -0.88027         -0.04618         1.94238
  C        -1.28922         -0.00294        -0.76728
  H        -1.08254          0.00782        -1.83378
  H        -1.90268         -0.87390        -0.53931
  H        -1.87391          0.88321        -0.52258
9
 step=          20     theta[rad]=           0.2094
  C        -0.02069         -0.01608         0.02976
  C         0.02012          0.02887         1.34904
  H         0.90068          0.08445        -0.53739
  H         0.94880         -0.14420         1.89367
  H        -0.88027         -0.06674         1.94238
  C        -1.28922         -0.00425        -0.76728
  H        -1.08254          0.01130        -1.83378
  H        -1.90908         -0.87183        -0.54303
  H        -1.86751          0.88528        -0.51885
9
 step=          21     theta[rad]=           0.2199
  C        -0.02069         -0.02052         0.02976
  C         0.02012          0.03684         1.34904
  H         0.90068          0.10777        -0.53739
  H         0.94880         -0.18402         1.89367
  H        -0.88027         -0.08517         1.94238
  C        -1.28922         -0.00542        -0.76728
  H        -1.08254          0.01442        -1.83378
  H        -1.91482         -0.86997        -0.54637
  H        -1.86177          0.88714        -0.51551
9
 step=          22     theta[rad]=           0.2304
  C        -0.02069         -0.02411         0.02976
  C         0.02012          0.04328         1.34904
  H         0.90068          0.12662        -0.53739
  H         0.94880         -0.21621         1.89367
  H        -0.88027         -0.10006         1.94238
  C        -1.28922         -0.00637        -0.76728
  H        -1.08254          0.01695        -1.83378
  H        -1.91946         -0.86847        -0.54907
  H        -1.85713          0.88864        -0.51281
9
 step=          23     theta[rad]=           0.2409
  C        -0.02069         -0.02650         0.02976
  C         0.02012          0.04757         1.34904
  H         0.90068          0.13916        -0.53739
  H         0.94880         -0.23762         1.89367
  H        -0.88027         -0.10997         1.94238
  C        -1.28922         -0.00700        -0.76728
  H        -1.08254          0.01862        -1.83378
  H        -1.92255         -0.86747        -0.55087
  H        -1.85404          0.88964        -0.51102
9
 step=          24     theta[rad]=           0.2513
  C        -0.02069         -0.02736         0.02976
  C         0.02012          0.04911         1.34904
  H         0.90068          0.14367        -0.53739
  H         0.94880         -0.24533         1.89367
  H        -0.88027         -0.11354         1.94238
  C        -1.28922         -0.00723        -0.76728
  H        -1.08254          0.01923        -1.83378
  H        -1.92366         -0.86711        -0.55151
  H        -1.85293          0.89000        -0.51037
9
 step=          25     theta[rad]=           0.2618
  C        -0.02069         -0.02642         0.02976
  C         0.02012          0.04744         1.34904
  H         0.90068          0.13878        -0.53739
  H         0.94880         -0.23697         1.89367
  H        -0.88027         -0.10967         1.94238
  C        -1.28922         -0.00698        -0.76728
  H        -1.08254          0.01857        -1.83378
  H        -1.92245         -0.86750        -0.55081
  H        -1.85413          0.88961        -0.51107
9
 step=          26     theta[rad]=           0.2723
  C        -0.02069         -0.02355         0.02976
  C         0.02012          0.04227         1.34904
  H         0.90068          0.12367        -0.53739
  H         0.94880         -0.21116         1.89367
  H        -0.88027         -0.09773         1.94238
  C        -1.28922         -0.00622        -0.76728
  H        -1.08254          0.01655        -1.83378
  H        -1.91873         -0.86870        -0.54865
  H        -1.85785          0.88841        -0.51324
9
 step=          27     theta[rad]=           0.2827
  C        -0.02069         -0.01873         0.02976
  C         0.02012          0.03362         1.34904
  H         0.90068          0.09835        -0.53739
  H         0.94880         -0.16794         1.89367
  H        -0.88027         -0.07772         1.94238
  C        -1.28922         -0.00495        -0.76728
  H        -1.08254          0.01316        -1.83378
  H        -1.91250         -0.87072        -0.54502
  H        -1.86408          0.88639        -0.51686
9
 step=          28     theta[rad]=           0.2932
  C        -0.02069         -0.01216         0.02976
  C         0.02012          0.02184         1.34904
  H         0.90068          0.06388        -0.53739
  H         0.94880         -0.10908         1.89367
  H        -0.88027         -0.05048         1.94238
  C        -1.28922         -0.00322        -0.76728
  H        -1.08254          0.00855        -1.83378
  H        -1.90402         -0.87346        -0.54009
  H        -1.87257          0.88364        -0.52180
9
 step=          29     theta[rad]=           0.3037
  C        -0.02069         -0.00428         0.02976
  C         0.02012          0.00768         1.34904
  H         0.90068          0.02248        -0.53739
  H         0.94880         -0.03838         1.89367
  H        -0.88027         -0.01776         1.94238
  C        -1.28922         -0.00113        -0.76728
  H        -1.08254          0.00301        -1.83378
  H        -1.89383         -0.87676        -0.53416
  H        -1.88276          0.88034        -0.52772
9
 step=          30     theta[rad]=           0.3142
  C        -0.02069          0.00428         0.02976
  C         0.02012         -0.00768         1.34904
  H         0.90068         -0.02248        -0.53739
  H         0.94880          0.03838         1.89367
  H        -0.88027          0.01776         1.94238
  C        -1.28922          0.00113        -0.76728
  H        -1.08254         -0.00301        -1.83378
  H        -1.88276         -0.88034        -0.52772
  H        -1.89383          0.87676        -0.53416
9
 step=          31     theta[rad]=           0.3246
  C        -0.02069          0.01267         0.02976
  C         0.02012         -0.02275         1.34904
  H         0.90068         -0.06656        -0.53739
  H         0.94880          0.11366         1.89367
  H        -0.88027          0.05260         1.94238
  C        -1.28922          0.00335        -0.76728
  H        -1.08254         -0.00891        -1.83378
  H        -1.87191         -0.88386        -0.52141
  H        -1.90468          0.87325        -0.54047
9
 step=          32     theta[rad]=           0.3351
  C        -0.02069          0.01994         0.02976
  C         0.02012         -0.03580         1.34904
  H         0.90068         -0.10473        -0.53739
  H         0.94880          0.17884         1.89367
  H        -0.88027          0.08277         1.94238
  C        -1.28922          0.00527        -0.76728
  H        -1.08254         -0.01402        -1.83378
  H        -1.86251         -0.88690        -0.51595
  H        -1.91407          0.87021        -0.54594
9
 step=          33     theta[rad]=           0.3456
  C        -0.02069          0.02511         0.02976
  C         0.02012         -0.04507         1.34904
  H         0.90068         -0.13186        -0.53739
  H         0.94880          0.22515         1.89367
  H        -0.88027          0.10420         1.94238
  C        -1.28922          0.00664        -0.76728
  H        -1.08254         -0.01765        -1.83378
  H        -1.85584         -0.88906        -0.51206
  H        -1.92075          0.86805        -0.54982
9
 step=          34     theta[rad]=           0.3560
  C        -0.02069          0.02732         0.02976
  C         0.02012         -0.04905         1.34904
  H         0.90068         -0.14348        -0.53739
  H         0.94880          0.24499         1.89367
  H        -0.88027          0.11338         1.94238
  C        -1.28922          0.00722        -0.76728
  H        -1.08254         -0.01920        -1.83378
  H        -1.85298         -0.88998        -0.51040
  H        -1.92361          0.86712        -0.55149
9
 step=          35     theta[rad]=           0.3665
  C        -0.02069          0.02602         0.02976
  C         0.02012         -0.04671         1.34904
  H         0.90068         -0.13664        -0.53739
  H         0.94880          0.23332         1.89367
  H        -0.88027          0.10798         1.94238
  C        -1.28922          0.00688        -0.76728
  H        -1.08254         -0.01829        -1.83378
  H        -1.85466         -0.88944        -0.51138
  H        -1.92193          0.86767        -0.55051
9
 step=          36     theta[rad]=           0.3770
  C        -0.02069          0.02108         0.02976
  C         0.02012         -0.03784         1.34904
  H         0.90068         -0.11070        -0.53739
  H         0.94880          0.18903         1.89367
  H        -0.88027          0.08748         1.94238
  C        -1.28922          0.00557        -0.76728
  H        -1.08254         -0.01482        -1.83378
  H        -1.86104         -0.88737        -0.51509
  H        -1.91554          0.86973        -0.54679
9
 step=          37     theta[rad]=           0.3875
  C        -0.02069          0.01293         0.02976
  C         0.02012         -0.02321         1.34904
  H         0.90068         -0.06789        -0.53739
  H         0.94880          0.11593         1.89367
  H        -0.88027          0.05365         1.94238
  C        -1.28922          0.00342        -0.76728
  H        -1.08254         -0.00909        -1.83378
  H        -1.87158         -0.88396        -0.52122
  H        -1.90500          0.87314        -0.54066
9
 step=          38     theta[rad]=           0.3979
  C        -0.02069          0.00257         0.02976
  C         0.02012         -0.00462         1.34904
  H         0.90068         -0.01352        -0.53739
  H         0.94880          0.02309         1.89367
  H        -0.88027          0.01069         1.94238
  C        -1.28922          0.00068        -0.76728
  H        -1.08254         -0.00181        -1.83378
  H        -1.88497         -0.87963        -0.52901
  H        -1.89162          0.87748        -0.53288
9
 step=          39     theta[rad]=           0.4084
  C        -0.02069         -0.00845         0.02976
  C         0.02012          0.01518         1.34904
  H         0.90068          0.04440        -0.53739
  H         0.94880         -0.07581         1.89367
  H        -0.88027         -0.03509         1.94238
  C        -1.28922         -0.00223        -0.76728
  H        -1.08254          0.00594        -1.83378
  H        -1.89922         -0.87502        -0.53730
  H        -1.87737          0.88209        -0.52459
9
 step=          40     theta[rad]=           0.4189
  C        -0.02069         -0.01831         0.02976
  C         0.02012          0.03286         1.34904
  H         0.90068          0.09614        -0.53739
  H         0.94880         -0.16416         1.89367
  H        -0.88027         -0.07597         1.94238
  C        -1.28922         -0.00484        -0.76728
  H        -1.08254          0.01287        -1.83378
  H        -1.91196         -0.87089        -0.54471
  H        -1.86463          0.88621        -0.51718
9
 step=          41     theta[rad]=           0.4294
  C        -0.02069         -0.02511         0.02976
  C         0.02012          0.04507         1.34904
  H         0.90068          0.13186        -0.53739
  H         0.94880         -0.22515         1.89367
  H        -0.88027         -0.10420         1.94238
  C        -1.28922         -0.00664        -0.76728
  H        -1.08254          0.01765        -1.83378
  H        -1.92075         -0.86805        -0.54982
  H        -1.85584          0.88906        -0.51206
9
 step=          42     theta[rad]=           0.4398
  C        -0.02069         -0.02734         0.02976
  C         0.02012          0.04909         1.34904
  H         0.90068          0.14360        -0.53739
  H         0.94880         -0.24521         1.89367
  H        -0.88027         -0.11348         1.94238
  C        -1.28922         -0.00723        -0.76728
  H        -1.08254          0.01922        -1.83378
  H        -1.92364         -0.86711        -0.55150
  H        -1.85295          0.88999        -0.51038
9
 step=          43     theta[rad]=           0.4503
  C        -0.02069         -0.02424         0.02976
  C         0.02012          0.04352         1.34904
  H         0.90068          0.12732        -0.53739
  H         0.94880         -0.21741         1.89367
  H        -0.88027         -0.10062         1.94238
  C        -1.28922         -0.00641        -0.76728
  H        -1.08254          0.01704        -1.83378
  H        -1.91963         -0.86841        -0.54917
  H        -1.85695          0.88870        -0.51271
9
 step=          44     theta[rad]=           0.4608
  C        -0.02069         -0.01608         0.02976
  C         0.02012          0.02887         1.34904
  H         0.90068          0.08445        -0.53739
  H         0.94880         -0.14420         1.89367
  H        -0.88027         -0.06674         1.94238
  C        -1.28922         -0.00425        -0.76728
  H        -1.08254          0.01130        -1.83378
  H        -1.90908         -0.87183        -0.54303
  H        -1.86751          0.88528        -0.51885
9
 step=          45     theta[rad]=           0.4712
  C        -0.02069         -0.00428         0.02976
  C         0.02012          0.00768         1.34904
  H         0.90068          0.02248        -0.53739
  H         0.94880         -0.03838         1.89367
  H        -0.88027         -0.01776         1.94238
  C        -1.28922         -0.00113        -0.76728
  H        -1.08254          0.00301        -1.83378
  H        -1.89383         -0.87676        -0.53416
  H        -1.88276          0.88034        -0.52772
9
 step=          46     theta[rad]=           0.4817
  C        -0.02069          0.00873         0.02976
  C         0.02012         -0.01566         1.34904
  H         0.90068         -0.04583        -0.53739
  H         0.94880          0.07825         1.89367
  H        -0.88027          0.03621         1.94238
  C        -1.28922          0.00231        -0.76728
  H        -1.08254         -0.00613        -1.83378
  H        -1.87701         -0.88220        -0.52438
  H        -1.89957          0.87490        -0.53750
9
 step=          47     theta[rad]=           0.4922
  C        -0.02069          0.01994         0.02976
  C         0.02012         -0.03580         1.34904
  H         0.90068         -0.10473        -0.53739
  H         0.94880          0.17884         1.89367
  H        -0.88027          0.08277         1.94238
  C        -1.28922          0.00527        -0.76728
  H        -1.08254         -0.01402        -1.83378
  H        -1.86251         -0.88690        -0.51595
  H        -1.91407          0.87021        -0.54594
9
 step=          48     theta[rad]=           0.5027
  C        -0.02069          0.02650         0.02976
  C         0.02012         -0.04757         1.34904
  H         0.90068         -0.13916        -0.53739
  H         0.94880          0.23762         1.89367
  H        -0.88027          0.10997         1.94238
  C        -1.28922          0.00700        -0.76728
  H        -1.08254         -0.01862        -1.83378
  H        -1.85404         -0.88964        -0.51102
  H        -1.92255          0.86747        -0.55087
9
 step=          49     theta[rad]=           0.5131
  C        -0.02069          0.02642         0.02976
  C         0.02012         -0.04744         1.34904
  H         0.90068         -0.13878        -0.53739
  H         0.94880          0.23697         1.89367
  H        -0.88027          0.10967         1.94238
  C        -1.28922          0.00698        -0.76728
  H        -1.08254         -0.01857        -1.83378
  H        -1.85413         -0.88961        -0.51107
  H        -1.92245          0.86750        -0.55081
9
 step=          50     theta[rad]=           0.5236
  C        -0.02069          0.01934         0.02976
  C         0.02012         -0.03473         1.34904
  H         0.90068         -0.10159        -0.53739
  H         0.94880          0.17347         1.89367
  H        -0.88027          0.08028         1.94238
  C        -1.28922          0.00511        -0.76728
  H        -1.08254         -0.01360        -1.83378
  H        -1.86329         -0.88665        -0.51640
  H        -1.91330          0.87046        -0.54549
9
 step=          51     theta[rad]=           0.5341
  C        -0.02069          0.00680         0.02976
  C         0.02012         -0.01221         1.34904
  H         0.90068         -0.03573        -0.53739
  H         0.94880          0.06101         1.89367
  H        -0.88027          0.02824         1.94238
  C        -1.28922          0.00180        -0.76728
  H        -1.08254         -0.00478        -1.83378
  H        -1.87950         -0.88140        -0.52583
  H        -1.89709          0.87571        -0.53606
9
 step=          52     theta[rad]=           0.5445
  C        -0.02069         -0.00791         0.02976
  C         0.02012          0.01420         1.34904
  H         0.90068          0.04153        -0.53739
  H         0.94880         -0.07091         1.89367
  H        -0.88027         -0.03282         1.94238
  C        -1.28922         -0.00209        -0.76728
  H        -1.08254          0.00556        -1.83378
  H        -1.89851         -0.87525        -0.53689
  H        -1.87807          0.88186        -0.52500
9
 step=          53     theta[rad]=           0.5550
  C        -0.02069         -0.02052         0.02976
  C         0.02012          0.03684         1.34904
  H         0.90068          0.10777        -0.53739
  H         0.94880         -0.18402         1.89367
  H        -0.88027         -0.08517         1.94238
  C        -1.28922         -0.00542        -0.76728
  H        -1.08254          0.01442        -1.83378
  H        -1.91482         -0.86997        -0.54637
  H        -1.86177          0.88714        -0.51551
9
 step=          54     theta[rad]=           0.5655
  C        -0.02069         -0.02702         0.02976
  C         0.02012          0.04851         1.34904
  H         0.90068          0.14190        -0.53739
  H         0.94880         -0.24231         1.89367
  H        -0.88027         -0.11214         1.94238
  C        -1.28922         -0.00714        -0.76728
  H        -1.08254          0.01899        -1.83378
  H        -1.92322         -0.86725        -0.55126
  H        -1.85336          0.88986        -0.51062
9
 step=          55     theta[rad]=           0.5760
  C        -0.02069         -0.02499         0.02976
  C         0.02012          0.04487         1.34904
  H         0.90068          0.13125        -0.53739
  H         0.94880         -0.22412         1.89367
  H        -0.88027         -0.10372         1.94238
  C        -1.28922         -0.00661        -0.76728
  H        -1.08254          0.01757        -1.83378
  H        -1.92060         -0.86810        -0.54974
  H        -1.85599          0.88901        -0.51215
9
 step=          56     theta[rad]=           0.5864
  C        -0.02069         -0.01466         0.02976
  C         0.02012          0.02632         1.34904
  H         0.90068          0.07698        -0.53739
  H         0.94880         -0.13145         1.89367
  H        -0.88027         -0.06084         1.94238
  C        -1.28922         -0.00387        -0.76728
  H        -1.08254          0.01030        -1.83378
  H        -1.90724         -0.87242        -0.54197
  H        -1.86934          0.88469        -0.51992
9
 step=          57     theta[rad]=           0.5969
  C        -0.02069          0.00086         0.02976
  C         0.02012         -0.00154         1.34904
  H         0.90068         -0.00451        -0.53739
  H         0.94880          0.00771         1.89367
  H        -0.88027          0.00357         1.94238
  C        -1.28922          0.00023        -0.76728
  H        -1.08254         -0.00060        -1.83378
  H        -1.88718         -0.87891        -0.53030
  H        -1.88940          0.87819        -0.53159
9
 step=          58     theta[rad]=           0.6074
  C        -0.02069          0.01631         0.02976
  C         0.02012         -0.02928         1.34904
  H         0.90068         -0.08566        -0.53739
  H         0.94880          0.14627         1.89367
  H        -0.88027          0.06770         1.94238
  C        -1.28922          0.00431        -0.76728
  H        -1.08254         -0.01146        -1.83378
  H        -1.86721         -0.88538        -0.51868
  H        -1.90938          0.87173        -0.54321
9
 step=          59     theta[rad]=           0.6178
  C        -0.02069          0.02602         0.02976
  C         0.02012         -0.04671         1.34904
  H         0.90068         -0.13664        -0.53739
  H         0.94880          0.23332         1.89367
  H        -0.88027          0.10798         1.94238
  C        -1.28922          0.00688        -0.76728
  H        -1.08254         -0.01829        -1.83378
  H        -1.85466         -0.88944        -0.51138
  H        -1.92193          0.86767        -0.55051
9
 step=          60     theta[rad]=           0.6283
  C        -0.02069          0.02602         0.02976
  C         0.02012         -0.04671         1.34904
  H         0.90068         -0.13664        -0.53739
  H         0.94880          0.23332         1.89367
  H        -0.88027          0.10798         1.94238
  C        -1.28922          0.00688        -0.76728
  H        -1.08254         -0.01829        -1.83378
  H        -1.85466         -0.88944        -0.51138
  H        -1.92193          0.86767        -0.55051
9
 step=          61     theta[rad]=           0.6388
  C        -0.02069          0.01585         0.02976
  C         0.02012         -0.02845         1.34904
  H         0.90068         -0.08323        -0.53739
  H         0.94880          0.14211         1.89367
  H        -0.88027          0.06577         1.94238
  C        -1.28922          0.00419        -0.76728
  H        -1.08254         -0.01114        -1.83378
  H        -1.86781         -0.88518        -0.51903
  H        -1.90878          0.87192        -0.54286
9
 step=          62     theta[rad]=           0.6493
  C        -0.02069         -0.00086         0.02976
  C         0.02012          0.00154         1.34904
  H         0.90068          0.00451        -0.53739
  H         0.94880         -0.00771         1.89367
  H        -0.88027         -0.00357         1.94238
  C        -1.28922         -0.00023        -0.76728
  H        -1.08254          0.00060        -1.83378
  H        -1.88940         -0.87819        -0.53159
  H        -1.88718          0.87891        -0.53030
9
 step=          63     theta[rad]=           0.6597
  C        -0.02069         -0.01744         0.02976
  C         0.02012          0.03131         1.34904
  H         0.90068          0.09158        -0.53739
  H         0.94880         -0.15638         1.89367
  H        -0.88027         -0.07237         1.94238
  C        -1.28922         -0.00461        -0.76728
  H        -1.08254          0.01226        -1.83378
  H        -1.91084         -0.87126        -0.54406
  H        -1.86575          0.88585        -0.51783
9
 step=          64     theta[rad]=           0.6702
  C        -0.02069         -0.02676         0.02976
  C         0.02012          0.04804         1.34904
  H         0.90068          0.14053        -0.53739
  H         0.94880         -0.23997         1.89367
  H        -0.88027         -0.11106         1.94238
  C        -1.28922         -0.00707        -0.76728
  H        -1.08254          0.01881        -1.83378
  H        -1.92289         -0.86736        -0.55106
  H        -1.85370          0.88975        -0.51082
9
 step=          65     theta[rad]=           0.6807
  C        -0.02069         -0.02437         0.02976
  C         0.02012          0.04376         1.34904
  H         0.90068          0.12801        -0.53739
  H         0.94880         -0.21859         1.89367
  H        -0.88027         -0.10116         1.94238
  C        -1.28922         -0.00644        -0.76728
  H        -1.08254          0.01713        -1.83378
  H        -1.91980         -0.86835        -0.54927
  H        -1.85678          0.88875        -0.51261
9
 step=          66     theta[rad]=           0.6912
  C        -0.02069         -0.01086         0.02976
  C         0.02012          0.01950         1.34904
  H         0.90068          0.05706        -0.53739
  H         0.94880         -0.09743         1.89367
  H        -0.88027         -0.04509         1.94238
  C        -1.28922         -0.00287        -0.76728
  H        -1.08254          0.00764        -1.83378
  H        -1.90234         -0.87401        -0.53911
  H        -1.87425          0.88310        -0.52277
9
 step=          67     theta[rad]=           0.7016
  C        -0.02069          0.00791         0.02976
  C         0.02012         -0.01420         1.34904
  H         0.90068         -0.04153        -0.53739
  H         0.94880          0.07091         1.89367
  H        -0.88027          0.03282         1.94238
  C        -1.28922          0.00209        -0.76728
  H        -1.08254         -0.00556        -1.83378
  H        -1.87807         -0.88186        -0.52500
  H        -1.89851          0.87525        -0.53689
9
 step=          68     theta[rad]=           0.7121
  C        -0.02069          0.02310         0.02976
  C         0.02012         -0.04147         1.34904
  H         0.90068         -0.12131        -0.53739
  H         0.94880          0.20714         1.89367
  H        -0.88027          0.09586         1.94238
  C        -1.28922          0.00611        -0.76728
  H        -1.08254         -0.01624        -1.83378
  H        -1.85843         -0.88822        -0.51357
  H        -1.91815          0.86889        -0.54831
9
 step=          69     theta[rad]=           0.7226
  C        -0.02069          0.02702         0.02976
  C         0.02012         -0.04851         1.34904
  H         0.90068         -0.14190        -0.53739
  H         0.94880          0.24231         1.89367
  H        -0.88027          0.11214         1.94238
  C        -1.28922          0.00714        -0.76728
  H        -1.08254         -0.01899        -1.83378
  H        -1.85336         -0.88986        -0.51062
  H        -1.92322          0.86725        -0.55126
9
 step=          70     theta[rad]=           0.7330
  C        -0.02069          0.01722         0.02976
  C         0.02012         -0.03091         1.34904
  H         0.90068         -0.09042        -0.53739
  H         0.94880          0.15439         1.89367
  H        -0.88027          0.07145         1.94238
  C        -1.28922          0.00455        -0.76728
  H        -1.08254         -0.01210        -1.83378
  H        -1.86604         -0.88576        -0.51800
  H        -1.91055          0.87135        -0.54389
9
 step=          71     theta[rad]=           0.7435
  C        -0.02069         -0.00172         0.02976
  C         0.02012          0.00308         1.34904
  H         0.90068          0.00902        -0.53739
  H         0.94880         -0.01540         1.89367
  H        -0.88027         -0.00713         1.94238
  C        -1.28922         -0.00045        -0.76728
  H        -1.08254          0.00121        -1.83378
  H        -1.89051         -0.87783        -0.53223
  H        -1.88607          0.87927        -0.52965
9
 step=          72     theta[rad]=           0.7540
  C        -0.02069         -0.01994         0.02976
  C         0.02012          0.03580         1.34904
  H         0.90068          0.10473        -0.53739
  H         0.94880         -0.17884         1.89367
  H        -0.88027         -0.08277         1.94238
  C        -1.28922         -0.00527        -0.76728
  H        -1.08254          0.01402        -1.83378
  H        -1.91407         -0.87021        -0.54594
  H        -1.86251          0.88690        -0.51595
9
 step=          73     theta[rad]=           0.7645
  C        -0.02069         -0.02736         0.02976
  C         0.02012          0.04911         1.34904
  H         0.90068          0.14367        -0.53739
  H         0.94880         -0.24532         1.89367
  H        -0.88027         -0.11353         1.94238
  C        -1.28922         -0.00723        -0.76728
  H        -1.08254          0.01923        -1.83378
  H        -1.92366         -0.86711        -0.55151
  H        -1.85293          0.89000        -0.51037
9
 step=          74     theta[rad]=           0.7749
  C        -0.02069         -0.01934         0.02976
  C         0.02012          0.03473         1.34904
  H         0.90068          0.10159        -0.53739
  H         0.94880         -0.17347         1.89367
  H        -0.88027         -0.08028         1.94238
  C        -1.28922         -0.00511        -0.76728
  H        -1.08254          0.01360        -1.83378
  H        -1.91330         -0.87046        -0.54549
  H        -1.86329          0.88665        -0.51640
9
 step=          75     theta[rad]=           0.7854
  C        -0.02069         -0.00000         0.02976
  C         0.02012          0.00000         1.34904
  H         0.90068         -0.00000        -0.53739
  H         0.94880         -0.00000         1.89367
  H        -0.88027          0.00000         1.94238
  C        -1.28922         -0.00000        -0.76728
  H        -1.08254          0.00000        -1.83378
  H        -1.88829         -0.87855        -0.53094
  H        -1.88829          0.87855        -0.53094
9
 step=          76     theta[rad]=           0.7959
  C        -0.02069          0.01955         0.02976
  C         0.02012         -0.03509         1.34904
  H         0.90068         -0.10265        -0.53739
  H         0.94880          0.17528         1.89367
  H        -0.88027          0.08112         1.94238
  C        -1.28922          0.00517        -0.76728
  H        -1.08254         -0.01374        -1.83378
  H        -1.86303         -0.88673        -0.51624
  H        -1.91356          0.87038        -0.54564
9
 step=          77     theta[rad]=           0.8063
  C        -0.02069          0.02734         0.02976
  C         0.02012         -0.04909         1.34904
  H         0.90068         -0.14360        -0.53739
  H         0.94880          0.24521         1.89367
  H        -0.88027          0.11348         1.94238
  C        -1.28922          0.00723        -0.76728
  H        -1.08254         -0.01922        -1.83378
  H        -1.85295         -0.88999        -0.51038
  H        -1.92364          0.86711        -0.55150
9
 step=          78     theta[rad]=           0.8168
  C        -0.02069          0.01809         0.02976
  C         0.02012         -0.03248         1.34904
  H         0.90068         -0.09501        -0.53739
  H         0.94880          0.16224         1.89367
  H        -0.88027          0.07509         1.94238
  C        -1.28922          0.00478        -0.76728
  H        -1.08254         -0.01272        -1.83378
  H        -1.86491         -0.88612        -0.51734
  H        -1.91168          0.87098        -0.54455
9
 step=          79     theta[rad]=           0.8273
  C        -0.02069         -0.00286         0.02976
  C         0.02012          0.00513         1.34904
  H         0.90068          0.01502        -0.53739
  H         0.94880         -0.02564         1.89367
  H        -0.88027         -0.01187         1.94238
  C        -1.28922         -0.00076        -0.76728
  H        -1.08254          0.00201        -1.83378
  H        -1.89199         -0.87736        -0.53309
  H        -1.88460          0.87975        -0.52879
9
 step=          80     theta[rad]=           0.8378
  C        -0.02069         -0.02213         0.02976
  C         0.02012          0.03973         1.34904
  H         0.90068          0.11623        -0.53739
  H         0.94880         -0.19848         1.89367
  H        -0.88027         -0.09186         1.94238
  C        -1.28922         -0.00585        -0.76728
  H        -1.08254          0.01556        -1.83378
  H        -1.91690         -0.86929        -0.54759
  H        -1.85968          0.88781        -0.51430
9
 step=          81     theta[rad]=           0.8482
  C        -0.02069         -0.02670         0.02976
  C         0.02012          0.04793         1.34904
  H         0.90068          0.14021        -0.53739
  H         0.94880         -0.23942         1.89367
  H        -0.88027         -0.11081         1.94238
  C        -1.28922         -0.00706        -0.76728
  H        -1.08254          0.01877        -1.83378
  H        -1.92281         -0.86738        -0.55102
  H        -1.85378          0.88972        -0.51087
9
 step=          82     theta[rad]=           0.8587
  C        -0.02069         -0.01293         0.02976
  C         0.02012          0.02321         1.34904
  H         0.90068          0.06789        -0.53739
  H         0.94880         -0.11593         1.89367
  H        -0.88027         -0.05365         1.94238
  C        -1.28922         -0.00342        -0.76728
  H        -1.08254          0.00909        -1.83378
  H        -1.90500         -0.87314        -0.54066
  H        -1.87158          0.88396        -0.52122
9
 step=          83     theta[rad]=           0.8692
  C        -0.02069          0.01007         0.02976
  C         0.02012         -0.01808         1.34904
  H         0.90068         -0.05289        -0.53739
  H         0.94880          0.09031         1.89367
  H        -0.88027          0.04180         1.94238
  C        -1.28922          0.00266        -0.76728
  H        -1.08254         -0.00708        -1.83378
  H        -1.87527         -0.88277        -0.52337
  H        -1.90131          0.87434        -0.53852
9
 step=          84     theta[rad]=           0.8796
  C        -0.02069          0.02602         0.02976
  C         0.02012         -0.04671         1.34904
  H         0.90068         -0.13664        -0.53739
  H         0.94880          0.23332         1.89367
  H        -0.88027          0.10798         1.94238
  C        -1.28922          0.00688        -0.76728
  H        -1.08254         -0.01829        -1.83378
  H        -1.85466         -0.88944        -0.51138
  H        -1.92193          0.86767        -0.55051
9
 step=          85     theta[rad]=           0.8901
  C        -0.02069          0.02294         0.02976
  C         0.02012         -0.04119         1.34904
  H         0.90068         -0.12049        -0.53739
  H         0.94880          0.20575         1.89367
  H        -0.88027          0.09522         1.94238
  C        -1.28922          0.00606        -0.76728
  H        -1.08254         -0.01613        -1.83378
  H        -1.85863         -0.88815        -0.51369
  H        -1.91795          0.86895        -0.54820
9
 step=          86     theta[rad]=           0.9006
  C        -0.02069          0.00257         0.02976
  C         0.02012         -0.00462         1.34904
  H         0.90068         -0.01352        -0.53739
  H         0.94880          0.02309         1.89367
  H        -0.88027          0.01069         1.94238
  C        -1.28922          0.00068        -0.76728
  H        -1.08254         -0.00181        -1.83378
  H        -1.88497         -0.87963        -0.52901
  H        -1.89162          0.87748        -0.53288
9
 step=          87     theta[rad]=           0.9111
  C        -0.02069         -0.01994         0.02976
  C         0.02012          0.03580         1.34904
  H         0.90068          0.10473        -0.53739
  H         0.94880         -0.17884         1.89367
  H        -0.88027         -0.08277         1.94238
  C        -1.28922         -0.00527        -0.76728
  H        -1.08254          0.01402        -1.83378
  H        -1.91407         -0.87021        -0.54594
  H        -1.86251          0.88690        -0.51595
9
 step=          88     theta[rad]=           0.9215
  C        -0.02069         -0.02697         0.02976
  C         0.02012          0.04842         1.34904
  H         0.90068          0.14166        -0.53739
  H         0.94880         -0.24189         1.89367
  H        -0.88027         -0.11195         1.94238
  C        -1.28922         -0.00713        -0.76728
  H        -1.08254          0.01896        -1.83378
  H        -1.92316         -0.86727        -0.55123
  H        -1.85342          0.88984        -0.51066
9
 step=          89     theta[rad]=           0.9320
  C        -0.02069         -0.01242         0.02976
  C         0.02012          0.02230         1.34904
  H         0.90068          0.06523        -0.53739
  H         0.94880         -0.11138         1.89367
  H        -0.88027         -0.05155         1.94238
  C        -1.28922         -0.00328        -0.76728
  H        -1.08254          0.00873        -1.83378
  H        -1.90435         -0.87336        -0.54028
  H        -1.87224          0.88375        -0.52160
9
 step=          90     theta[rad]=           0.9425
  C        -0.02069          0.01242         0.02976
  C         0.02012         -0.02230         1.34904
  H         0.90068         -0.06523        -0.53739
  H         0.94880          0.11138         1.89367
  H        -0.88027          0.05155         1.94238
  C        -1.28922          0.00328        -0.76728
  H        -1.08254         -0.00873        -1.83378
  H        -1.87224         -0.88375        -0.52160
  H        -1.90435          0.87336        -0.54028
9
 step=          91     theta[rad]=           0.9529
  C        -0.02069          0.02706         0.02976
  C         0.02012         -0.04859         1.34904
  H         0.90068         -0.14213        -0.53739
  H         0.94880          0.24270         1.89367
  H        -0.88027          0.11232         1.94238
  C        -1.28922          0.00715        -0.76728
  H        -1.08254         -0.01902        -1.83378
  H        -1.85331         -0.88988        -0.51059
  H        -1.92328          0.86723        -0.55129
9
 step=          92     theta[rad]=           0.9634
  C        -0.02069          0.01873         0.02976
  C         0.02012         -0.03362         1.34904
  H         0.90068         -0.09835        -0.53739
  H         0.94880          0.16794         1.89367
  H        -0.88027          0.07772         1.94238
  C        -1.28922          0.00495        -0.76728
  H        -1.08254         -0.01316        -1.83378
  H        -1.86408         -0.88639        -0.51686
  H        -1.91250          0.87072        -0.54502
9
 step=          93     theta[rad]=           0.9739
  C        -0.02069         -0.00597         0.02976
  C         0.02012          0.01071         1.34904
  H         0.90068          0.03134        -0.53739
  H         0.94880         -0.05352         1.89367
  H        -0.88027         -0.02477         1.94238
  C        -1.28922         -0.00158        -0.76728
  H        -1.08254          0.00419        -1.83378
  H        -1.89601         -0.87606        -0.53543
  H        -1.88058          0.88105        -0.52646
9
 step=          94     theta[rad]=           0.9844
  C        -0.02069         -0.02554         0.02976
  C         0.02012          0.04585         1.34904
  H         0.90068          0.13413        -0.53739
  H         0.94880         -0.22903         1.89367
  H        -0.88027         -0.10600         1.94238
  C        -1.28922         -0.00675        -0.76728
  H        -1.08254          0.01795        -1.83378
  H        -1.92131         -0.86787        -0.55015
  H        -1.85528          0.88924        -0.51174
9
 step=          95     theta[rad]=           0.9948
  C        -0.02069         -0.02213         0.02976
  C         0.02012          0.03973         1.34904
  H         0.90068          0.11623        -0.53739
  H         0.94880         -0.19848         1.89367
  H        -0.88027         -0.09186         1.94238
  C        -1.28922         -0.00585        -0.76728
  H        -1.08254          0.01556        -1.83378
  H        -1.91690         -0.86929        -0.54759
  H        -1.85968          0.88781        -0.51430
9
 step=          96     theta[rad]=           1.0053
  C        -0.02069          0.00172         0.02976
  C         0.02012         -0.00308         1.34904
  H         0.90068         -0.00902        -0.53739
  H         0.94880          0.01540         1.89367
  H        -0.88027          0.00713         1.94238
  C        -1.28922          0.00045        -0.76728
  H        -1.08254         -0.00121        -1.83378
  H        -1.88607         -0.87927        -0.52965
  H        -1.89051          0.87783        -0.53223
9
 step=          97     theta[rad]=           1.0158
  C        -0.02069          0.02411         0.02976
  C         0.02012         -0.04328         1.34904
  H         0.90068         -0.12662        -0.53739
  H         0.94880          0.21621         1.89367
  H        -0.88027          0.10006         1.94238
  C        -1.28922          0.00637        -0.76728
  H        -1.08254         -0.01695        -1.83378
  H        -1.85713         -0.88864        -0.51281
  H        -1.91946          0.86847        -0.54907
9
 step=          98     theta[rad]=           1.0263
  C        -0.02069          0.02355         0.02976
  C         0.02012         -0.04227         1.34904
  H         0.90068         -0.12367        -0.53739
  H         0.94880          0.21116         1.89367
  H        -0.88027          0.09773         1.94238
  C        -1.28922          0.00622        -0.76728
  H        -1.08254         -0.01655        -1.83378
  H        -1.85785         -0.88841        -0.51324
  H        -1.91873          0.86870        -0.54865
9
 step=          99     theta[rad]=           1.0367
  C        -0.02069         -0.00000         0.02976
  C         0.02012          0.00000         1.34904
  H         0.90068         -0.00000        -0.53739
  H         0.94880         -0.00000         1.89367
  H        -0.88027          0.00000         1.94238
  C        -1.28922         -0.00000        -0.76728
  H        -1.08254          0.00000        -1.83378
  H        -1.88829         -0.87855        -0.53094
  H        -1.88829          0.87855        -0.53094
9
 step=         100     theta[rad]=           1.0472
  C        -0.02069         -0.02369         0.02976
  C         0.02012          0.04253         1.34904
  H         0.90068          0.12443        -0.53739
  H         0.94880         -0.21246         1.89367
  H        -0.88027         -0.09833         1.94238
  C        -1.28922         -0.00626        -0.76728
  H        -1.08254          0.01665        -1.83378
  H        -1.91892         -0.86864        -0.54876
  H        -1.85767          0.88847        -0.51313
9
 step=         101     theta[rad]=           1.0577
  C        -0.02069         -0.02355         0.02976
  C         0.02012          0.04227         1.34904
  H         0.90068          0.12367        -0.53739
  H         0.94880         -0.21116         1.89367
  H        -0.88027         -0.09773         1.94238
  C        -1.28922         -0.00622        -0.76728
  H        -1.08254          0.01655        -1.83378
  H        -1.91873         -0.86870        -0.54865
  H        -1.85785          0.88841        -0.51324
9
 step=         102     theta[rad]=           1.0681
  C        -0.02069          0.00086         0.02976
  C         0.02012         -0.00154         1.34904
  H         0.90068         -0.00451        -0.53739
  H         0.94880          0.00771         1.89367
  H        -0.88027          0.00357         1.94238
  C        -1.28922          0.00023        -0.76728
  H        -1.08254         -0.00060        -1.83378
  H        -1.88718         -0.87891        -0.53030
  H        -1.88940          0.87819        -0.53159
9
 step=         103     theta[rad]=           1.0786
  C        -0.02069          0.02450         0.02976
  C         0.02012         -0.04399         1.34904
  H         0.90068         -0.12869        -0.53739
  H         0.94880          0.21974         1.89367
  H        -0.88027          0.10170         1.94238
  C        -1.28922          0.00648        -0.76728
  H        -1.08254         -0.01722        -1.83378
  H        -1.85662         -0.88881        -0.51252
  H        -1.91997          0.86830        -0.54937
9
 step=         104     theta[rad]=           1.0891
  C        -0.02069          0.02213         0.02976
  C         0.02012         -0.03973         1.34904
  H         0.90068         -0.11623        -0.53739
  H         0.94880          0.19848         1.89367
  H        -0.88027          0.09186         1.94238
  C        -1.28922          0.00585        -0.76728
  H        -1.08254         -0.01556        -1.83378
  H        -1.85968         -0.88781        -0.51430
  H        -1.91690          0.86929        -0.54759
9
 step=         105     theta[rad]=           1.0996
  C        -0.02069         -0.00428         0.02976
  C         0.02012          0.00768         1.34904
  H         0.90068          0.02248        -0.53739
  H         0.94880         -0.03838         1.89367
  H        -0.88027         -0.01776         1.94238
  C        -1.28922         -0.00113        -0.76728
  H        -1.08254          0.00301        -1.83378
  H        -1.89383         -0.87676        -0.53416
  H        -1.88276          0.88034        -0.52772
9
 step=         106     theta[rad]=           1.1100
  C        -0.02069         -0.02610         0.02976
  C         0.02012          0.04687         1.34904
  H         0.90068          0.13710        -0.53739
  H         0.94880         -0.23410         1.89367
  H        -0.88027         -0.10834         1.94238
  C        -1.28922         -0.00690        -0.76728
  H        -1.08254          0.01835        -1.83378
  H        -1.92204         -0.86763        -0.55057
  H        -1.85455          0.88948        -0.51131
9
 step=         107     theta[rad]=           1.1205
  C        -0.02069         -0.01873         0.02976
  C         0.02012          0.03362         1.34904
  H         0.90068          0.09835        -0.53739
  H         0.94880         -0.16794         1.89367
  H        -0.88027         -0.07772         1.94238
  C        -1.28922         -0.00495        -0.76728
  H        -1.08254          0.01316        -1.83378
  H        -1.91250         -0.87072        -0.54502
  H        -1.86408          0.88639        -0.51686
9
 step=         108     theta[rad]=           1.1310
  C        -0.02069          0.01007         0.02976
  C         0.02012         -0.01808         1.34904
  H         0.90068         -0.05289        -0.53739
  H         0.94880          0.09031         1.89367
  H        -0.88027          0.04180         1.94238
  C        -1.28922          0.00266        -0.76728
  H        -1.08254         -0.00708        -1.83378
  H        -1.87527         -0.88277        -0.52337
  H        -1.90131          0.87434        -0.53852
9
 step=         109     theta[rad]=           1.1414
  C        -0.02069          0.02732         0.02976
  C         0.02012         -0.04905         1.34904
  H         0.90068         -0.14348        -0.53739
  H         0.94880          0.24499         1.89367
  H        -0.88027          0.11338         1.94238
  C        -1.28922          0.00722        -0.76728
  H        -1.08254         -0.01920        -1.83378
  H        -1.85298         -0.88998        -0.51040
  H        -1.92361          0.86712        -0.55149
9
 step=         110     theta[rad]=           1.1519
  C        -0.02069          0.01242         0.02976
  C         0.02012         -0.02230         1.34904
  H         0.90068         -0.06523        -0.53739
  H         0.94880          0.11138         1.89367
  H        -0.88027          0.05155         1.94238
  C        -1.28922          0.00328        -0.76728
  H        -1.08254         -0.00873        -1.83378
  H        -1.87224         -0.88375        -0.52160
  H        -1.90435          0.87336        -0.54028
9
 step=         111     theta[rad]=           1.1624
  C        -0.02069         -0.01744         0.02976
  C         0.02012          0.03131         1.34904
  H         0.90068          0.09158        -0.53739
  H         0.94880         -0.15638         1.89367
  H        -0.88027         -0.07237         1.94238
  C        -1.28922         -0.00461        -0.76728
  H        -1.08254          0.01226        -1.83378
  H        -1.91084         -0.87126        -0.54406
  H        -1.86575          0.88585        -0.51783
9
 step=         112     theta[rad]=           1.1729
  C        -0.02069         -0.02619         0.02976
  C         0.02012          0.04702         1.34904
  H         0.90068          0.13754        -0.53739
  H         0.94880         -0.23486         1.89367
  H        -0.88027         -0.10869         1.94238
  C        -1.28922         -0.00692        -0.76728
  H        -1.08254          0.01841        -1.83378
  H        -1.92215         -0.86760        -0.55064
  H        -1.85444          0.88951        -0.51125
9
 step=         113     theta[rad]=           1.1833
  C        -0.02069         -0.00257         0.02976
  C         0.02012          0.00462         1.34904
  H         0.90068          0.01352        -0.53739
  H         0.94880         -0.02309         1.89367
  H        -0.88027         -0.01069         1.94238
  C        -1.28922         -0.00068        -0.76728
  H        -1.08254          0.00181        -1.83378
  H        -1.89162         -0.87748        -0.53288
  H        -1.88497          0.87963        -0.52901
9
 step=         114     theta[rad]=           1.1938
  C        -0.02069          0.02437         0.02976
  C         0.02012         -0.04376         1.34904
  H         0.90068         -0.12801        -0.53739
  H         0.94880          0.21859         1.89367
  H        -0.88027          0.10116         1.94238
  C        -1.28922          0.00644        -0.76728
  H        -1.08254         -0.01713        -1.83378
  H        -1.85678         -0.88875        -0.51261
  H        -1.91980          0.86835        -0.54927
9
 step=         115     theta[rad]=           1.2043
  C        -0.02069          0.02033         0.02976
  C         0.02012         -0.03650         1.34904
  H         0.90068         -0.10677        -0.53739
  H         0.94880          0.18231         1.89367
  H        -0.88027          0.08438         1.94238
  C        -1.28922          0.00537        -0.76728
  H        -1.08254         -0.01429        -1.83378
  H        -1.86201         -0.88706        -0.51566
  H        -1.91457          0.87005        -0.54623
9
 step=         116     theta[rad]=           1.2147
  C        -0.02069         -0.01007         0.02976
  C         0.02012          0.01808         1.34904
  H         0.90068          0.05289        -0.53739
  H         0.94880         -0.09031         1.89367
  H        -0.88027         -0.04180         1.94238
  C        -1.28922         -0.00266        -0.76728
  H        -1.08254          0.00708        -1.83378
  H        -1.90131         -0.87434        -0.53852
  H        -1.87527          0.88277        -0.52337
9
 step=         117     theta[rad]=           1.2252
  C        -0.02069         -0.02734         0.02976
  C         0.02012          0.04909         1.34904
  H         0.90068          0.14360        -0.53739
  H         0.94880         -0.24521         1.89367
  H        -0.88027         -0.11348         1.94238
  C        -1.28922         -0.00723        -0.76728
  H        -1.08254          0.01922        -1.83378
  H        -1.92364         -0.86711        -0.55150
  H        -1.85295          0.88999        -0.51038
9
 step=         118     theta[rad]=           1.2357
  C        -0.02069         -0.00818         0.02976
  C         0.02012          0.01469         1.34904
  H         0.90068          0.04296        -0.53739
  H         0.94880         -0.07336         1.89367
  H        -0.88027         -0.03395         1.94238
  C        -1.28922         -0.00216        -0.76728
  H        -1.08254          0.00575        -1.83378
  H        -1.89887         -0.87513        -0.53709
  H        -1.87772          0.88198        -0.52479
9
 step=         119     theta[rad]=           1.2462
  C        -0.02069          0.02213         0.02976
  C         0.02012         -0.03973         1.34904
  H         0.90068         -0.11623        -0.53739
  H         0.94880          0.19848         1.89367
  H        -0.88027          0.09186         1.94238
  C        -1.28922          0.00585        -0.76728
  H        -1.08254         -0.01556        -1.83378
  H        -1.85968         -0.88781        -0.51430
  H        -1.91690          0.86929        -0.54759
9
 step=         120     theta[rad]=           1.2566
  C        -0.02069          0.02213         0.02976
  C         0.02012         -0.03973         1.34904
  H         0.90068         -0.11623        -0.53739
  H         0.94880          0.19848         1.89367
  H        -0.88027          0.09186         1.94238
  C        -1.28922          0.00585        -0.76728
  H        -1.08254         -0.01556        -1.83378
  H        -1.85968         -0.88781        -0.51430
  H        -1.91690          0.86929        -0.54759
9
 step=         121     theta[rad]=           1.2671
  C        -0.02069         -0.00873         0.02976
  C         0.02012          0.01566         1.34904
  H         0.90068          0.04583        -0.53739
  H         0.94880         -0.07825         1.89367
  H        -0.88027         -0.03621         1.94238
  C        -1.28922         -0.00231        -0.76728
  H        -1.08254          0.00613        -1.83378
  H        -1.89957         -0.87490        -0.53750
  H        -1.87701          0.88220        -0.52438
9
 step=         122     theta[rad]=           1.2776
  C        -0.02069         -0.02734         0.02976
  C         0.02012          0.04909         1.34904
  H         0.90068          0.14360        -0.53739
  H         0.94880         -0.24521         1.89367
  H        -0.88027         -0.11348         1.94238
  C        -1.28922         -0.00723        -0.76728
  H        -1.08254          0.01922        -1.83378
  H        -1.92364         -0.86711        -0.55150
  H        -1.85295          0.88999        -0.51038
9
 step=         123     theta[rad]=           1.2881
  C        -0.02069         -0.00680         0.02976
  C         0.02012          0.01221         1.34904
  H         0.90068          0.03573        -0.53739
  H         0.94880         -0.06101         1.89367
  H        -0.88027         -0.02824         1.94238
  C        -1.28922         -0.00180        -0.76728
  H        -1.08254          0.00478        -1.83378
  H        -1.89709         -0.87571        -0.53606
  H        -1.87950          0.88140        -0.52583
9
 step=         124     theta[rad]=           1.2985
  C        -0.02069          0.02369         0.02976
  C         0.02012         -0.04253         1.34904
  H         0.90068         -0.12443        -0.53739
  H         0.94880          0.21246         1.89367
  H        -0.88027          0.09833         1.94238
  C        -1.28922          0.00626        -0.76728
  H        -1.08254         -0.01665        -1.83378
  H        -1.85767         -0.88847        -0.51313
  H        -1.91892          0.86864        -0.54876
9
 step=         125     theta[rad]=           1.3090
  C        -0.02069          0.01934         0.02976
  C         0.02012         -0.03473         1.34904
  H         0.90068         -0.10159        -0.53739
  H         0.94880          0.17347         1.89367
  H        -0.88027          0.08028         1.94238
  C        -1.28922          0.00511        -0.76728
  H        -1.08254         -0.01360        -1.83378
  H        -1.86329         -0.88665        -0.51640
  H        -1.91330          0.87046        -0.54549
9
 step=         126     theta[rad]=           1.3195
  C        -0.02069         -0.01393         0.02976
  C         0.02012          0.02500         1.34904
  H         0.90068          0.07314        -0.53739
  H         0.94880         -0.12488         1.89367
  H        -0.88027         -0.05780         1.94238
  C        -1.28922         -0.00368        -0.76728
  H        -1.08254          0.00979        -1.83378
  H        -1.90630         -0.87273        -0.54141
  H        -1.87029          0.88438        -0.52047
9
 step=         127     theta[rad]=           1.3299
  C        -0.02069         -0.02619         0.02976
  C         0.02012          0.04702         1.34904
  H         0.90068          0.13754        -0.53739
  H         0.94880         -0.23486         1.89367
  H        -0.88027         -0.10869         1.94238
  C        -1.28922         -0.00692        -0.76728
  H        -1.08254          0.01841        -1.83378
  H        -1.92215         -0.86760        -0.55064
  H        -1.85444          0.88951        -0.51125
9
 step=         128     theta[rad]=           1.3404
  C        -0.02069          0.00172         0.02976
  C         0.02012         -0.00308         1.34904
  H         0.90068         -0.00902        -0.53739
  H         0.94880          0.01540         1.89367
  H        -0.88027          0.00713         1.94238
  C        -1.28922          0.00045        -0.76728
  H        -1.08254         -0.00121        -1.83378
  H        -1.88607         -0.87927        -0.52965
  H        -1.89051          0.87783        -0.53223
9
 step=         129     theta[rad]=           1.3509
  C        -0.02069          0.02702         0.02976
  C         0.02012         -0.04851         1.34904
  H         0.90068         -0.14190        -0.53739
  H         0.94880          0.24231         1.89367
  H        -0.88027          0.11214         1.94238
  C        -1.28922          0.00714        -0.76728
  H        -1.08254         -0.01899        -1.83378
  H        -1.85336         -0.88986        -0.51062
  H        -1.92322          0.86725        -0.55126
9
 step=         130     theta[rad]=           1.3614
  C        -0.02069          0.00980         0.02976
  C         0.02012         -0.01760         1.34904
  H         0.90068         -0.05149        -0.53739
  H         0.94880          0.08792         1.89367
  H        -0.88027          0.04069         1.94238
  C        -1.28922          0.00259        -0.76728
  H        -1.08254         -0.00689        -1.83378
  H        -1.87562         -0.88266        -0.52357
  H        -1.90097          0.87445        -0.53831
9
 step=         131     theta[rad]=           1.3718
  C        -0.02069         -0.02310         0.02976
  C         0.02012          0.04147         1.34904
  H         0.90068          0.12131        -0.53739
  H         0.94880         -0.20714         1.89367
  H        -0.88027         -0.09586         1.94238
  C        -1.28922         -0.00611        -0.76728
  H        -1.08254          0.01624        -1.83378
  H        -1.91815         -0.86889        -0.54831
  H        -1.85843          0.88822        -0.51357
9
 step=         132     theta[rad]=           1.3823
  C        -0.02069         -0.01873         0.02976
  C         0.02012          0.03362         1.34904
  H         0.90068          0.09835        -0.53739
  H         0.94880         -0.16794         1.89367
  H        -0.88027         -0.07772         1.94238
  C        -1.28922         -0.00495        -0.76728
  H        -1.08254          0.01316        -1.83378
  H        -1.91250         -0.87072        -0.54502
  H        -1.86408          0.88639        -0.51686
9
 step=         133     theta[rad]=           1.3928
  C        -0.02069          0.01631         0.02976
  C         0.02012         -0.02928         1.34904
  H         0.90068         -0.08566        -0.53739
  H         0.94880          0.14627         1.89367
  H        -0.88027          0.06770         1.94238
  C        -1.28922          0.00431        -0.76728
  H        -1.08254         -0.01146        -1.83378
  H        -1.86721         -0.88538        -0.51868
  H        -1.90938          0.87173        -0.54321
9
 step=         134     theta[rad]=           1.4032
  C        -0.02069          0.02437         0.02976
  C         0.02012         -0.04376         1.34904
  H         0.90068         -0.12801        -0.53739
  H         0.94880          0.21859         1.89367
  H        -0.88027          0.10116         1.94238
  C        -1.28922          0.00644        -0.76728
  H        -1.08254         -0.01713        -1.83378
  H        -1.85678         -0.88875        -0.51261
  H        -1.91980          0.86835        -0.54927
9
 step=         135     theta[rad]=           1.4137
  C        -0.02069         -0.00845         0.02976
  C         0.02012          0.01518         1.34904
  H         0.90068          0.04440        -0.53739
  H         0.94880         -0.07581         1.89367
  H        -0.88027         -0.03509         1.94238
  C        -1.28922         -0.00223        -0.76728
  H        -1.08254          0.00594        -1.83378
  H        -1.89922         -0.87502        -0.53730
  H        -1.87737          0.88209        -0.52459
9
 step=         136     theta[rad]=           1.4242
  C        -0.02069         -0.02697         0.02976
  C         0.02012          0.04842         1.34904
  H         0.90068          0.14166        -0.53739
  H         0.94880         -0.24189         1.89367
  H        -0.88027         -0.11195         1.94238
  C        -1.28922         -0.00713        -0.76728
  H        -1.08254          0.01896        -1.83378
  H        -1.92316         -0.86727        -0.55123
  H        -1.85342          0.88984        -0.51066
9
 step=         137     theta[rad]=           1.4347
  C        -0.02069          0.00086         0.02976
  C         0.02012         -0.00154         1.34904
  H         0.90068         -0.00451        -0.53739
  H         0.94880          0.00771         1.89367
  H        -0.88027          0.00357         1.94238
  C        -1.28922          0.00023        -0.76728
  H        -1.08254         -0.00060        -1.83378
  H        -1.88718         -0.87891        -0.53030
  H        -1.88940          0.87819        -0.53159
9
 step=         138     theta[rad]=           1.4451
  C        -0.02069          0.02724         0.02976
  C         0.02012         -0.04889         1.34904
  H         0.90068         -0.14304        -0.53739
  H         0.94880          0.24424         1.89367
  H        -0.88027          0.11304         1.94238
  C        -1.28922          0.00720        -0.76728
  H        -1.08254         -0.01914        -1.83378
  H        -1.85309         -0.88995        -0.51046
  H        -1.92350          0.86716        -0.55142
9
 step=         139     theta[rad]=           1.4556
  C        -0.02069          0.00569         0.02976
  C         0.02012         -0.01021         1.34904
  H         0.90068         -0.02987        -0.53739
  H         0.94880          0.05101         1.89367
  H        -0.88027          0.02361         1.94238
  C        -1.28922          0.00150        -0.76728
  H        -1.08254         -0.00400        -1.83378
  H        -1.88094         -0.88093        -0.52667
  H        -1.89565          0.87617        -0.53522
9
 step=         140     theta[rad]=           1.4661
  C        -0.02069         -0.02602         0.02976
  C         0.02012          0.04671         1.34904
  H         0.90068          0.13664        -0.53739
  H         0.94880         -0.23332         1.89367
  H        -0.88027         -0.10798         1.94238
  C        -1.28922         -0.00688        -0.76728
  H        -1.08254          0.01829        -1.83378
  H        -1.92193         -0.86767        -0.55051
  H        -1.85466          0.88944        -0.51138
9
 step=         141     theta[rad]=           1.4765
  C        -0.02069         -0.01086         0.02976
  C         0.02012          0.01950         1.34904
  H         0.90068          0.05706        -0.53739
  H         0.94880         -0.09743         1.89367
  H        -0.88027         -0.04509         1.94238
  C        -1.28922         -0.00287        -0.76728
  H        -1.08254          0.00764        -1.83378
  H        -1.90234         -0.87401        -0.53911
  H        -1.87425          0.88310        -0.52277
9
 step=         142     theta[rad]=           1.4870
  C        -0.02069          0.02411         0.02976
  C         0.02012         -0.04328         1.34904
  H         0.90068         -0.12662        -0.53739
  H         0.94880          0.21621         1.89367
  H        -0.88027          0.10006         1.94238
  C        -1.28922          0.00637        -0.76728
  H        -1.08254         -0.01695        -1.83378
  H        -1.85713         -0.88864        -0.51281
  H        -1.91946          0.86847        -0.54907
9
 step=         143     theta[rad]=           1.4975
  C        -0.02069          0.01466         0.02976
  C         0.02012         -0.02632         1.34904
  H         0.90068         -0.07698        -0.53739
  H         0.94880          0.13145         1.89367
  H        -0.88027          0.06084         1.94238
  C        -1.28922          0.00387        -0.76728
  H        -1.08254         -0.01030        -1.83378
  H        -1.86934         -0.88469        -0.51992
  H        -1.90724          0.87242        -0.54197
9
 step=         144     theta[rad]=           1.5080
  C        -0.02069         -0.02213         0.02976
  C         0.02012          0.03973         1.34904
  H         0.90068          0.11623        -0.53739
  H         0.94880         -0.19848         1.89367
  H        -0.88027         -0.09186         1.94238
  C        -1.28922         -0.00585        -0.76728
  H        -1.08254          0.01556        -1.83378
  H        -1.91690         -0.86929        -0.54759
  H        -1.85968          0.88781        -0.51430
9
 step=         145     theta[rad]=           1.5184
  C        -0.02069         -0.01722         0.02976
  C         0.02012          0.03091         1.34904
  H         0.90068          0.09042        -0.53739
  H         0.94880         -0.15439         1.89367
  H        -0.88027         -0.07145         1.94238
  C        -1.28922         -0.00455        -0.76728
  H        -1.08254          0.01210        -1.83378
  H        -1.91055         -0.87135        -0.54389
  H        -1.86604          0.88576        -0.51800
9
 step=         146     theta[rad]=           1.5289
  C        -0.02069          0.02052         0.02976
  C         0.02012         -0.03684         1.34904
  H         0.90068         -0.10777        -0.53739
  H         0.94880          0.18402         1.89367
  H        -0.88027          0.08517         1.94238
  C        -1.28922          0.00542        -0.76728
  H        -1.08254         -0.01442        -1.83378
  H        -1.86177         -0.88714        -0.51551
  H        -1.91482          0.86997        -0.54637
9
 step=         147     theta[rad]=           1.5394
  C        -0.02069          0.01873         0.02976
  C         0.02012         -0.03362         1.34904
  H         0.90068         -0.09835        -0.53739
  H         0.94880          0.16794         1.89367
  H        -0.88027          0.07772         1.94238
  C        -1.28922          0.00495        -0.76728
  H        -1.08254         -0.01316        -1.83378
  H        -1.86408         -0.88639        -0.51686
  H        -1.91250          0.87072        -0.54502
9
 step=         148     theta[rad]=           1.5499
  C        -0.02069         -0.01955         0.02976
  C         0.02012          0.03509         1.34904
  H         0.90068          0.10265        -0.53739
  H         0.94880         -0.17528         1.89367
  H        -0.88027         -0.08112         1.94238
  C        -1.28922         -0.00517        -0.76728
  H        -1.08254          0.01374        -1.83378
  H        -1.91356         -0.87038        -0.54564
  H        -1.86303          0.88673        -0.51624
9
 step=         149     theta[rad]=           1.5603
  C        -0.02069         -0.01934         0.02976
  C         0.02012          0.03473         1.34904
  H         0.90068          0.10159        -0.53739
  H         0.94880         -0.17347         1.89367
  H        -0.88027         -0.08028         1.94238
  C        -1.28922         -0.00511        -0.76728
  H        -1.08254          0.01360        -1.83378
  H        -1.91330         -0.87046        -0.54549
  H        -1.86329          0.88665        -0.51640
9
 step=         150     theta[rad]=           1.5708
  C        -0.02069          0.01934         0.02976
  C         0.02012         -0.03473         1.34904
  H         0.90068         -0.10159        -0.53739
  H         0.94880          0.17347         1.89367
  H        -0.88027          0.08028         1.94238
  C        -1.28922          0.00511        -0.76728
  H        -1.08254         -0.01360        -1.83378
  H        -1.86329         -0.88665        -0.51640
  H        -1.91330          0.87046        -0.54549
9
 step=         151     theta[rad]=           1.5813
  C        -0.02069          0.01914         0.02976
  C         0.02012         -0.03436         1.34904
  H         0.90068         -0.10052        -0.53739
  H         0.94880          0.17165         1.89367
  H        -0.88027          0.07944         1.94238
  C        -1.28922          0.00506        -0.76728
  H        -1.08254         -0.01345        -1.83378
  H        -1.86355         -0.88656        -0.51655
  H        -1.91304          0.87054        -0.54534
9
 step=         152     theta[rad]=           1.5917
  C        -0.02069         -0.01994         0.02976
  C         0.02012          0.03580         1.34904
  H         0.90068          0.10473        -0.53739
  H         0.94880         -0.17884         1.89367
  H        -0.88027         -0.08277         1.94238
  C        -1.28922         -0.00527        -0.76728
  H        -1.08254          0.01402        -1.83378
  H        -1.91407         -0.87021        -0.54594
  H        -1.86251          0.88690        -0.51595
9
 step=         153     theta[rad]=           1.6022
  C        -0.02069         -0.01809         0.02976
  C         0.02012          0.03248         1.34904
  H         0.90068          0.09501        -0.53739
  H         0.94880         -0.16224         1.89367
  H        -0.88027         -0.07509         1.94238
  C        -1.28922         -0.00478        -0.76728
  H        -1.08254          0.01272        -1.83378
  H        -1.91168         -0.87098        -0.54455
  H        -1.86491          0.88612        -0.51734
9
 step=         154     theta[rad]=           1.6127
  C        -0.02069          0.02126         0.02976
  C         0.02012         -0.03817         1.34904
  H         0.90068         -0.11166        -0.53739
  H         0.94880          0.19066         1.89367
  H        -0.88027          0.08824         1.94238
  C        -1.28922          0.00562        -0.76728
  H        -1.08254         -0.01494        -1.83378
  H        -1.86081         -0.88745        -0.51496
  H        -1.91578          0.86966        -0.54693
9
 step=         155     theta[rad]=           1.6232
  C        -0.02069          0.01608         0.02976
  C         0.02012         -0.02887         1.34904
  H         0.90068         -0.08445        -0.53739
  H         0.94880          0.14420         1.89367
  H        -0.88027          0.06674         1.94238
  C        -1.28922          0.00425        -0.76728
  H        -1.08254         -0.01130        -1.83378
  H        -1.86751         -0.88528        -0.51885
  H        -1.90908          0.87183        -0.54303
9
 step=         156     theta[rad]=           1.6336
  C        -0.02069         -0.02310         0.02976
  C         0.02012          0.04147         1.34904
  H         0.90068          0.12131        -0.53739
  H         0.94880         -0.20714         1.89367
  H        -0.88027         -0.09586         1.94238
  C        -1.28922         -0.00611        -0.76728
  H        -1.08254          0.01624        -1.83378
  H        -1.91815         -0.86889        -0.54831
  H        -1.85843          0.88822        -0.51357
9
 step=         157     theta[rad]=           1.6441
  C        -0.02069         -0.01293         0.02976
  C         0.02012          0.02321         1.34904
  H         0.90068          0.06789        -0.53739
  H         0.94880         -0.11593         1.89367
  H        -0.88027         -0.05365         1.94238
  C        -1.28922         -0.00342        -0.76728
  H        -1.08254          0.00909        -1.83378
  H        -1.90500         -0.87314        -0.54066
  H        -1.87158          0.88396        -0.52122
9
 step=         158     theta[rad]=           1.6546
  C        -0.02069          0.02511         0.02976
  C         0.02012         -0.04507         1.34904
  H         0.90068         -0.13186        -0.53739
  H         0.94880          0.22515         1.89367
  H        -0.88027          0.10420         1.94238
  C        -1.28922          0.00664        -0.76728
  H        -1.08254         -0.01765        -1.83378
  H        -1.85584         -0.88906        -0.51206
  H        -1.92075          0.86805        -0.54982
9
 step=         159     theta[rad]=           1.6650
  C        -0.02069          0.00845         0.02976
  C         0.02012         -0.01518         1.34904
  H         0.90068         -0.04440        -0.53739
  H         0.94880          0.07581         1.89367
  H        -0.88027          0.03509         1.94238
  C        -1.28922          0.00223        -0.76728
  H        -1.08254         -0.00594        -1.83378
  H        -1.87737         -0.88209        -0.52459
  H        -1.89922          0.87502        -0.53730
9
 step=         160     theta[rad]=           1.6755
  C        -0.02069         -0.02676         0.02976
  C         0.02012          0.04804         1.34904
  H         0.90068          0.14053        -0.53739
  H         0.94880         -0.23997         1.89367
  H        -0.88027         -0.11106         1.94238
  C        -1.28922         -0.00707        -0.76728
  H        -1.08254          0.01881        -1.83378
  H        -1.92289         -0.86736        -0.55106
  H        -1.85370          0.88975        -0.51082
9
 step=         161     theta[rad]=           1.6860
  C        -0.02069         -0.00257         0.02976
  C         0.02012          0.00462         1.34904
  H         0.90068          0.01352        -0.53739
  H         0.94880         -0.02309         1.89367
  H        -0.88027         -0.01069         1.94238
  C        -1.28922         -0.00068        -0.76728
  H        -1.08254          0.00181        -1.83378
  H        -1.89162         -0.87748        -0.53288
  H        -1.88497          0.87963        -0.52901
9
 step=         162     theta[rad]=           1.6965
  C        -0.02069          0.02734         0.02976
  C         0.02012         -0.04909         1.34904
  H         0.90068         -0.14360        -0.53739
  H         0.94880          0.24521         1.89367
  H        -0.88027          0.11348         1.94238
  C        -1.28922          0.00723        -0.76728
  H        -1.08254         -0.01922        -1.83378
  H        -1.85295         -0.88999        -0.51038
  H        -1.92364          0.86711        -0.55150
9
 step=         163     theta[rad]=           1.7069
  C        -0.02069         -0.00456         0.02976
  C         0.02012          0.00819         1.34904
  H         0.90068          0.02396        -0.53739
  H         0.94880         -0.04091         1.89367
  H        -0.88027         -0.01893         1.94238
  C        -1.28922         -0.00121        -0.76728
  H        -1.08254          0.00321        -1.83378
  H        -1.89419         -0.87664        -0.53437
  H        -1.88240          0.88046        -0.52751
9
 step=         164     theta[rad]=           1.7174
  C        -0.02069         -0.02602         0.02976
  C         0.02012          0.04671         1.34904
  H         0.90068          0.13664        -0.53739
  H         0.94880         -0.23332         1.89367
  H        -0.88027         -0.10798         1.94238
  C        -1.28922         -0.00688        -0.76728
  H        -1.08254          0.01829        -1.83378
  H        -1.92193         -0.86767        -0.55051
  H        -1.85466          0.88944        -0.51138
9
 step=         165     theta[rad]=           1.7279
  C        -0.02069          0.01242         0.02976
  C         0.02012         -0.02230         1.34904
  H         0.90068         -0.06523        -0.53739
  H         0.94880          0.11138         1.89367
  H        -0.88027          0.05155         1.94238
  C        -1.28922          0.00328        -0.76728
  H        -1.08254         -0.00873        -1.83378
  H        -1.87224         -0.88375        -0.52160
  H        -1.90435          0.87336        -0.54028
9
 step=         166     theta[rad]=           1.7383
  C        -0.02069          0.02196         0.02976
  C         0.02012         -0.03943         1.34904
  H         0.90068         -0.11534        -0.53739
  H         0.94880          0.19695         1.89367
  H        -0.88027          0.09115         1.94238
  C        -1.28922          0.00581        -0.76728
  H        -1.08254         -0.01544        -1.83378
  H        -1.85990         -0.88774        -0.51443
  H        -1.91668          0.86936        -0.54746
9
 step=         167     theta[rad]=           1.7488
  C        -0.02069         -0.01994         0.02976
  C         0.02012          0.03580         1.34904
  H         0.90068          0.10473        -0.53739
  H         0.94880         -0.17884         1.89367
  H        -0.88027         -0.08277         1.94238
  C        -1.28922         -0.00527        -0.76728
  H        -1.08254          0.01402        -1.83378
  H        -1.91407         -0.87021        -0.54594
  H        -1.86251          0.88690        -0.51595
9
 step=         168     theta[rad]=           1.7593
  C        -0.02069         -0.01466         0.02976
  C         0.02012          0.02632         1.34904
  H         0.90068          0.07698        -0.53739
  H         0.94880         -0.13145         1.89367
  H        -0.88027         -0.06084         1.94238
  C        -1.28922         -0.00387        -0.76728
  H        -1.08254          0.01030        -1.83378
  H        -1.90724         -0.87242        -0.54197
  H        -1.86934          0.88469        -0.51992
9
 step=         169     theta[rad]=           1.7698
  C        -0.02069          0.02554         0.02976
  C         0.02012         -0.04585         1.34904
  H         0.90068         -0.13413        -0.53739
  H         0.94880          0.22903         1.89367
  H        -0.88027          0.10600         1.94238
  C        -1.28922          0.00675        -0.76728
  H        -1.08254         -0.01795        -1.83378
  H        -1.85528         -0.88924        -0.51174
  H        -1.92131          0.86787        -0.55015
9
 step=         170     theta[rad]=           1.7802
  C        -0.02069          0.00428         0.02976
  C         0.02012         -0.00768         1.34904
  H         0.90068         -0.02248        -0.53739
  H         0.94880          0.03838         1.89367
  H        -0.88027          0.01776         1.94238
  C        -1.28922          0.00113        -0.76728
  H        -1.08254         -0.00301        -1.83378
  H        -1.88276         -0.88034        -0.52772
  H        -1.89383          0.87676        -0.53416
9
 step=         171     theta[rad]=           1.7907
  C        -0.02069         -0.02730         0.02976
  C         0.02012          0.04902         1.34904
  H         0.90068          0.14339        -0.53739
  H         0.94880         -0.24484         1.89367
  H        -0.88027         -0.11332         1.94238
  C        -1.28922         -0.00722        -0.76728
  H        -1.08254          0.01919        -1.83378
  H        -1.92359         -0.86713        -0.55147
  H        -1.85300          0.88998        -0.51041
9
 step=         172     theta[rad]=           1.8012
  C        -0.02069          0.00791         0.02976
  C         0.02012         -0.01420         1.34904
  H         0.90068         -0.04153        -0.53739
  H         0.94880          0.07091         1.89367
  H        -0.88027          0.03282         1.94238
  C        -1.28922          0.00209        -0.76728
  H        -1.08254         -0.00556        -1.83378
  H        -1.87807         -0.88186        -0.52500
  H        -1.89851          0.87525        -0.53689
9
 step=         173     theta[rad]=           1.8117
  C        -0.02069          0.02355         0.02976
  C         0.02012         -0.04227         1.34904
  H         0.90068         -0.12367        -0.53739
  H         0.94880          0.21116         1.89367
  H        -0.88027          0.09773         1.94238
  C        -1.28922          0.00622        -0.76728
  H        -1.08254         -0.01655        -1.83378
  H        -1.85785         -0.88841        -0.51324
  H        -1.91873          0.86870        -0.54865
9
 step=         174     theta[rad]=           1.8221
  C        -0.02069         -0.01934         0.02976
  C         0.02012          0.03473         1.34904
  H         0.90068          0.10159        -0.53739
  H         0.94880         -0.17347         1.89367
  H        -0.88027         -0.08028         1.94238
  C        -1.28922         -0.00511        -0.76728
  H        -1.08254          0.01360        -1.83378
  H        -1.91330         -0.87046        -0.54549
  H        -1.86329          0.88665        -0.51640
9
 step=         175     theta[rad]=           1.8326
  C        -0.02069         -0.01368         0.02976
  C         0.02012          0.02456         1.34904
  H         0.90068          0.07184        -0.53739
  H         0.94880         -0.12266         1.89367
  H        -0.88027         -0.05677         1.94238
  C        -1.28922         -0.00362        -0.76728
  H        -1.08254          0.00961        -1.83378
  H        -1.90598         -0.87283        -0.54123
  H        -1.87061          0.88428        -0.52066
9
 step=         176     theta[rad]=           1.8431
  C        -0.02069          0.02650         0.02976
  C         0.02012         -0.04757         1.34904
  H         0.90068         -0.13916        -0.53739
  H         0.94880          0.23762         1.89367
  H        -0.88027          0.10997         1.94238
  C        -1.28922          0.00700        -0.76728
  H        -1.08254         -0.01862        -1.83378
  H        -1.85404         -0.88964        -0.51102
  H        -1.92255          0.86747        -0.55087
9
 step=         177     theta[rad]=           1.8535
  C        -0.02069         -0.00086         0.02976
  C         0.02012          0.00154         1.34904
  H         0.90068          0.00451        -0.53739
  H         0.94880         -0.00771         1.89367
  H        -0.88027         -0.00357         1.94238
  C        -1.28922         -0.00023        -0.76728
  H        -1.08254          0.00060        -1.83378
  H        -1.88940         -0.87819        -0.53159
  H        -1.88718          0.87891        -0.53030
9
 step=         178     theta[rad]=           1.8640
  C        -0.02069         -0.02593         0.02976
  C         0.02012          0.04655         1.34904
  H         0.90068          0.13617        -0.53739
  H         0.94880         -0.23251         1.89367
  H        -0.88027         -0.10761         1.94238
  C        -1.28922         -0.00685        -0.76728
  H        -1.08254          0.01822        -1.83378
  H        -1.92181         -0.86770        -0.55044
  H        -1.85478          0.88940        -0.51145
9
 step=         179     theta[rad]=           1.8745
  C        -0.02069          0.01608         0.02976
  C         0.02012         -0.02887         1.34904
  H         0.90068         -0.08445        -0.53739
  H         0.94880          0.14420         1.89367
  H        -0.88027          0.06674         1.94238
  C        -1.28922          0.00425        -0.76728
  H        -1.08254         -0.01130        -1.83378
  H        -1.86751         -0.88528        -0.51885
  H        -1.90908          0.87183        -0.54303
9
 step=         180     theta[rad]=           1.8850
  C        -0.02069          0.01608         0.02976
  C         0.02012         -0.02887         1.34904
  H         0.90068         -0.08445        -0.53739
  H         0.94880          0.14420         1.89367
  H        -0.88027          0.06674         1.94238
  C        -1.28922          0.00425        -0.76728
  H        -1.08254         -0.01130        -1.83378
  H        -1.86751         -0.88528        -0.51885
  H        -1.90908          0.87183        -0.54303
9
 step=         181     theta[rad]=           1.8954
  C        -0.02069         -0.02610         0.02976
  C         0.02012          0.04687         1.34904
  H         0.90068          0.13710        -0.53739
  H         0.94880         -0.23410         1.89367
  H        -0.88027         -0.10834         1.94238
  C        -1.28922         -0.00690        -0.76728
  H        -1.08254          0.01835        -1.83378
  H        -1.92204         -0.86763        -0.55057
  H        -1.85455          0.88948        -0.51131
9
 step=         182     theta[rad]=           1.9059
  C        -0.02069          0.00086         0.02976
  C         0.02012         -0.00154         1.34904
  H         0.90068         -0.00451        -0.53739
  H         0.94880          0.00771         1.89367
  H        -0.88027          0.00357         1.94238
  C        -1.28922          0.00023        -0.76728
  H        -1.08254         -0.00060        -1.83378
  H        -1.88718         -0.87891        -0.53030
  H        -1.88940          0.87819        -0.53159
9
 step=         183     theta[rad]=           1.9164
  C        -0.02069          0.02544         0.02976
  C         0.02012         -0.04566         1.34904
  H         0.90068         -0.13358        -0.53739
  H         0.94880          0.22810         1.89367
  H        -0.88027          0.10557         1.94238
  C        -1.28922          0.00672        -0.76728
  H        -1.08254         -0.01788        -1.83378
  H        -1.85541         -0.88920        -0.51182
  H        -1.92117          0.86791        -0.55007
9
 step=         184     theta[rad]=           1.9268
  C        -0.02069         -0.01831         0.02976
  C         0.02012          0.03286         1.34904
  H         0.90068          0.09614        -0.53739
  H         0.94880         -0.16416         1.89367
  H        -0.88027         -0.07597         1.94238
  C        -1.28922         -0.00484        -0.76728
  H        -1.08254          0.01287        -1.83378
  H        -1.91196         -0.87089        -0.54471
  H        -1.86463          0.88621        -0.51718
9
 step=         185     theta[rad]=           1.9373
  C        -0.02069         -0.01242         0.02976
  C         0.02012          0.02230         1.34904
  H         0.90068          0.06523        -0.53739
  H         0.94880         -0.11138         1.89367
  H        -0.88027         -0.05155         1.94238
  C        -1.28922         -0.00328        -0.76728
  H        -1.08254          0.00873        -1.83378
  H        -1.90435         -0.87336        -0.54028
  H        -1.87224          0.88375        -0.52160
9
 step=         186     theta[rad]=           1.9478
  C        -0.02069          0.02724         0.02976
  C         0.02012         -0.04889         1.34904
  H         0.90068         -0.14304        -0.53739
  H         0.94880          0.24424         1.89367
  H        -0.88027          0.11304         1.94238
  C        -1.28922          0.00720        -0.76728
  H        -1.08254         -0.01914        -1.83378
  H        -1.85309         -0.88995        -0.51046
  H        -1.92350          0.86716        -0.55142
9
 step=         187     theta[rad]=           1.9583
  C        -0.02069         -0.00791         0.02976
  C         0.02012          0.01420         1.34904
  H         0.90068          0.04153        -0.53739
  H         0.94880         -0.07091         1.89367
  H        -0.88027         -0.03282         1.94238
  C        -1.28922         -0.00209        -0.76728
  H        -1.08254          0.00556        -1.83378
  H        -1.89851         -0.87525        -0.53689
  H        -1.87807          0.88186        -0.52500
9
 step=         188     theta[rad]=           1.9687
  C        -0.02069         -0.02108         0.02976
  C         0.02012          0.03784         1.34904
  H         0.90068          0.11070        -0.53739
  H         0.94880         -0.18903         1.89367
  H        -0.88027         -0.08748         1.94238
  C        -1.28922         -0.00557        -0.76728
  H        -1.08254          0.01482        -1.83378
  H        -1.91554         -0.86973        -0.54679
  H        -1.86104          0.88737        -0.51509
9
 step=         189     theta[rad]=           1.9792
  C        -0.02069          0.02437         0.02976
  C         0.02012         -0.04376         1.34904
  H         0.90068         -0.12801        -0.53739
  H         0.94880          0.21859         1.89367
  H        -0.88027          0.10116         1.94238
  C        -1.28922          0.00644        -0.76728
  H        -1.08254         -0.01713        -1.83378
  H        -1.85678         -0.88875        -0.51261
  H        -1.91980          0.86835        -0.54927
9
 step=         190     theta[rad]=           1.9897
  C        -0.02069          0.00143         0.02976
  C         0.02012         -0.00257         1.34904
  H         0.90068         -0.00752        -0.53739
  H         0.94880          0.01284         1.89367
  H        -0.88027          0.00594         1.94238
  C        -1.28922          0.00038        -0.76728
  H        -1.08254         -0.00101        -1.83378
  H        -1.88644         -0.87915        -0.52987
  H        -1.89014          0.87795        -0.53202
9
 step=         191     theta[rad]=           2.0001
  C        -0.02069         -0.02544         0.02976
  C         0.02012          0.04566         1.34904
  H         0.90068          0.13358        -0.53739
  H         0.94880         -0.22810         1.89367
  H        -0.88027         -0.10557         1.94238
  C        -1.28922         -0.00672        -0.76728
  H        -1.08254          0.01788        -1.83378
  H        -1.92117         -0.86791        -0.55007
  H        -1.85541          0.88920        -0.51182
9
 step=         192     theta[rad]=           2.0106
  C        -0.02069          0.01994         0.02976
  C         0.02012         -0.03580         1.34904
  H         0.90068         -0.10473        -0.53739
  H         0.94880          0.17884         1.89367
  H        -0.88027          0.08277         1.94238
  C        -1.28922          0.00527        -0.76728
  H        -1.08254         -0.01402        -1.83378
  H        -1.86251         -0.88690        -0.51595
  H        -1.91407          0.87021        -0.54594
9
 step=         193     theta[rad]=           2.0211
  C        -0.02069          0.00818         0.02976
  C         0.02012         -0.01469         1.34904
  H         0.90068         -0.04296        -0.53739
  H         0.94880          0.07336         1.89367
  H        -0.88027          0.03395         1.94238
  C        -1.28922          0.00216        -0.76728
  H        -1.08254         -0.00575        -1.83378
  H        -1.87772         -0.88198        -0.52479
  H        -1.89887          0.87513        -0.53709
9
 step=         194     theta[rad]=           2.0316
  C        -0.02069         -0.02702         0.02976
  C         0.02012          0.04851         1.34904
  H         0.90068          0.14190        -0.53739
  H         0.94880         -0.24231         1.89367
  H        -0.88027         -0.11214         1.94238
  C        -1.28922         -0.00714        -0.76728
  H        -1.08254          0.01899        -1.83378
  H        -1.92322         -0.86725        -0.55126
  H        -1.85336          0.88986        -0.51062
9
 step=         195     theta[rad]=           2.0420
  C        -0.02069          0.01608         0.02976
  C         0.02012         -0.02887         1.34904
  H         0.90068         -0.08445        -0.53739
  H         0.94880          0.14420         1.89367
  H        -0.88027          0.06674         1.94238
  C        -1.28922          0.00425        -0.76728
  H        -1.08254         -0.01130        -1.83378
  H        -1.86751         -0.88528        -0.51885
  H        -1.90908          0.87183        -0.54303
9
 step=         196     theta[rad]=           2.0525
  C        -0.02069          0.01216         0.02976
  C         0.02012         -0.02184         1.34904
  H         0.90068         -0.06388        -0.53739
  H         0.94880          0.10908         1.89367
  H        -0.88027          0.05048         1.94238
  C        -1.28922          0.00322        -0.76728
  H        -1.08254         -0.00855        -1.83378
  H        -1.87257         -0.88364        -0.52180
  H        -1.90402          0.87346        -0.54009
9
 step=         197     theta[rad]=           2.0630
  C        -0.02069         -0.02734         0.02976
  C         0.02012          0.04909         1.34904
  H         0.90068          0.14360        -0.53739
  H         0.94880         -0.24521         1.89367
  H        -0.88027         -0.11348         1.94238
  C        -1.28922         -0.00723        -0.76728
  H        -1.08254          0.01922        -1.83378
  H        -1.92364         -0.86711        -0.55150
  H        -1.85295          0.88999        -0.51038
9
 step=         198     theta[rad]=           2.0735
  C        -0.02069          0.01393         0.02976
  C         0.02012         -0.02500         1.34904
  H         0.90068         -0.07314        -0.53739
  H         0.94880          0.12488         1.89367
  H        -0.88027          0.05780         1.94238
  C        -1.28922          0.00368        -0.76728
  H        -1.08254         -0.00979        -1.83378
  H        -1.87029         -0.88438        -0.52047
  H        -1.90630          0.87273        -0.54141
9
 step=         199     theta[rad]=           2.0839
  C        -0.02069          0.01368         0.02976
  C         0.02012         -0.02456         1.34904
  H         0.90068         -0.07184        -0.53739
  H         0.94880          0.12266         1.89367
  H        -0.88027          0.05677         1.94238
  C        -1.28922          0.00362        -0.76728
  H        -1.08254         -0.00961        -1.83378
  H        -1.87061         -0.88428        -0.52066
  H        -1.90598          0.87283        -0.54123
9
 step=         200     theta[rad]=           2.0944
  C        -0.02069         -0.02736         0.02976
  C         0.02012          0.04911         1.34904
  H         0.90068          0.14367        -0.53739
  H         0.94880         -0.24533         1.89367
  H        -0.88027         -0.11354         1.94238
  C        -1.28922         -0.00723        -0.76728
  H        -1.08254          0.01923        -1.83378
  H        -1.92366         -0.86711        -0.55151
  H        -1.85293          0.89000        -0.51037
9
 step=         201     theta[rad]=           2.1049
  C        -0.02069          0.01393         0.02976
  C         0.02012         -0.02500         1.34904
  H         0.90068         -0.07314        -0.53739
  H         0.94880          0.12488         1.89367
  H        -0.88027          0.05780         1.94238
  C        -1.28922          0.00368        -0.76728
  H        -1.08254         -0.00979        -1.83378
  H        -1.87029         -0.88438        -0.52047
  H        -1.90630          0.87273        -0.54141
9
 step=         202     theta[rad]=           2.1153
  C        -0.02069          0.01293         0.02976
  C         0.02012         -0.02321         1.34904
  H         0.90068         -0.06789        -0.53739
  H         0.94880          0.11593         1.89367
  H        -0.88027          0.05365         1.94238
  C        -1.28922          0.00342        -0.76728
  H        -1.08254         -0.00909        -1.83378
  H        -1.87158         -0.88396        -0.52122
  H        -1.90500          0.87314        -0.54066
9
 step=         203     theta[rad]=           2.1258
  C        -0.02069         -0.02730         0.02976
  C         0.02012          0.04902         1.34904
  H         0.90068          0.14339        -0.53739
  H         0.94880         -0.24484         1.89367
  H        -0.88027         -0.11332         1.94238
  C        -1.28922         -0.00722        -0.76728
  H        -1.08254          0.01919        -1.83378
  H        -1.92359         -0.86713        -0.55147
  H        -1.85300          0.88998        -0.51041
9
 step=         204     theta[rad]=           2.1363
  C        -0.02069          0.01608         0.02976
  C         0.02012         -0.02887         1.34904
  H         0.90068         -0.08445        -0.53739
  H         0.94880          0.14420         1.89367
  H        -0.88027          0.06674         1.94238
  C        -1.28922          0.00425        -0.76728
  H        -1.08254         -0.01130        -1.83378
  H        -1.86751         -0.88528        -0.51885
  H        -1.90908          0.87183        -0.54303
9
 step=         205     theta[rad]=           2.1468
  C        -0.02069          0.00980         0.02976
  C         0.02012         -0.01760         1.34904
  H         0.90068         -0.05149        -0.53739
  H         0.94880          0.08792         1.89367
  H        -0.88027          0.04069         1.94238
  C        -1.28922          0.00259        -0.76728
  H        -1.08254         -0.00689        -1.83378
  H        -1.87562         -0.88266        -0.52357
  H        -1.90097          0.87445        -0.53831
9
 step=         206     theta[rad]=           2.1572
  C        -0.02069         -0.02670         0.02976
  C         0.02012          0.04793         1.34904
  H         0.90068          0.14021        -0.53739
  H         0.94880         -0.23942         1.89367
  H        -0.88027         -0.11081         1.94238
  C        -1.28922         -0.00706        -0.76728
  H        -1.08254          0.01877        -1.83378
  H        -1.92281         -0.86738        -0.55102
  H        -1.85378          0.88972        -0.51087
9
 step=         207     theta[rad]=           2.1677
  C        -0.02069          0.01994         0.02976
  C         0.02012         -0.03580         1.34904
  H         0.90068         -0.10473        -0.53739
  H         0.94880          0.17884         1.89367
  H        -0.88027          0.08277         1.94238
  C        -1.28922          0.00527        -0.76728
  H        -1.08254         -0.01402        -1.83378
  H        -1.86251         -0.88690        -0.51595
  H        -1.91407          0.87021        -0.54594
9
 step=         208     theta[rad]=           2.1782
  C        -0.02069          0.00400         0.02976
  C         0.02012         -0.00717         1.34904
  H         0.90068         -0.02099        -0.53739
  H         0.94880          0.03584         1.89367
  H        -0.88027          0.01659         1.94238
  C        -1.28922          0.00106        -0.76728
  H        -1.08254         -0.00281        -1.83378
  H        -1.88313         -0.88023        -0.52794
  H        -1.89346          0.87688        -0.53395
9
 step=         209     theta[rad]=           2.1886
  C        -0.02069         -0.02437         0.02976
  C         0.02012          0.04376         1.34904
  H         0.90068          0.12801        -0.53739
  H         0.94880         -0.21859         1.89367
  H        -0.88027         -0.10116         1.94238
  C        -1.28922         -0.00644        -0.76728
  H        -1.08254          0.01713        -1.83378
  H        -1.91980         -0.86835        -0.54927
  H        -1.85678          0.88875        -0.51261
9
 step=         210     theta[rad]=           2.1991
  C        -0.02069          0.02437         0.02976
  C         0.02012         -0.04376         1.34904
  H         0.90068         -0.12801        -0.53739
  H         0.94880          0.21859         1.89367
  H        -0.88027          0.10116         1.94238
  C        -1.28922          0.00644        -0.76728
  H        -1.08254         -0.01713        -1.83378
  H        -1.85678         -0.88875        -0.51261
  H        -1.91980          0.86835        -0.54927
9
 step=         211     theta[rad]=           2.2096
  C        -0.02069         -0.00456         0.02976
  C         0.02012          0.00819         1.34904
  H         0.90068          0.02396        -0.53739
  H         0.94880         -0.04091         1.89367
  H        -0.88027         -0.01893         1.94238
  C        -1.28922         -0.00121        -0.76728
  H        -1.08254          0.00321        -1.83378
  H        -1.89419         -0.87664        -0.53437
  H        -1.88240          0.88046        -0.52751
9
 step=         212     theta[rad]=           2.2201
  C        -0.02069         -0.01873         0.02976
  C         0.02012          0.03362         1.34904
  H         0.90068          0.09835        -0.53739
  H         0.94880         -0.16794         1.89367
  H        -0.88027         -0.07772         1.94238
  C        -1.28922         -0.00495        -0.76728
  H        -1.08254          0.01316        -1.83378
  H        -1.91250         -0.87072        -0.54502
  H        -1.86408          0.88639        -0.51686
9
 step=         213     theta[rad]=           2.2305
  C        -0.02069          0.02724         0.02976
  C         0.02012         -0.04889         1.34904
  H         0.90068         -0.14304        -0.53739
  H         0.94880          0.24424         1.89367
  H        -0.88027          0.11304         1.94238
  C        -1.28922          0.00720        -0.76728
  H        -1.08254         -0.01914        -1.83378
  H        -1.85309         -0.88995        -0.51046
  H        -1.92350          0.86716        -0.55142
9
 step=         214     theta[rad]=           2.2410
  C        -0.02069         -0.01490         0.02976
  C         0.02012          0.02675         1.34904
  H         0.90068          0.07825        -0.53739
  H         0.94880         -0.13362         1.89367
  H        -0.88027         -0.06184         1.94238
  C        -1.28922         -0.00394        -0.76728
  H        -1.08254          0.01047        -1.83378
  H        -1.90755         -0.87232        -0.54215
  H        -1.86903          0.88479        -0.51974
9
 step=         215     theta[rad]=           2.2515
  C        -0.02069         -0.00845         0.02976
  C         0.02012          0.01518         1.34904
  H         0.90068          0.04440        -0.53739
  H         0.94880         -0.07581         1.89367
  H        -0.88027         -0.03509         1.94238
  C        -1.28922         -0.00223        -0.76728
  H        -1.08254          0.00594        -1.83378
  H        -1.89922         -0.87502        -0.53730
  H        -1.87737          0.88209        -0.52459
9
 step=         216     theta[rad]=           2.2619
  C        -0.02069          0.02544         0.02976
  C         0.02012         -0.04566         1.34904
  H         0.90068         -0.13358        -0.53739
  H         0.94880          0.22810         1.89367
  H        -0.88027          0.10557         1.94238
  C        -1.28922          0.00672        -0.76728
  H        -1.08254         -0.01788        -1.83378
  H        -1.85541         -0.88920        -0.51182
  H        -1.92117          0.86791        -0.55007
9
 step=         217     theta[rad]=           2.2724
  C        -0.02069         -0.02411         0.02976
  C         0.02012          0.04328         1.34904
  H         0.90068          0.12662        -0.53739
  H         0.94880         -0.21621         1.89367
  H        -0.88027         -0.10006         1.94238
  C        -1.28922         -0.00637        -0.76728
  H        -1.08254          0.01695        -1.83378
  H        -1.91946         -0.86847        -0.54907
  H        -1.85713          0.88864        -0.51281
9
 step=         218     theta[rad]=           2.2829
  C        -0.02069          0.00597         0.02976
  C         0.02012         -0.01071         1.34904
  H         0.90068         -0.03134        -0.53739
  H         0.94880          0.05352         1.89367
  H        -0.88027          0.02477         1.94238
  C        -1.28922          0.00158        -0.76728
  H        -1.08254         -0.00419        -1.83378
  H        -1.88058         -0.88105        -0.52646
  H        -1.89601          0.87606        -0.53543
9
 step=         219     theta[rad]=           2.2934
  C        -0.02069          0.01608         0.02976
  C         0.02012         -0.02887         1.34904
  H         0.90068         -0.08445        -0.53739
  H         0.94880          0.14420         1.89367
  H        -0.88027          0.06674         1.94238
  C        -1.28922          0.00425        -0.76728
  H        -1.08254         -0.01130        -1.83378
  H        -1.86751         -0.88528        -0.51885
  H        -1.90908          0.87183        -0.54303
9
 step=         220     theta[rad]=           2.3038
  C        -0.02069         -0.02721         0.02976
  C         0.02012          0.04884         1.34904
  H         0.90068          0.14289        -0.53739
  H         0.94880         -0.24398         1.89367
  H        -0.88027         -0.11292         1.94238
  C        -1.28922         -0.00719        -0.76728
  H        -1.08254          0.01912        -1.83378
  H        -1.92346         -0.86717        -0.55140
  H        -1.85312          0.88994        -0.51048
9
 step=         221     theta[rad]=           2.3143
  C        -0.02069          0.02052         0.02976
  C         0.02012         -0.03684         1.34904
  H         0.90068         -0.10777        -0.53739
  H         0.94880          0.18402         1.89367
  H        -0.88027          0.08517         1.94238
  C        -1.28922          0.00542        -0.76728
  H        -1.08254         -0.01442        -1.83378
  H        -1.86177         -0.88714        -0.51551
  H        -1.91482          0.86997        -0.54637
9
 step=         222     theta[rad]=           2.3248
  C        -0.02069         -0.00086         0.02976
  C         0.02012          0.00154         1.34904
  H         0.90068          0.00451        -0.53739
  H         0.94880         -0.00771         1.89367
  H        -0.88027         -0.00357         1.94238
  C        -1.28922         -0.00023        -0.76728
  H        -1.08254          0.00060        -1.83378
  H        -1.88940         -0.87819        -0.53159
  H        -1.88718          0.87891        -0.53030
9
 step=         223     theta[rad]=           2.3353
  C        -0.02069         -0.01914         0.02976
  C         0.02012          0.03436         1.34904
  H         0.90068          0.10052        -0.53739
  H         0.94880         -0.17165         1.89367
  H        -0.88027         -0.07944         1.94238
  C        -1.28922         -0.00506        -0.76728
  H        -1.08254          0.01345        -1.83378
  H        -1.91304         -0.87054        -0.54534
  H        -1.86355          0.88656        -0.51655
9
 step=         224     theta[rad]=           2.3457
  C        -0.02069          0.02736         0.02976
  C         0.02012         -0.04911         1.34904
  H         0.90068         -0.14367        -0.53739
  H         0.94880          0.24533         1.89367
  H        -0.88027          0.11354         1.94238
  C        -1.28922          0.00723        -0.76728
  H        -1.08254         -0.01923        -1.83378
  H        -1.85293         -0.89000        -0.51037
  H        -1.92366          0.86711        -0.55151
9
 step=         225     theta[rad]=           2.3562
  C        -0.02069         -0.01934         0.02976
  C         0.02012          0.03473         1.34904
  H         0.90068          0.10159        -0.53739
  H         0.94880         -0.17347         1.89367
  H        -0.88027         -0.08028         1.94238
  C        -1.28922         -0.00511        -0.76728
  H        -1.08254          0.01360        -1.83378
  H        -1.91330         -0.87046        -0.54549
  H        -1.86329          0.88665        -0.51640
9
 step=         226     theta[rad]=           2.3667
  C        -0.02069          0.00029         0.02976
  C         0.02012         -0.00051         1.34904
  H         0.90068         -0.00150        -0.53739
  H         0.94880          0.00257         1.89367
  H        -0.88027          0.00119         1.94238
  C        -1.28922          0.00008        -0.76728
  H        -1.08254         -0.00020        -1.83378
  H        -1.88792         -0.87867        -0.53073
  H        -1.88866          0.87843        -0.53116
9
 step=         227     theta[rad]=           2.3771
  C        -0.02069          0.01873         0.02976
  C         0.02012         -0.03362         1.34904
  H         0.90068         -0.09835        -0.53739
  H         0.94880          0.16794         1.89367
  H        -0.88027          0.07772         1.94238
  C        -1.28922          0.00495        -0.76728
  H        -1.08254         -0.01316        -1.83378
  H        -1.86408         -0.88639        -0.51686
  H        -1.91250          0.87072        -0.54502
9
 step=         228     theta[rad]=           2.3876
  C        -0.02069         -0.02730         0.02976
  C         0.02012          0.04902         1.34904
  H         0.90068          0.14339        -0.53739
  H         0.94880         -0.24484         1.89367
  H        -0.88027         -0.11332         1.94238
  C        -1.28922         -0.00722        -0.76728
  H        -1.08254          0.01919        -1.83378
  H        -1.92359         -0.86713        -0.55147
  H        -1.85300          0.88998        -0.51041
9
 step=         229     theta[rad]=           2.3981
  C        -0.02069          0.02126         0.02976
  C         0.02012         -0.03817         1.34904
  H         0.90068         -0.11166        -0.53739
  H         0.94880          0.19066         1.89367
  H        -0.88027          0.08824         1.94238
  C        -1.28922          0.00562        -0.76728
  H        -1.08254         -0.01494        -1.83378
  H        -1.86081         -0.88745        -0.51496
  H        -1.91578          0.86966        -0.54693
9
 step=         230     theta[rad]=           2.4086
  C        -0.02069         -0.00428         0.02976
  C         0.02012          0.00768         1.34904
  H         0.90068          0.02248        -0.53739
  H         0.94880         -0.03838         1.89367
  H        -0.88027         -0.01776         1.94238
  C        -1.28922         -0.00113        -0.76728
  H        -1.08254          0.00301        -1.83378
  H        -1.89383         -0.87676        -0.53416
  H        -1.88276          0.88034        -0.52772
9
 step=         231     theta[rad]=           2.4190
  C        -0.02069         -0.01466         0.02976
  C         0.02012          0.02632         1.34904
  H         0.90068          0.07698        -0.53739
  H         0.94880         -0.13145         1.89367
  H        -0.88027         -0.06084         1.94238
  C        -1.28922         -0.00387        -0.76728
  H        -1.08254          0.01030        -1.83378
  H        -1.90724         -0.87242        -0.54197
  H        -1.86934          0.88469        -0.51992
9
 step=         232     theta[rad]=           2.4295
  C        -0.02069          0.02619         0.02976
  C         0.02012         -0.04702         1.34904
  H         0.90068         -0.13754        -0.53739
  H         0.94880          0.23486         1.89367
  H        -0.88027          0.10869         1.94238
  C        -1.28922          0.00692        -0.76728
  H        -1.08254         -0.01841        -1.83378
  H        -1.85444         -0.88951        -0.51125
  H        -1.92215          0.86760        -0.55064
9
 step=         233     theta[rad]=           2.4400
  C        -0.02069         -0.02511         0.02976
  C         0.02012          0.04507         1.34904
  H         0.90068          0.13186        -0.53739
  H         0.94880         -0.22515         1.89367
  H        -0.88027         -0.10420         1.94238
  C        -1.28922         -0.00664        -0.76728
  H        -1.08254          0.01765        -1.83378
  H        -1.92075         -0.86805        -0.54982
  H        -1.85584          0.88906        -0.51206
9
 step=         234     theta[rad]=           2.4504
  C        -0.02069          0.01242         0.02976
  C         0.02012         -0.02230         1.34904
  H         0.90068         -0.06523        -0.53739
  H         0.94880          0.11138         1.89367
  H        -0.88027          0.05155         1.94238
  C        -1.28922          0.00328        -0.76728
  H        -1.08254         -0.00873        -1.83378
  H        -1.87224         -0.88375        -0.52160
  H        -1.90435          0.87336        -0.54028
9
 step=         235     theta[rad]=           2.4609
  C        -0.02069          0.00569         0.02976
  C         0.02012         -0.01021         1.34904
  H         0.90068         -0.02987        -0.53739
  H         0.94880          0.05101         1.89367
  H        -0.88027          0.02361         1.94238
  C        -1.28922          0.00150        -0.76728
  H        -1.08254         -0.00400        -1.83378
  H        -1.88094         -0.88093        -0.52667
  H        -1.89565          0.87617        -0.53522
9
 step=         236     theta[rad]=           2.4714
  C        -0.02069         -0.02108         0.02976
  C         0.02012          0.03784         1.34904
  H         0.90068          0.11070        -0.53739
  H         0.94880         -0.18903         1.89367
  H        -0.88027         -0.08748         1.94238
  C        -1.28922         -0.00557        -0.76728
  H        -1.08254          0.01482        -1.83378
  H        -1.91554         -0.86973        -0.54679
  H        -1.86104          0.88737        -0.51509
9
 step=         237     theta[rad]=           2.4819
  C        -0.02069          0.02734         0.02976
  C         0.02012         -0.04909         1.34904
  H         0.90068         -0.14360        -0.53739
  H         0.94880          0.24521         1.89367
  H        -0.88027          0.11348         1.94238
  C        -1.28922          0.00723        -0.76728
  H        -1.08254         -0.01922        -1.83378
  H        -1.85295         -0.88999        -0.51038
  H        -1.92364          0.86711        -0.55150
9
 step=         238     theta[rad]=           2.4923
  C        -0.02069         -0.02230         0.02976
  C         0.02012          0.04003         1.34904
  H         0.90068          0.11711        -0.53739
  H         0.94880         -0.19997         1.89367
  H        -0.88027         -0.09255         1.94238
  C        -1.28922         -0.00589        -0.76728
  H        -1.08254          0.01567        -1.83378
  H        -1.91712         -0.86922        -0.54771
  H        -1.85947          0.88788        -0.51417
9
 step=         239     theta[rad]=           2.5028
  C        -0.02069          0.00845         0.02976
  C         0.02012         -0.01518         1.34904
  H         0.90068         -0.04440        -0.53739
  H         0.94880          0.07581         1.89367
  H        -0.88027          0.03509         1.94238
  C        -1.28922          0.00223        -0.76728
  H        -1.08254         -0.00594        -1.83378
  H        -1.87737         -0.88209        -0.52459
  H        -1.89922          0.87502        -0.53730
9
 step=         240     theta[rad]=           2.5133
  C        -0.02069          0.00845         0.02976
  C         0.02012         -0.01518         1.34904
  H         0.90068         -0.04440        -0.53739
  H         0.94880          0.07581         1.89367
  H        -0.88027          0.03509         1.94238
  C        -1.28922          0.00223        -0.76728
  H        -1.08254         -0.00594        -1.83378
  H        -1.87737         -0.88209        -0.52459
  H        -1.89922          0.87502        -0.53730
9
 step=         241     theta[rad]=           2.5237
  C        -0.02069         -0.02196         0.02976
  C         0.02012          0.03943         1.34904
  H         0.90068          0.11534        -0.53739
  H         0.94880         -0.19695         1.89367
  H        -0.88027         -0.09115         1.94238
  C        -1.28922         -0.00581        -0.76728
  H        -1.08254          0.01544        -1.83378
  H        -1.91668         -0.86936        -0.54746
  H        -1.85990          0.88774        -0.51443
9
 step=         242     theta[rad]=           2.5342
  C        -0.02069          0.02734         0.02976
  C         0.02012         -0.04909         1.34904
  H         0.90068         -0.14360        -0.53739
  H         0.94880          0.24521         1.89367
  H        -0.88027          0.11348         1.94238
  C        -1.28922          0.00723        -0.76728
  H        -1.08254         -0.01922        -1.83378
  H        -1.85295         -0.88999        -0.51038
  H        -1.92364          0.86711        -0.55150
9
 step=         243     theta[rad]=           2.5447
  C        -0.02069         -0.02310         0.02976
  C         0.02012          0.04147         1.34904
  H         0.90068          0.12131        -0.53739
  H         0.94880         -0.20714         1.89367
  H        -0.88027         -0.09586         1.94238
  C        -1.28922         -0.00611        -0.76728
  H        -1.08254          0.01624        -1.83378
  H        -1.91815         -0.86889        -0.54831
  H        -1.85843          0.88822        -0.51357
9
 step=         244     theta[rad]=           2.5552
  C        -0.02069          0.01113         0.02976
  C         0.02012         -0.01998         1.34904
  H         0.90068         -0.05844        -0.53739
  H         0.94880          0.09978         1.89367
  H        -0.88027          0.04618         1.94238
  C        -1.28922          0.00294        -0.76728
  H        -1.08254         -0.00782        -1.83378
  H        -1.87391         -0.88321        -0.52258
  H        -1.90268          0.87390        -0.53931
9
 step=         245     theta[rad]=           2.5656
  C        -0.02069          0.00428         0.02976
  C         0.02012         -0.00768         1.34904
  H         0.90068         -0.02248        -0.53739
  H         0.94880          0.03838         1.89367
  H        -0.88027          0.01776         1.94238
  C        -1.28922          0.00113        -0.76728
  H        -1.08254         -0.00301        -1.83378
  H        -1.88276         -0.88034        -0.52772
  H        -1.89383          0.87676        -0.53416
9
 step=         246     theta[rad]=           2.5761
  C        -0.02069         -0.01809         0.02976
  C         0.02012          0.03248         1.34904
  H         0.90068          0.09501        -0.53739
  H         0.94880         -0.16224         1.89367
  H        -0.88027         -0.07509         1.94238
  C        -1.28922         -0.00478        -0.76728
  H        -1.08254          0.01272        -1.83378
  H        -1.91168         -0.87098        -0.54455
  H        -1.86491          0.88612        -0.51734
9
 step=         247     theta[rad]=           2.5866
  C        -0.02069          0.02619         0.02976
  C         0.02012         -0.04702         1.34904
  H         0.90068         -0.13754        -0.53739
  H         0.94880          0.23486         1.89367
  H        -0.88027          0.10869         1.94238
  C        -1.28922          0.00692        -0.76728
  H        -1.08254         -0.01841        -1.83378
  H        -1.85444         -0.88951        -0.51125
  H        -1.92215          0.86760        -0.55064
9
 step=         248     theta[rad]=           2.5970
  C        -0.02069         -0.02650         0.02976
  C         0.02012          0.04757         1.34904
  H         0.90068          0.13916        -0.53739
  H         0.94880         -0.23762         1.89367
  H        -0.88027         -0.10997         1.94238
  C        -1.28922         -0.00700        -0.76728
  H        -1.08254          0.01862        -1.83378
  H        -1.92255         -0.86747        -0.55087
  H        -1.85404          0.88964        -0.51102
9
 step=         249     theta[rad]=           2.6075
  C        -0.02069          0.01934         0.02976
  C         0.02012         -0.03473         1.34904
  H         0.90068         -0.10159        -0.53739
  H         0.94880          0.17347         1.89367
  H        -0.88027          0.08028         1.94238
  C        -1.28922          0.00511        -0.76728
  H        -1.08254         -0.01360        -1.83378
  H        -1.86329         -0.88665        -0.51640
  H        -1.91330          0.87046        -0.54549
9
 step=         250     theta[rad]=           2.6180
  C        -0.02069         -0.00708         0.02976
  C         0.02012          0.01271         1.34904
  H         0.90068          0.03719        -0.53739
  H         0.94880         -0.06350         1.89367
  H        -0.88027         -0.02939         1.94238
  C        -1.28922         -0.00187        -0.76728
  H        -1.08254          0.00498        -1.83378
  H        -1.89745         -0.87559        -0.53627
  H        -1.87914          0.88152        -0.52562
9
 step=         251     theta[rad]=           2.6285
  C        -0.02069         -0.00680         0.02976
  C         0.02012          0.01221         1.34904
  H         0.90068          0.03573        -0.53739
  H         0.94880         -0.06101         1.89367
  H        -0.88027         -0.02824         1.94238
  C        -1.28922         -0.00180        -0.76728
  H        -1.08254          0.00478        -1.83378
  H        -1.89709         -0.87571        -0.53606
  H        -1.87950          0.88140        -0.52583
9
 step=         252     theta[rad]=           2.6389
  C        -0.02069          0.01873         0.02976
  C         0.02012         -0.03362         1.34904
  H         0.90068         -0.09835        -0.53739
  H         0.94880          0.16794         1.89367
  H        -0.88027          0.07772         1.94238
  C        -1.28922          0.00495        -0.76728
  H        -1.08254         -0.01316        -1.83378
  H        -1.86408         -0.88639        -0.51686
  H        -1.91250          0.87072        -0.54502
9
 step=         253     theta[rad]=           2.6494
  C        -0.02069         -0.02593         0.02976
  C         0.02012          0.04655         1.34904
  H         0.90068          0.13617        -0.53739
  H         0.94880         -0.23251         1.89367
  H        -0.88027         -0.10761         1.94238
  C        -1.28922         -0.00685        -0.76728
  H        -1.08254          0.01822        -1.83378
  H        -1.92181         -0.86770        -0.55044
  H        -1.85478          0.88940        -0.51145
9
 step=         254     theta[rad]=           2.6599
  C        -0.02069          0.02702         0.02976
  C         0.02012         -0.04851         1.34904
  H         0.90068         -0.14190        -0.53739
  H         0.94880          0.24231         1.89367
  H        -0.88027          0.11214         1.94238
  C        -1.28922          0.00714        -0.76728
  H        -1.08254         -0.01899        -1.83378
  H        -1.85336         -0.88986        -0.51062
  H        -1.92322          0.86725        -0.55126
9
 step=         255     theta[rad]=           2.6704
  C        -0.02069         -0.02213         0.02976
  C         0.02012          0.03973         1.34904
  H         0.90068          0.11623        -0.53739
  H         0.94880         -0.19848         1.89367
  H        -0.88027         -0.09186         1.94238
  C        -1.28922         -0.00585        -0.76728
  H        -1.08254          0.01556        -1.83378
  H        -1.91690         -0.86929        -0.54759
  H        -1.85968          0.88781        -0.51430
9
 step=         256     theta[rad]=           2.6808
  C        -0.02069          0.01267         0.02976
  C         0.02012         -0.02275         1.34904
  H         0.90068         -0.06656        -0.53739
  H         0.94880          0.11366         1.89367
  H        -0.88027          0.05260         1.94238
  C        -1.28922          0.00335        -0.76728
  H        -1.08254         -0.00891        -1.83378
  H        -1.87191         -0.88386        -0.52141
  H        -1.90468          0.87325        -0.54047
9
 step=         257     theta[rad]=           2.6913
  C        -0.02069         -0.00086         0.02976
  C         0.02012          0.00154         1.34904
  H         0.90068          0.00451        -0.53739
  H         0.94880         -0.00771         1.89367
  H        -0.88027         -0.00357         1.94238
  C        -1.28922         -0.00023        -0.76728
  H        -1.08254          0.00060        -1.83378
  H        -1.88940         -0.87819        -0.53159
  H        -1.88718          0.87891        -0.53030
9
 step=         258     theta[rad]=           2.7018
  C        -0.02069         -0.01086         0.02976
  C         0.02012          0.01950         1.34904
  H         0.90068          0.05706        -0.53739
  H         0.94880         -0.09743         1.89367
  H        -0.88027         -0.04509         1.94238
  C        -1.28922         -0.00287        -0.76728
  H        -1.08254          0.00764        -1.83378
  H        -1.90234         -0.87401        -0.53911
  H        -1.87425          0.88310        -0.52277
9
 step=         259     theta[rad]=           2.7122
  C        -0.02069          0.02033         0.02976
  C         0.02012         -0.03650         1.34904
  H         0.90068         -0.10677        -0.53739
  H         0.94880          0.18231         1.89367
  H        -0.88027          0.08438         1.94238
  C        -1.28922          0.00537        -0.76728
  H        -1.08254         -0.01429        -1.83378
  H        -1.86201         -0.88706        -0.51566
  H        -1.91457          0.87005        -0.54623
9
 step=         260     theta[rad]=           2.7227
  C        -0.02069         -0.02602         0.02976
  C         0.02012          0.04671         1.34904
  H         0.90068          0.13664        -0.53739
  H         0.94880         -0.23332         1.89367
  H        -0.88027         -0.10798         1.94238
  C        -1.28922         -0.00688        -0.76728
  H        -1.08254          0.01829        -1.83378
  H        -1.92193         -0.86767        -0.55051
  H        -1.85466          0.88944        -0.51138
9
 step=         261     theta[rad]=           2.7332
  C        -0.02069          0.02724         0.02976
  C         0.02012         -0.04889         1.34904
  H         0.90068         -0.14304        -0.53739
  H         0.94880          0.24424         1.89367
  H        -0.88027          0.11304         1.94238
  C        -1.28922          0.00720        -0.76728
  H        -1.08254         -0.01914        -1.83378
  H        -1.85309         -0.88995        -0.51046
  H        -1.92350          0.86716        -0.55142
9
 step=         262     theta[rad]=           2.7437
  C        -0.02069         -0.02411         0.02976
  C         0.02012          0.04328         1.34904
  H         0.90068          0.12662        -0.53739
  H         0.94880         -0.21621         1.89367
  H        -0.88027         -0.10006         1.94238
  C        -1.28922         -0.00637        -0.76728
  H        -1.08254          0.01695        -1.83378
  H        -1.91946         -0.86847        -0.54907
  H        -1.85713          0.88864        -0.51281
9
 step=         263     theta[rad]=           2.7541
  C        -0.02069          0.01744         0.02976
  C         0.02012         -0.03131         1.34904
  H         0.90068         -0.09158        -0.53739
  H         0.94880          0.15638         1.89367
  H        -0.88027          0.07237         1.94238
  C        -1.28922          0.00461        -0.76728
  H        -1.08254         -0.01226        -1.83378
  H        -1.86575         -0.88585        -0.51783
  H        -1.91084          0.87126        -0.54406
9
 step=         264     theta[rad]=           2.7646
  C        -0.02069         -0.00845         0.02976
  C         0.02012          0.01518         1.34904
  H         0.90068          0.04440        -0.53739
  H         0.94880         -0.07581         1.89367
  H        -0.88027         -0.03509         1.94238
  C        -1.28922         -0.00223        -0.76728
  H        -1.08254          0.00594        -1.83378
  H        -1.89922         -0.87502        -0.53730
  H        -1.87737          0.88209        -0.52459
9
 step=         265     theta[rad]=           2.7751
  C        -0.02069         -0.00143         0.02976
  C         0.02012          0.00257         1.34904
  H         0.90068          0.00752        -0.53739
  H         0.94880         -0.01284         1.89367
  H        -0.88027         -0.00594         1.94238
  C        -1.28922         -0.00038        -0.76728
  H        -1.08254          0.00101        -1.83378
  H        -1.89014         -0.87795        -0.53202
  H        -1.88644          0.87915        -0.52987
9
 step=         266     theta[rad]=           2.7855
  C        -0.02069          0.01086         0.02976
  C         0.02012         -0.01950         1.34904
  H         0.90068         -0.05706        -0.53739
  H         0.94880          0.09743         1.89367
  H        -0.88027          0.04509         1.94238
  C        -1.28922          0.00287        -0.76728
  H        -1.08254         -0.00764        -1.83378
  H        -1.87425         -0.88310        -0.52277
  H        -1.90234          0.87401        -0.53911
9
 step=         267     theta[rad]=           2.7960
  C        -0.02069         -0.01873         0.02976
  C         0.02012          0.03362         1.34904
  H         0.90068          0.09835        -0.53739
  H         0.94880         -0.16794         1.89367
  H        -0.88027         -0.07772         1.94238
  C        -1.28922         -0.00495        -0.76728
  H        -1.08254          0.01316        -1.83378
  H        -1.91250         -0.87072        -0.54502
  H        -1.86408          0.88639        -0.51686
9
 step=         268     theta[rad]=           2.8065
  C        -0.02069          0.02424         0.02976
  C         0.02012         -0.04352         1.34904
  H         0.90068         -0.12732        -0.53739
  H         0.94880          0.21741         1.89367
  H        -0.88027          0.10062         1.94238
  C        -1.28922          0.00641        -0.76728
  H        -1.08254         -0.01704        -1.83378
  H        -1.85695         -0.88870        -0.51271
  H        -1.91963          0.86841        -0.54917
9
 step=         269     theta[rad]=           2.8170
  C        -0.02069         -0.02702         0.02976
  C         0.02012          0.04851         1.34904
  H         0.90068          0.14190        -0.53739
  H         0.94880         -0.24231         1.89367
  H        -0.88027         -0.11214         1.94238
  C        -1.28922         -0.00714        -0.76728
  H        -1.08254          0.01899        -1.83378
  H        -1.92322         -0.86725        -0.55126
  H        -1.85336          0.88986        -0.51062
9
 step=         270     theta[rad]=           2.8274
  C        -0.02069          0.02702         0.02976
  C         0.02012         -0.04851         1.34904
  H         0.90068         -0.14190        -0.53739
  H         0.94880          0.24231         1.89367
  H        -0.88027          0.11214         1.94238
  C        -1.28922          0.00714        -0.76728
  H        -1.08254         -0.01899        -1.83378
  H        -1.85336         -0.88986        -0.51062
  H        -1.92322          0.86725        -0.55126
9
 step=         271     theta[rad]=           2.8379
  C        -0.02069         -0.02450         0.02976
  C         0.02012          0.04399         1.34904
  H         0.90068          0.12869        -0.53739
  H         0.94880         -0.21974         1.89367
  H        -0.88027         -0.10170         1.94238
  C        -1.28922         -0.00648        -0.76728
  H        -1.08254          0.01722        -1.83378
  H        -1.91997         -0.86830        -0.54937
  H        -1.85662          0.88881        -0.51252
9
 step=         272     theta[rad]=           2.8484
  C        -0.02069          0.01994         0.02976
  C         0.02012         -0.03580         1.34904
  H         0.90068         -0.10473        -0.53739
  H         0.94880          0.17884         1.89367
  H        -0.88027          0.08277         1.94238
  C        -1.28922          0.00527        -0.76728
  H        -1.08254         -0.01402        -1.83378
  H        -1.86251         -0.88690        -0.51595
  H        -1.91407          0.87021        -0.54594
9
 step=         273     theta[rad]=           2.8588
  C        -0.02069         -0.01393         0.02976
  C         0.02012          0.02500         1.34904
  H         0.90068          0.07314        -0.53739
  H         0.94880         -0.12488         1.89367
  H        -0.88027         -0.05780         1.94238
  C        -1.28922         -0.00368        -0.76728
  H        -1.08254          0.00979        -1.83378
  H        -1.90630         -0.87273        -0.54141
  H        -1.87029          0.88438        -0.52047
9
 step=         274     theta[rad]=           2.8693
  C        -0.02069          0.00708         0.02976
  C         0.02012         -0.01271         1.34904
  H         0.90068         -0.03719        -0.53739
  H         0.94880          0.06350         1.89367
  H        -0.88027          0.02939         1.94238
  C        -1.28922          0.00187        -0.76728
  H        -1.08254         -0.00498        -1.83378
  H        -1.87914         -0.88152        -0.52562
  H        -1.89745          0.87559        -0.53627
9
 step=         275     theta[rad]=           2.8798
  C        -0.02069         -0.00000         0.02976
  C         0.02012          0.00000         1.34904
  H         0.90068         -0.00000        -0.53739
  H         0.94880         -0.00000         1.89367
  H        -0.88027          0.00000         1.94238
  C        -1.28922         -0.00000        -0.76728
  H        -1.08254          0.00000        -1.83378
  H        -1.88829         -0.87855        -0.53094
  H        -1.88829          0.87855        -0.53094
9
 step=         276     theta[rad]=           2.8903
  C        -0.02069         -0.00680         0.02976
  C         0.02012          0.01221         1.34904
  H         0.90068          0.03573        -0.53739
  H         0.94880         -0.06101         1.89367
  H        -0.88027         -0.02824         1.94238
  C        -1.28922         -0.00180        -0.76728
  H        -1.08254          0.00478        -1.83378
  H        -1.89709         -0.87571        -0.53606
  H        -1.87950          0.88140        -0.52583
9
 step=         277     theta[rad]=           2.9007
  C        -0.02069          0.01293         0.02976
  C         0.02012         -0.02321         1.34904
  H         0.90068         -0.06789        -0.53739
  H         0.94880          0.11593         1.89367
  H        -0.88027          0.05365         1.94238
  C        -1.28922          0.00342        -0.76728
  H        -1.08254         -0.00909        -1.83378
  H        -1.87158         -0.88396        -0.52122
  H        -1.90500          0.87314        -0.54066
9
 step=         278     theta[rad]=           2.9112
  C        -0.02069         -0.01809         0.02976
  C         0.02012          0.03248         1.34904
  H         0.90068          0.09501        -0.53739
  H         0.94880         -0.16224         1.89367
  H        -0.88027         -0.07509         1.94238
  C        -1.28922         -0.00478        -0.76728
  H        -1.08254          0.01272        -1.83378
  H        -1.91168         -0.87098        -0.54455
  H        -1.86491          0.88612        -0.51734
9
 step=         279     theta[rad]=           2.9217
  C        -0.02069          0.02213         0.02976
  C         0.02012         -0.03973         1.34904
  H         0.90068         -0.11623        -0.53739
  H         0.94880          0.19848         1.89367
  H        -0.88027          0.09186         1.94238
  C        -1.28922          0.00585        -0.76728
  H        -1.08254         -0.01556        -1.83378
  H        -1.85968         -0.88781        -0.51430
  H        -1.91690          0.86929        -0.54759
9
 step=         280     theta[rad]=           2.9322
  C        -0.02069         -0.02499         0.02976
  C         0.02012          0.04487         1.34904
  H         0.90068          0.13125        -0.53739
  H         0.94880         -0.22412         1.89367
  H        -0.88027         -0.10372         1.94238
  C        -1.28922         -0.00661        -0.76728
  H        -1.08254          0.01757        -1.83378
  H        -1.92060         -0.86810        -0.54974
  H        -1.85599          0.88901        -0.51215
9
 step=         281     theta[rad]=           2.9426
  C        -0.02069          0.02670         0.02976
  C         0.02012         -0.04793         1.34904
  H         0.90068         -0.14021        -0.53739
  H         0.94880          0.23942         1.89367
  H        -0.88027          0.11081         1.94238
  C        -1.28922          0.00706        -0.76728
  H        -1.08254         -0.01877        -1.83378
  H        -1.85378         -0.88972        -0.51087
  H        -1.92281          0.86738        -0.55102
9
 step=         282     theta[rad]=           2.9531
  C        -0.02069         -0.02734         0.02976
  C         0.02012          0.04909         1.34904
  H         0.90068          0.14360        -0.53739
  H         0.94880         -0.24521         1.89367
  H        -0.88027         -0.11348         1.94238
  C        -1.28922         -0.00723        -0.76728
  H        -1.08254          0.01922        -1.83378
  H        -1.92364         -0.86711        -0.55150
  H        -1.85295          0.88999        -0.51038
9
 step=         283     theta[rad]=           2.9636
  C        -0.02069          0.02706         0.02976
  C         0.02012         -0.04859         1.34904
  H         0.90068         -0.14213        -0.53739
  H         0.94880          0.24270         1.89367
  H        -0.88027          0.11232         1.94238
  C        -1.28922          0.00715        -0.76728
  H        -1.08254         -0.01902        -1.83378
  H        -1.85331         -0.88988        -0.51059
  H        -1.92328          0.86723        -0.55129
9
 step=         284     theta[rad]=           2.9740
  C        -0.02069         -0.02602         0.02976
  C         0.02012          0.04671         1.34904
  H         0.90068          0.13664        -0.53739
  H         0.94880         -0.23332         1.89367
  H        -0.88027         -0.10798         1.94238
  C        -1.28922         -0.00688        -0.76728
  H        -1.08254          0.01829        -1.83378
  H        -1.92193         -0.86767        -0.55051
  H        -1.85466          0.88944        -0.51138
9
 step=         285     theta[rad]=           2.9845
  C        -0.02069          0.02437         0.02976
  C         0.02012         -0.04376         1.34904
  H         0.90068         -0.12801        -0.53739
  H         0.94880          0.21859         1.89367
  H        -0.88027          0.10116         1.94238
  C        -1.28922          0.00644        -0.76728
  H        -1.08254         -0.01713        -1.83378
  H        -1.85678         -0.88875        -0.51261
  H        -1.91980          0.86835        -0.54927
9
 step=         286     theta[rad]=           2.9950
  C        -0.02069         -0.02230         0.02976
  C         0.02012          0.04003         1.34904
  H         0.90068          0.11711        -0.53739
  H         0.94880         -0.19997         1.89367
  H        -0.88027         -0.09255         1.94238
  C        -1.28922         -0.00589        -0.76728
  H        -1.08254          0.01567        -1.83378
  H        -1.91712         -0.86922        -0.54771
  H        -1.85947          0.88788        -0.51417
9
 step=         287     theta[rad]=           3.0055
  C        -0.02069          0.01994         0.02976
  C         0.02012         -0.03580         1.34904
  H         0.90068         -0.10473        -0.53739
  H         0.94880          0.17884         1.89367
  H        -0.88027          0.08277         1.94238
  C        -1.28922          0.00527        -0.76728
  H        -1.08254         -0.01402        -1.83378
  H        -1.86251         -0.88690        -0.51595
  H        -1.91407          0.87021        -0.54594
9
 step=         288     theta[rad]=           3.0159
  C        -0.02069         -0.01744         0.02976
  C         0.02012          0.03131         1.34904
  H         0.90068          0.09158        -0.53739
  H         0.94880         -0.15638         1.89367
  H        -0.88027         -0.07237         1.94238
  C        -1.28922         -0.00461        -0.76728
  H        -1.08254          0.01226        -1.83378
  H        -1.91084         -0.87126        -0.54406
  H        -1.86575          0.88585        -0.51783
9
 step=         289     theta[rad]=           3.0264
  C        -0.02069          0.01490         0.02976
  C         0.02012         -0.02675         1.34904
  H         0.90068         -0.07825        -0.53739
  H         0.94880          0.13362         1.89367
  H        -0.88027          0.06184         1.94238
  C        -1.28922          0.00394        -0.76728
  H        -1.08254         -0.01047        -1.83378
  H        -1.86903         -0.88479        -0.51974
  H        -1.90755          0.87232        -0.54215
9
 step=         290     theta[rad]=           3.0369
  C        -0.02069         -0.01242         0.02976
  C         0.02012          0.02230         1.34904
  H         0.90068          0.06523        -0.53739
  H         0.94880         -0.11138         1.89367
  H        -0.88027         -0.05155         1.94238
  C        -1.28922         -0.00328        -0.76728
  H        -1.08254          0.00873        -1.83378
  H        -1.90435         -0.87336        -0.54028
  H        -1.87224          0.88375        -0.52160
9
 step=         291     theta[rad]=           3.0473
  C        -0.02069          0.01007         0.02976
  C         0.02012         -0.01808         1.34904
  H         0.90068         -0.05289        -0.53739
  H         0.94880          0.09031         1.89367
  H        -0.88027          0.04180         1.94238
  C        -1.28922          0.00266        -0.76728
  H        -1.08254         -0.00708        -1.83378
  H        -1.87527         -0.88277        -0.52337
  H        -1.90131          0.87434        -0.53852
9
 step=         292     theta[rad]=           3.0578
  C        -0.02069         -0.00791         0.02976
  C         0.02012          0.01420         1.34904
  H         0.90068          0.04153        -0.53739
  H         0.94880         -0.07091         1.89367
  H        -0.88027         -0.03282         1.94238
  C        -1.28922         -0.00209        -0.76728
  H        -1.08254          0.00556        -1.83378
  H        -1.89851         -0.87525        -0.53689
  H        -1.87807          0.88186        -0.52500
9
 step=         293     theta[rad]=           3.0683
  C        -0.02069          0.00597         0.02976
  C         0.02012         -0.01071         1.34904
  H         0.90068         -0.03134        -0.53739
  H         0.94880          0.05352         1.89367
  H        -0.88027          0.02477         1.94238
  C        -1.28922          0.00158        -0.76728
  H        -1.08254         -0.00419        -1.83378
  H        -1.88058         -0.88105        -0.52646
  H        -1.89601          0.87606        -0.53543
9
 step=         294     theta[rad]=           3.0788
  C        -0.02069         -0.00428         0.02976
  C         0.02012          0.00768         1.34904
  H         0.90068          0.02248        -0.53739
  H         0.94880         -0.03838         1.89367
  H        -0.88027         -0.01776         1.94238
  C        -1.28922         -0.00113        -0.76728
  H        -1.08254          0.00301        -1.83378
  H        -1.89383         -0.87676        -0.53416
  H        -1.88276          0.88034        -0.52772
9
 step=         295     theta[rad]=           3.0892
  C        -0.02069          0.00286         0.02976
  C         0.02012         -0.00513         1.34904
  H         0.90068         -0.01502        -0.53739
  H         0.94880          0.02564         1.89367
  H        -0.88027          0.01187         1.94238
  C        -1.28922          0.00076        -0.76728
  H        -1.08254         -0.00201        -1.83378
  H        -1.88460         -0.87975        -0.52879
  H        -1.89199          0.87736        -0.53309
9
 step=         296     theta[rad]=           3.0997
  C        -0.02069         -0.00172         0.02976
  C         0.02012          0.00308         1.34904
  H         0.90068          0.00902        -0.53739
  H         0.94880         -0.01540         1.89367
  H        -0.88027         -0.00713         1.94238
  C        -1.28922         -0.00045        -0.76728
  H        -1.08254          0.00121        -1.83378
  H        -1.89051         -0.87783        -0.53223
  H        -1.88607          0.87927        -0.52965
9
 step=         297     theta[rad]=           3.1102
  C        -0.02069          0.00086         0.02976
  C         0.02012         -0.00154         1.34904
  H         0.90068         -0.00451        -0.53739
  H         0.94880          0.00771         1.89367
  H        -0.88027          0.00357         1.94238
  C        -1.28922          0.00023        -0.76728
  H        -1.08254         -0.00060        -1.83378
  H        -1.88718         -0.87891        -0.53030
  H        -1.88940          0.87819        -0.53159
9
 step=         298     theta[rad]=           3.1206
  C        -0.02069         -0.00029         0.02976
  C         0.02012          0.00051         1.34904
  H         0.90068          0.00150        -0.53739
  H         0.94880         -0.00257         1.89367
  H        -0.88027         -0.00119         1.94238
  C        -1.28922         -0.00008        -0.76728
  H        -1.08254          0.00020        -1.83378
  H        -1.88866         -0.87843        -0.53116
  H        -1.88792          0.87867        -0.53073
9
 step=         299     theta[rad]=           3.1311
  C        -0.02069         -0.00000         0.02976
  C         0.02012          0.00000         1.34904
  H         0.90068         -0.00000        -0.53739
  H         0.94880         -0.00000         1.89367
  H        -0.88027          0.00000         1.94238
  C        -1.28922         -0.00000        -0.76728
  H        -1.08254          0.00000        -1.83378
  H        -1.88829         -0.87855        -0.53094
  H        -1.88829          0.87855        -0.53094
9
 step=         300     theta[rad]=           3.1416
  C        -0.02069         -0.00000         0.02976
  C         0.02012          0.00000         1.34904
  H         0.90068         -0.00000        -0.53739
  H         0.94880         -0.00000         1.89367
  H        -0.88027          0.00000         1.94238
  C        -1.28922         -0.00000        -0.76728
  H        -1.08254          0.00000        -1.83378
  H        -1.88829         -0.87855        -0.53094
  H        -1.88829          0.87855        -0.53094
9
 step=         301     theta[rad]=           3.1521
  C        -0.02069          0.00029         0.02976
  C         0.02012         -0.00051         1.34904
  H         0.90068         -0.00150        -0.53739
  H         0.94880          0.00257         1.89367
  H        -0.88027          0.00119         1.94238
  C        -1.28922          0.00008        -0.76728
  H        -1.08254         -0.00020        -1.83378
  H        -1.88792         -0.87867        -0.53073
  H        -1.88866          0.87843        -0.53116
9
 step=         302     theta[rad]=           3.1625
  C        -0.02069         -0.00086         0.02976
  C         0.02012          0.00154         1.34904
  H         0.90068          0.00451        -0.53739
  H         0.94880         -0.00771         1.89367
  H        -0.88027         -0.00357         1.94238
  C        -1.28922         -0.00023        -0.76728
  H        -1.08254          0.00060        -1.83378
  H        -1.88940         -0.87819        -0.53159
  H        -1.88718          0.87891        -0.53030
9
 step=         303     theta[rad]=           3.1730
  C        -0.02069          0.00172         0.02976
  C         0.02012         -0.00308         1.34904
  H         0.90068         -0.00902        -0.53739
  H         0.94880          0.01540         1.89367
  H        -0.88027          0.00713         1.94238
  C        -1.28922          0.00045        -0.76728
  H        -1.08254         -0.00121        -1.83378
  H        -1.88607         -0.87927        -0.52965
  H        -1.89051          0.87783        -0.53223
9
 step=         304     theta[rad]=           3.1835
  C        -0.02069         -0.00286         0.02976
  C         0.02012          0.00513         1.34904
  H         0.90068          0.01502        -0.53739
  H         0.94880         -0.02564         1.89367
  H        -0.88027         -0.01187         1.94238
  C        -1.28922         -0.00076        -0.76728
  H        -1.08254          0.00201        -1.83378
  H        -1.89199         -0.87736        -0.53309
  H        -1.88460          0.87975        -0.52879
9
 step=         305     theta[rad]=           3.1940
  C        -0.02069          0.00428         0.02976
  C         0.02012         -0.00768         1.34904
  H         0.90068         -0.02248        -0.53739
  H         0.94880          0.03838         1.89367
  H        -0.88027          0.01776         1.94238
  C        -1.28922          0.00113        -0.76728
  H        -1.08254         -0.00301        -1.83378
  H        -1.88276         -0.88034        -0.52772
  H        -1.89383          0.87676        -0.53416
9
 step=         306     theta[rad]=           3.2044
  C        -0.02069         -0.00597         0.02976
  C         0.02012          0.01071         1.34904
  H         0.90068          0.03134        -0.53739
  H         0.94880         -0.05352         1.89367
  H        -0.88027         -0.02477         1.94238
  C        -1.28922         -0.00158        -0.76728
  H        -1.08254          0.00419        -1.83378
  H        -1.89601         -0.87606        -0.53543
  H        -1.88058          0.88105        -0.52646
9
 step=         307     theta[rad]=           3.2149
  C        -0.02069          0.00791         0.02976
  C         0.02012         -0.01420         1.34904
  H         0.90068         -0.04153        -0.53739
  H         0.94880          0.07091         1.89367
  H        -0.88027          0.03282         1.94238
  C        -1.28922          0.00209        -0.76728
  H        -1.08254         -0.00556        -1.83378
  H        -1.87807         -0.88186        -0.52500
  H        -1.89851          0.87525        -0.53689
9
 step=         308     theta[rad]=           3.2254
  C        -0.02069         -0.01007         0.02976
  C         0.02012          0.01808         1.34904
  H         0.90068          0.05289        -0.53739
  H         0.94880         -0.09031         1.89367
  H        -0.88027         -0.04180         1.94238
  C        -1.28922         -0.00266        -0.76728
  H        -1.08254          0.00708        -1.83378
  H        -1.90131         -0.87434        -0.53852
  H        -1.87527          0.88277        -0.52337
9
 step=         309     theta[rad]=           3.2358
  C        -0.02069          0.01242         0.02976
  C         0.02012         -0.02230         1.34904
  H         0.90068         -0.06523        -0.53739
  H         0.94880          0.11138         1.89367
  H        -0.88027          0.05155         1.94238
  C        -1.28922          0.00328        -0.76728
  H        -1.08254         -0.00873        -1.83378
  H        -1.87224         -0.88375        -0.52160
  H        -1.90435          0.87336        -0.54028
9
 step=         310     theta[rad]=           3.2463
  C        -0.02069         -0.01490         0.02976
  C         0.02012          0.02675         1.34904
  H         0.90068          0.07825        -0.53739
  H         0.94880         -0.13362         1.89367
  H        -0.88027         -0.06184         1.94238
  C        -1.28922         -0.00394        -0.76728
  H        -1.08254          0.01047        -1.83378
  H        -1.90755         -0.87232        -0.54215
  H        -1.86903          0.88479        -0.51974
9
 step=         311     theta[rad]=           3.2568
  C        -0.02069          0.01744         0.02976
  C         0.02012         -0.03131         1.34904
  H         0.90068         -0.09158        -0.53739
  H         0.94880          0.15638         1.89367
  H        -0.88027          0.07237         1.94238
  C        -1.28922          0.00461        -0.76728
  H        -1.08254         -0.01226        -1.83378
  H        -1.86575         -0.88585        -0.51783
  H        -1.91084          0.87126        -0.54406
9
 step=         312     theta[rad]=           3.2673
  C        -0.02069         -0.01994         0.02976
  C         0.02012          0.03580         1.34904
  H         0.90068          0.10473        -0.53739
  H         0.94880         -0.17884         1.89367
  H        -0.88027         -0.08277         1.94238
  C        -1.28922         -0.00527        -0.76728
  H        -1.08254          0.01402        -1.83378
  H        -1.91407         -0.87021        -0.54594
  H        -1.86251          0.88690        -0.51595
9
 step=         313     theta[rad]=           3.2777
  C        -0.02069          0.02230         0.02976
  C         0.02012         -0.04003         1.34904
  H         0.90068         -0.11711        -0.53739
  H         0.94880          0.19997         1.89367
  H        -0.88027          0.09255         1.94238
  C        -1.28922          0.00589        -0.76728
  H        -1.08254         -0.01567        -1.83378
  H        -1.85947         -0.88788        -0.51417
  H        -1.91712          0.86922        -0.54771
9
 step=         314     theta[rad]=           3.2882
  C        -0.02069         -0.02437         0.02976
  C         0.02012          0.04376         1.34904
  H         0.90068          0.12801        -0.53739
  H         0.94880         -0.21859         1.89367
  H        -0.88027         -0.10116         1.94238
  C        -1.28922         -0.00644        -0.76728
  H        -1.08254          0.01713        -1.83378
  H        -1.91980         -0.86835        -0.54927
  H        -1.85678          0.88875        -0.51261
9
 step=         315     theta[rad]=           3.2987
  C        -0.02069          0.02602         0.02976
  C         0.02012         -0.04671         1.34904
  H         0.90068         -0.13664        -0.53739
  H         0.94880          0.23332         1.89367
  H        -0.88027          0.10798         1.94238
  C        -1.28922          0.00688        -0.76728
  H        -1.08254         -0.01829        -1.83378
  H        -1.85466         -0.88944        -0.51138
  H        -1.92193          0.86767        -0.55051
9
 step=         316     theta[rad]=           3.3091
  C        -0.02069         -0.02706         0.02976
  C         0.02012          0.04859         1.34904
  H         0.90068          0.14213        -0.53739
  H         0.94880         -0.24270         1.89367
  H        -0.88027         -0.11232         1.94238
  C        -1.28922         -0.00715        -0.76728
  H        -1.08254          0.01902        -1.83378
  H        -1.92328         -0.86723        -0.55129
  H        -1.85331          0.88988        -0.51059
9
 step=         317     theta[rad]=           3.3196
  C        -0.02069          0.02734         0.02976
  C         0.02012         -0.04909         1.34904
  H         0.90068         -0.14360        -0.53739
  H         0.94880          0.24521         1.89367
  H        -0.88027          0.11348         1.94238
  C        -1.28922          0.00723        -0.76728
  H        -1.08254         -0.01922        -1.83378
  H        -1.85295         -0.88999        -0.51038
  H        -1.92364          0.86711        -0.55150
9
 step=         318     theta[rad]=           3.3301
  C        -0.02069         -0.02670         0.02976
  C         0.02012          0.04793         1.34904
  H         0.90068          0.14021        -0.53739
  H         0.94880         -0.23942         1.89367
  H        -0.88027         -0.11081         1.94238
  C        -1.28922         -0.00706        -0.76728
  H        -1.08254          0.01877        -1.83378
  H        -1.92281         -0.86738        -0.55102
  H        -1.85378          0.88972        -0.51087
9
 step=         319     theta[rad]=           3.3406
  C        -0.02069          0.02499         0.02976
  C         0.02012         -0.04487         1.34904
  H         0.90068         -0.13125        -0.53739
  H         0.94880          0.22412         1.89367
  H        -0.88027          0.10372         1.94238
  C        -1.28922          0.00661        -0.76728
  H        -1.08254         -0.01757        -1.83378
  H        -1.85599         -0.88901        -0.51215
  H        -1.92060          0.86810        -0.54974
9
 step=         320     theta[rad]=           3.3510
  C        -0.02069         -0.02213         0.02976
  C         0.02012          0.03973         1.34904
  H         0.90068          0.11623        -0.53739
  H         0.94880         -0.19848         1.89367
  H        -0.88027         -0.09186         1.94238
  C        -1.28922         -0.00585        -0.76728
  H        -1.08254          0.01556        -1.83378
  H        -1.91690         -0.86929        -0.54759
  H        -1.85968          0.88781        -0.51430
9
 step=         321     theta[rad]=           3.3615
  C        -0.02069          0.01809         0.02976
  C         0.02012         -0.03248         1.34904
  H         0.90068         -0.09501        -0.53739
  H         0.94880          0.16224         1.89367
  H        -0.88027          0.07509         1.94238
  C        -1.28922          0.00478        -0.76728
  H        -1.08254         -0.01272        -1.83378
  H        -1.86491         -0.88612        -0.51734
  H        -1.91168          0.87098        -0.54455
9
 step=         322     theta[rad]=           3.3720
  C        -0.02069         -0.01293         0.02976
  C         0.02012          0.02321         1.34904
  H         0.90068          0.06789        -0.53739
  H         0.94880         -0.11593         1.89367
  H        -0.88027         -0.05365         1.94238
  C        -1.28922         -0.00342        -0.76728
  H        -1.08254          0.00909        -1.83378
  H        -1.90500         -0.87314        -0.54066
  H        -1.87158          0.88396        -0.52122
9
 step=         323     theta[rad]=           3.3824
  C        -0.02069          0.00680         0.02976
  C         0.02012         -0.01221         1.34904
  H         0.90068         -0.03573        -0.53739
  H         0.94880          0.06101         1.89367
  H        -0.88027          0.02824         1.94238
  C        -1.28922          0.00180        -0.76728
  H        -1.08254         -0.00478        -1.83378
  H        -1.87950         -0.88140        -0.52583
  H        -1.89709          0.87571        -0.53606
9
 step=         324     theta[rad]=           3.3929
  C        -0.02069         -0.00000         0.02976
  C         0.02012          0.00000         1.34904
  H         0.90068         -0.00000        -0.53739
  H         0.94880         -0.00000         1.89367
  H        -0.88027          0.00000         1.94238
  C        -1.28922         -0.00000        -0.76728
  H        -1.08254          0.00000        -1.83378
  H        -1.88829         -0.87855        -0.53094
  H        -1.88829          0.87855        -0.53094
9
 step=         325     theta[rad]=           3.4034
  C        -0.02069         -0.00708         0.02976
  C         0.02012          0.01271         1.34904
  H         0.90068          0.03719        -0.53739
  H         0.94880         -0.06350         1.89367
  H        -0.88027         -0.02939         1.94238
  C        -1.28922         -0.00187        -0.76728
  H        -1.08254          0.00498        -1.83378
  H        -1.89745         -0.87559        -0.53627
  H        -1.87914          0.88152        -0.52562
9
 step=         326     theta[rad]=           3.4139
  C        -0.02069          0.01393         0.02976
  C         0.02012         -0.02500         1.34904
  H         0.90068         -0.07314        -0.53739
  H         0.94880          0.12488         1.89367
  H        -0.88027          0.05780         1.94238
  C        -1.28922          0.00368        -0.76728
  H        -1.08254         -0.00979        -1.83378
  H        -1.87029         -0.88438        -0.52047
  H        -1.90630          0.87273        -0.54141
9
 step=         327     theta[rad]=           3.4243
  C        -0.02069         -0.01994         0.02976
  C         0.02012          0.03580         1.34904
  H         0.90068          0.10473        -0.53739
  H         0.94880         -0.17884         1.89367
  H        -0.88027         -0.08277         1.94238
  C        -1.28922         -0.00527        -0.76728
  H        -1.08254          0.01402        -1.83378
  H        -1.91407         -0.87021        -0.54594
  H        -1.86251          0.88690        -0.51595
9
 step=         328     theta[rad]=           3.4348
  C        -0.02069          0.02450         0.02976
  C         0.02012         -0.04399         1.34904
  H         0.90068         -0.12869        -0.53739
  H         0.94880          0.21974         1.89367
  H        -0.88027          0.10170         1.94238
  C        -1.28922          0.00648        -0.76728
  H        -1.08254         -0.01722        -1.83378
  H        -1.85662         -0.88881        -0.51252
  H        -1.91997          0.86830        -0.54937
9
 step=         329     theta[rad]=           3.4453
  C        -0.02069         -0.02702         0.02976
  C         0.02012          0.04851         1.34904
  H         0.90068          0.14190        -0.53739
  H         0.94880         -0.24231         1.89367
  H        -0.88027         -0.11214         1.94238
  C        -1.28922         -0.00714        -0.76728
  H        -1.08254          0.01899        -1.83378
  H        -1.92322         -0.86725        -0.55126
  H        -1.85336          0.88986        -0.51062
9
 step=         330     theta[rad]=           3.4558
  C        -0.02069          0.02702         0.02976
  C         0.02012         -0.04851         1.34904
  H         0.90068         -0.14190        -0.53739
  H         0.94880          0.24231         1.89367
  H        -0.88027          0.11214         1.94238
  C        -1.28922          0.00714        -0.76728
  H        -1.08254         -0.01899        -1.83378
  H        -1.85336         -0.88986        -0.51062
  H        -1.92322          0.86725        -0.55126
9
 step=         331     theta[rad]=           3.4662
  C        -0.02069         -0.02424         0.02976
  C         0.02012          0.04352         1.34904
  H         0.90068          0.12732        -0.53739
  H         0.94880         -0.21741         1.89367
  H        -0.88027         -0.10062         1.94238
  C        -1.28922         -0.00641        -0.76728
  H        -1.08254          0.01704        -1.83378
  H        -1.91963         -0.86841        -0.54917
  H        -1.85695          0.88870        -0.51271
9
 step=         332     theta[rad]=           3.4767
  C        -0.02069          0.01873         0.02976
  C         0.02012         -0.03362         1.34904
  H         0.90068         -0.09835        -0.53739
  H         0.94880          0.16794         1.89367
  H        -0.88027          0.07772         1.94238
  C        -1.28922          0.00495        -0.76728
  H        -1.08254         -0.01316        -1.83378
  H        -1.86408         -0.88639        -0.51686
  H        -1.91250          0.87072        -0.54502
9
 step=         333     theta[rad]=           3.4872
  C        -0.02069         -0.01086         0.02976
  C         0.02012          0.01950         1.34904
  H         0.90068          0.05706        -0.53739
  H         0.94880         -0.09743         1.89367
  H        -0.88027         -0.04509         1.94238
  C        -1.28922         -0.00287        -0.76728
  H        -1.08254          0.00764        -1.83378
  H        -1.90234         -0.87401        -0.53911
  H        -1.87425          0.88310        -0.52277
9
 step=         334     theta[rad]=           3.4976
  C        -0.02069          0.00143         0.02976
  C         0.02012         -0.00257         1.34904
  H         0.90068         -0.00752        -0.53739
  H         0.94880          0.01284         1.89367
  H        -0.88027          0.00594         1.94238
  C        -1.28922          0.00038        -0.76728
  H        -1.08254         -0.00101        -1.83378
  H        -1.88644         -0.87915        -0.52987
  H        -1.89014          0.87795        -0.53202
9
 step=         335     theta[rad]=           3.5081
  C        -0.02069          0.00845         0.02976
  C         0.02012         -0.01518         1.34904
  H         0.90068         -0.04440        -0.53739
  H         0.94880          0.07581         1.89367
  H        -0.88027          0.03509         1.94238
  C        -1.28922          0.00223        -0.76728
  H        -1.08254         -0.00594        -1.83378
  H        -1.87737         -0.88209        -0.52459
  H        -1.89922          0.87502        -0.53730
9
 step=         336     theta[rad]=           3.5186
  C        -0.02069         -0.01744         0.02976
  C         0.02012          0.03131         1.34904
  H         0.90068          0.09158        -0.53739
  H         0.94880         -0.15638         1.89367
  H        -0.88027         -0.07237         1.94238
  C        -1.28922         -0.00461        -0.76728
  H        -1.08254          0.01226        -1.83378
  H        -1.91084         -0.87126        -0.54406
  H        -1.86575          0.88585        -0.51783
9
 step=         337     theta[rad]=           3.5291
  C        -0.02069          0.02411         0.02976
  C         0.02012         -0.04328         1.34904
  H         0.90068         -0.12662        -0.53739
  H         0.94880          0.21621         1.89367
  H        -0.88027          0.10006         1.94238
  C        -1.28922          0.00637        -0.76728
  H        -1.08254         -0.01695        -1.83378
  H        -1.85713         -0.88864        -0.51281
  H        -1.91946          0.86847        -0.54907
9
 step=         338     theta[rad]=           3.5395
  C        -0.02069         -0.02724         0.02976
  C         0.02012          0.04889         1.34904
  H         0.90068          0.14304        -0.53739
  H         0.94880         -0.24424         1.89367
  H        -0.88027         -0.11304         1.94238
  C        -1.28922         -0.00720        -0.76728
  H        -1.08254          0.01914        -1.83378
  H        -1.92350         -0.86716        -0.55142
  H        -1.85309          0.88995        -0.51046
9
 step=         339     theta[rad]=           3.5500
  C        -0.02069          0.02602         0.02976
  C         0.02012         -0.04671         1.34904
  H         0.90068         -0.13664        -0.53739
  H         0.94880          0.23332         1.89367
  H        -0.88027          0.10798         1.94238
  C        -1.28922          0.00688        -0.76728
  H        -1.08254         -0.01829        -1.83378
  H        -1.85466         -0.88944        -0.51138
  H        -1.92193          0.86767        -0.55051
9
 step=         340     theta[rad]=           3.5605
  C        -0.02069         -0.02033         0.02976
  C         0.02012          0.03650         1.34904
  H         0.90068          0.10677        -0.53739
  H         0.94880         -0.18231         1.89367
  H        -0.88027         -0.08438         1.94238
  C        -1.28922         -0.00537        -0.76728
  H        -1.08254          0.01429        -1.83378
  H        -1.91457         -0.87005        -0.54623
  H        -1.86201          0.88706        -0.51566
9
 step=         341     theta[rad]=           3.5709
  C        -0.02069          0.01086         0.02976
  C         0.02012         -0.01950         1.34904
  H         0.90068         -0.05706        -0.53739
  H         0.94880          0.09743         1.89367
  H        -0.88027          0.04509         1.94238
  C        -1.28922          0.00287        -0.76728
  H        -1.08254         -0.00764        -1.83378
  H        -1.87425         -0.88310        -0.52277
  H        -1.90234          0.87401        -0.53911
9
 step=         342     theta[rad]=           3.5814
  C        -0.02069          0.00086         0.02976
  C         0.02012         -0.00154         1.34904
  H         0.90068         -0.00451        -0.53739
  H         0.94880          0.00771         1.89367
  H        -0.88027          0.00357         1.94238
  C        -1.28922          0.00023        -0.76728
  H        -1.08254         -0.00060        -1.83378
  H        -1.88718         -0.87891        -0.53030
  H        -1.88940          0.87819        -0.53159
9
 step=         343     theta[rad]=           3.5919
  C        -0.02069         -0.01267         0.02976
  C         0.02012          0.02275         1.34904
  H         0.90068          0.06656        -0.53739
  H         0.94880         -0.11366         1.89367
  H        -0.88027         -0.05260         1.94238
  C        -1.28922         -0.00335        -0.76728
  H        -1.08254          0.00891        -1.83378
  H        -1.90468         -0.87325        -0.54047
  H        -1.87191          0.88386        -0.52141
9
 step=         344     theta[rad]=           3.6024
  C        -0.02069          0.02213         0.02976
  C         0.02012         -0.03973         1.34904
  H         0.90068         -0.11623        -0.53739
  H         0.94880          0.19848         1.89367
  H        -0.88027          0.09186         1.94238
  C        -1.28922          0.00585        -0.76728
  H        -1.08254         -0.01556        -1.83378
  H        -1.85968         -0.88781        -0.51430
  H        -1.91690          0.86929        -0.54759
9
 step=         345     theta[rad]=           3.6128
  C        -0.02069         -0.02702         0.02976
  C         0.02012          0.04851         1.34904
  H         0.90068          0.14190        -0.53739
  H         0.94880         -0.24231         1.89367
  H        -0.88027         -0.11214         1.94238
  C        -1.28922         -0.00714        -0.76728
  H        -1.08254          0.01899        -1.83378
  H        -1.92322         -0.86725        -0.55126
  H        -1.85336          0.88986        -0.51062
9
 step=         346     theta[rad]=           3.6233
  C        -0.02069          0.02593         0.02976
  C         0.02012         -0.04655         1.34904
  H         0.90068         -0.13617        -0.53739
  H         0.94880          0.23251         1.89367
  H        -0.88027          0.10761         1.94238
  C        -1.28922          0.00685        -0.76728
  H        -1.08254         -0.01822        -1.83378
  H        -1.85478         -0.88940        -0.51145
  H        -1.92181          0.86770        -0.55044
9
 step=         347     theta[rad]=           3.6338
  C        -0.02069         -0.01873         0.02976
  C         0.02012          0.03362         1.34904
  H         0.90068          0.09835        -0.53739
  H         0.94880         -0.16794         1.89367
  H        -0.88027         -0.07772         1.94238
  C        -1.28922         -0.00495        -0.76728
  H        -1.08254          0.01316        -1.83378
  H        -1.91250         -0.87072        -0.54502
  H        -1.86408          0.88639        -0.51686
9
 step=         348     theta[rad]=           3.6442
  C        -0.02069          0.00680         0.02976
  C         0.02012         -0.01221         1.34904
  H         0.90068         -0.03573        -0.53739
  H         0.94880          0.06101         1.89367
  H        -0.88027          0.02824         1.94238
  C        -1.28922          0.00180        -0.76728
  H        -1.08254         -0.00478        -1.83378
  H        -1.87950         -0.88140        -0.52583
  H        -1.89709          0.87571        -0.53606
9
 step=         349     theta[rad]=           3.6547
  C        -0.02069          0.00708         0.02976
  C         0.02012         -0.01271         1.34904
  H         0.90068         -0.03719        -0.53739
  H         0.94880          0.06350         1.89367
  H        -0.88027          0.02939         1.94238
  C        -1.28922          0.00187        -0.76728
  H        -1.08254         -0.00498        -1.83378
  H        -1.87914         -0.88152        -0.52562
  H        -1.89745          0.87559        -0.53627
9
 step=         350     theta[rad]=           3.6652
  C        -0.02069         -0.01934         0.02976
  C         0.02012          0.03473         1.34904
  H         0.90068          0.10159        -0.53739
  H         0.94880         -0.17347         1.89367
  H        -0.88027         -0.08028         1.94238
  C        -1.28922         -0.00511        -0.76728
  H        -1.08254          0.01360        -1.83378
  H        -1.91330         -0.87046        -0.54549
  H        -1.86329          0.88665        -0.51640
9
 step=         351     theta[rad]=           3.6757
  C        -0.02069          0.02650         0.02976
  C         0.02012         -0.04757         1.34904
  H         0.90068         -0.13916        -0.53739
  H         0.94880          0.23762         1.89367
  H        -0.88027          0.10997         1.94238
  C        -1.28922          0.00700        -0.76728
  H        -1.08254         -0.01862        -1.83378
  H        -1.85404         -0.88964        -0.51102
  H        -1.92255          0.86747        -0.55087
9
 step=         352     theta[rad]=           3.6861
  C        -0.02069         -0.02619         0.02976
  C         0.02012          0.04702         1.34904
  H         0.90068          0.13754        -0.53739
  H         0.94880         -0.23486         1.89367
  H        -0.88027         -0.10869         1.94238
  C        -1.28922         -0.00692        -0.76728
  H        -1.08254          0.01841        -1.83378
  H        -1.92215         -0.86760        -0.55064
  H        -1.85444          0.88951        -0.51125
9
 step=         353     theta[rad]=           3.6966
  C        -0.02069          0.01809         0.02976
  C         0.02012         -0.03248         1.34904
  H         0.90068         -0.09501        -0.53739
  H         0.94880          0.16224         1.89367
  H        -0.88027          0.07509         1.94238
  C        -1.28922          0.00478        -0.76728
  H        -1.08254         -0.01272        -1.83378
  H        -1.86491         -0.88612        -0.51734
  H        -1.91168          0.87098        -0.54455
9
 step=         354     theta[rad]=           3.7071
  C        -0.02069         -0.00428         0.02976
  C         0.02012          0.00768         1.34904
  H         0.90068          0.02248        -0.53739
  H         0.94880         -0.03838         1.89367
  H        -0.88027         -0.01776         1.94238
  C        -1.28922         -0.00113        -0.76728
  H        -1.08254          0.00301        -1.83378
  H        -1.89383         -0.87676        -0.53416
  H        -1.88276          0.88034        -0.52772
9
 step=         355     theta[rad]=           3.7176
  C        -0.02069         -0.01113         0.02976
  C         0.02012          0.01998         1.34904
  H         0.90068          0.05844        -0.53739
  H         0.94880         -0.09978         1.89367
  H        -0.88027         -0.04618         1.94238
  C        -1.28922         -0.00294        -0.76728
  H        -1.08254          0.00782        -1.83378
  H        -1.90268         -0.87390        -0.53931
  H        -1.87391          0.88321        -0.52258
9
 step=         356     theta[rad]=           3.7280
  C        -0.02069          0.02310         0.02976
  C         0.02012         -0.04147         1.34904
  H         0.90068         -0.12131        -0.53739
  H         0.94880          0.20714         1.89367
  H        -0.88027          0.09586         1.94238
  C        -1.28922          0.00611        -0.76728
  H        -1.08254         -0.01624        -1.83378
  H        -1.85843         -0.88822        -0.51357
  H        -1.91815          0.86889        -0.54831
9
 step=         357     theta[rad]=           3.7385
  C        -0.02069         -0.02734         0.02976
  C         0.02012          0.04909         1.34904
  H         0.90068          0.14360        -0.53739
  H         0.94880         -0.24521         1.89367
  H        -0.88027         -0.11348         1.94238
  C        -1.28922         -0.00723        -0.76728
  H        -1.08254          0.01922        -1.83378
  H        -1.92364         -0.86711        -0.55150
  H        -1.85295          0.88999        -0.51038
9
 step=         358     theta[rad]=           3.7490
  C        -0.02069          0.02196         0.02976
  C         0.02012         -0.03943         1.34904
  H         0.90068         -0.11534        -0.53739
  H         0.94880          0.19695         1.89367
  H        -0.88027          0.09115         1.94238
  C        -1.28922          0.00581        -0.76728
  H        -1.08254         -0.01544        -1.83378
  H        -1.85990         -0.88774        -0.51443
  H        -1.91668          0.86936        -0.54746
9
 step=         359     theta[rad]=           3.7594
  C        -0.02069         -0.00845         0.02976
  C         0.02012          0.01518         1.34904
  H         0.90068          0.04440        -0.53739
  H         0.94880         -0.07581         1.89367
  H        -0.88027         -0.03509         1.94238
  C        -1.28922         -0.00223        -0.76728
  H        -1.08254          0.00594        -1.83378
  H        -1.89922         -0.87502        -0.53730
  H        -1.87737          0.88209        -0.52459
9
 step=         360     theta[rad]=           3.7699
  C        -0.02069         -0.00845         0.02976
  C         0.02012          0.01518         1.34904
  H         0.90068          0.04440        -0.53739
  H         0.94880         -0.07581         1.89367
  H        -0.88027         -0.03509         1.94238
  C        -1.28922         -0.00223        -0.76728
  H        -1.08254          0.00594        -1.83378
  H        -1.89922         -0.87502        -0.53730
  H        -1.87737          0.88209        -0.52459
9
 step=         361     theta[rad]=           3.7804
  C        -0.02069          0.02230         0.02976
  C         0.02012         -0.04003         1.34904
  H         0.90068         -0.11711        -0.53739
  H         0.94880          0.19997         1.89367
  H        -0.88027          0.09255         1.94238
  C        -1.28922          0.00589        -0.76728
  H        -1.08254         -0.01567        -1.83378
  H        -1.85947         -0.88788        -0.51417
  H        -1.91712          0.86922        -0.54771
9
 step=         362     theta[rad]=           3.7909
  C        -0.02069         -0.02734         0.02976
  C         0.02012          0.04909         1.34904
  H         0.90068          0.14360        -0.53739
  H         0.94880         -0.24521         1.89367
  H        -0.88027         -0.11348         1.94238
  C        -1.28922         -0.00723        -0.76728
  H        -1.08254          0.01922        -1.83378
  H        -1.92364         -0.86711        -0.55150
  H        -1.85295          0.88999        -0.51038
9
 step=         363     theta[rad]=           3.8013
  C        -0.02069          0.02108         0.02976
  C         0.02012         -0.03784         1.34904
  H         0.90068         -0.11070        -0.53739
  H         0.94880          0.18903         1.89367
  H        -0.88027          0.08748         1.94238
  C        -1.28922          0.00557        -0.76728
  H        -1.08254         -0.01482        -1.83378
  H        -1.86104         -0.88737        -0.51509
  H        -1.91554          0.86973        -0.54679
9
 step=         364     theta[rad]=           3.8118
  C        -0.02069         -0.00569         0.02976
  C         0.02012          0.01021         1.34904
  H         0.90068          0.02987        -0.53739
  H         0.94880         -0.05101         1.89367
  H        -0.88027         -0.02361         1.94238
  C        -1.28922         -0.00150        -0.76728
  H        -1.08254          0.00400        -1.83378
  H        -1.89565         -0.87617        -0.53522
  H        -1.88094          0.88093        -0.52667
9
 step=         365     theta[rad]=           3.8223
  C        -0.02069         -0.01242         0.02976
  C         0.02012          0.02230         1.34904
  H         0.90068          0.06523        -0.53739
  H         0.94880         -0.11138         1.89367
  H        -0.88027         -0.05155         1.94238
  C        -1.28922         -0.00328        -0.76728
  H        -1.08254          0.00873        -1.83378
  H        -1.90435         -0.87336        -0.54028
  H        -1.87224          0.88375        -0.52160
9
 step=         366     theta[rad]=           3.8327
  C        -0.02069          0.02511         0.02976
  C         0.02012         -0.04507         1.34904
  H         0.90068         -0.13186        -0.53739
  H         0.94880          0.22515         1.89367
  H        -0.88027          0.10420         1.94238
  C        -1.28922          0.00664        -0.76728
  H        -1.08254         -0.01765        -1.83378
  H        -1.85584         -0.88906        -0.51206
  H        -1.92075          0.86805        -0.54982
9
 step=         367     theta[rad]=           3.8432
  C        -0.02069         -0.02619         0.02976
  C         0.02012          0.04702         1.34904
  H         0.90068          0.13754        -0.53739
  H         0.94880         -0.23486         1.89367
  H        -0.88027         -0.10869         1.94238
  C        -1.28922         -0.00692        -0.76728
  H        -1.08254          0.01841        -1.83378
  H        -1.92215         -0.86760        -0.55064
  H        -1.85444          0.88951        -0.51125
9
 step=         368     theta[rad]=           3.8537
  C        -0.02069          0.01466         0.02976
  C         0.02012         -0.02632         1.34904
  H         0.90068         -0.07698        -0.53739
  H         0.94880          0.13145         1.89367
  H        -0.88027          0.06084         1.94238
  C        -1.28922          0.00387        -0.76728
  H        -1.08254         -0.01030        -1.83378
  H        -1.86934         -0.88469        -0.51992
  H        -1.90724          0.87242        -0.54197
9
 step=         369     theta[rad]=           3.8642
  C        -0.02069          0.00428         0.02976
  C         0.02012         -0.00768         1.34904
  H         0.90068         -0.02248        -0.53739
  H         0.94880          0.03838         1.89367
  H        -0.88027          0.01776         1.94238
  C        -1.28922          0.00113        -0.76728
  H        -1.08254         -0.00301        -1.83378
  H        -1.88276         -0.88034        -0.52772
  H        -1.89383          0.87676        -0.53416
9
 step=         370     theta[rad]=           3.8746
  C        -0.02069         -0.02126         0.02976
  C         0.02012          0.03817         1.34904
  H         0.90068          0.11166        -0.53739
  H         0.94880         -0.19066         1.89367
  H        -0.88027         -0.08824         1.94238
  C        -1.28922         -0.00562        -0.76728
  H        -1.08254          0.01494        -1.83378
  H        -1.91578         -0.86966        -0.54693
  H        -1.86081          0.88745        -0.51496
9
 step=         371     theta[rad]=           3.8851
  C        -0.02069          0.02730         0.02976
  C         0.02012         -0.04902         1.34904
  H         0.90068         -0.14339        -0.53739
  H         0.94880          0.24484         1.89367
  H        -0.88027          0.11332         1.94238
  C        -1.28922          0.00722        -0.76728
  H        -1.08254         -0.01919        -1.83378
  H        -1.85300         -0.88998        -0.51041
  H        -1.92359          0.86713        -0.55147
9
 step=         372     theta[rad]=           3.8956
  C        -0.02069         -0.01873         0.02976
  C         0.02012          0.03362         1.34904
  H         0.90068          0.09835        -0.53739
  H         0.94880         -0.16794         1.89367
  H        -0.88027         -0.07772         1.94238
  C        -1.28922         -0.00495        -0.76728
  H        -1.08254          0.01316        -1.83378
  H        -1.91250         -0.87072        -0.54502
  H        -1.86408          0.88639        -0.51686
9
 step=         373     theta[rad]=           3.9060
  C        -0.02069         -0.00029         0.02976
  C         0.02012          0.00051         1.34904
  H         0.90068          0.00150        -0.53739
  H         0.94880         -0.00257         1.89367
  H        -0.88027         -0.00119         1.94238
  C        -1.28922         -0.00008        -0.76728
  H        -1.08254          0.00020        -1.83378
  H        -1.88866         -0.87843        -0.53116
  H        -1.88792          0.87867        -0.53073
9
 step=         374     theta[rad]=           3.9165
  C        -0.02069          0.01934         0.02976
  C         0.02012         -0.03473         1.34904
  H         0.90068         -0.10159        -0.53739
  H         0.94880          0.17347         1.89367
  H        -0.88027          0.08028         1.94238
  C        -1.28922          0.00511        -0.76728
  H        -1.08254         -0.01360        -1.83378
  H        -1.86329         -0.88665        -0.51640
  H        -1.91330          0.87046        -0.54549
9
 step=         375     theta[rad]=           3.9270
  C        -0.02069         -0.02736         0.02976
  C         0.02012          0.04911         1.34904
  H         0.90068          0.14367        -0.53739
  H         0.94880         -0.24533         1.89367
  H        -0.88027         -0.11354         1.94238
  C        -1.28922         -0.00723        -0.76728
  H        -1.08254          0.01923        -1.83378
  H        -1.92366         -0.86711        -0.55151
  H        -1.85293          0.89000        -0.51037
9
 step=         376     theta[rad]=           3.9375
  C        -0.02069          0.01914         0.02976
  C         0.02012         -0.03436         1.34904
  H         0.90068         -0.10052        -0.53739
  H         0.94880          0.17165         1.89367
  H        -0.88027          0.07944         1.94238
  C        -1.28922          0.00506        -0.76728
  H        -1.08254         -0.01345        -1.83378
  H        -1.86355         -0.88656        -0.51655
  H        -1.91304          0.87054        -0.54534
9
 step=         377     theta[rad]=           3.9479
  C        -0.02069          0.00086         0.02976
  C         0.02012         -0.00154         1.34904
  H         0.90068         -0.00451        -0.53739
  H         0.94880          0.00771         1.89367
  H        -0.88027          0.00357         1.94238
  C        -1.28922          0.00023        -0.76728
  H        -1.08254         -0.00060        -1.83378
  H        -1.88718         -0.87891        -0.53030
  H        -1.88940          0.87819        -0.53159
9
 step=         378     theta[rad]=           3.9584
  C        -0.02069         -0.02052         0.02976
  C         0.02012          0.03684         1.34904
  H         0.90068          0.10777        -0.53739
  H         0.94880         -0.18402         1.89367
  H        -0.88027         -0.08517         1.94238
  C        -1.28922         -0.00542        -0.76728
  H        -1.08254          0.01442        -1.83378
  H        -1.91482         -0.86997        -0.54637
  H        -1.86177          0.88714        -0.51551
9
 step=         379     theta[rad]=           3.9689
  C        -0.02069          0.02721         0.02976
  C         0.02012         -0.04884         1.34904
  H         0.90068         -0.14289        -0.53739
  H         0.94880          0.24398         1.89367
  H        -0.88027          0.11292         1.94238
  C        -1.28922          0.00719        -0.76728
  H        -1.08254         -0.01912        -1.83378
  H        -1.85312         -0.88994        -0.51048
  H        -1.92346          0.86717        -0.55140
9
 step=         380     theta[rad]=           3.9794
  C        -0.02069         -0.01608         0.02976
  C         0.02012          0.02887         1.34904
  H         0.90068          0.08445        -0.53739
  H         0.94880         -0.14420         1.89367
  H        -0.88027         -0.06674         1.94238
  C        -1.28922         -0.00425        -0.76728
  H        -1.08254          0.01130        -1.83378
  H        -1.90908         -0.87183        -0.54303
  H        -1.86751          0.88528        -0.51885
9
 step=         381     theta[rad]=           3.9898
  C        -0.02069         -0.00597         0.02976
  C         0.02012          0.01071         1.34904
  H         0.90068          0.03134        -0.53739
  H         0.94880         -0.05352         1.89367
  H        -0.88027         -0.02477         1.94238
  C        -1.28922         -0.00158        -0.76728
  H        -1.08254          0.00419        -1.83378
  H        -1.89601         -0.87606        -0.53543
  H        -1.88058          0.88105        -0.52646
9
 step=         382     theta[rad]=           4.0003
  C        -0.02069          0.02411         0.02976
  C         0.02012         -0.04328         1.34904
  H         0.90068         -0.12662        -0.53739
  H         0.94880          0.21621         1.89367
  H        -0.88027          0.10006         1.94238
  C        -1.28922          0.00637        -0.76728
  H        -1.08254         -0.01695        -1.83378
  H        -1.85713         -0.88864        -0.51281
  H        -1.91946          0.86847        -0.54907
9
 step=         383     theta[rad]=           4.0108
  C        -0.02069         -0.02544         0.02976
  C         0.02012          0.04566         1.34904
  H         0.90068          0.13358        -0.53739
  H         0.94880         -0.22810         1.89367
  H        -0.88027         -0.10557         1.94238
  C        -1.28922         -0.00672        -0.76728
  H        -1.08254          0.01788        -1.83378
  H        -1.92117         -0.86791        -0.55007
  H        -1.85541          0.88920        -0.51182
9
 step=         384     theta[rad]=           4.0212
  C        -0.02069          0.00845         0.02976
  C         0.02012         -0.01518         1.34904
  H         0.90068         -0.04440        -0.53739
  H         0.94880          0.07581         1.89367
  H        -0.88027          0.03509         1.94238
  C        -1.28922          0.00223        -0.76728
  H        -1.08254         -0.00594        -1.83378
  H        -1.87737         -0.88209        -0.52459
  H        -1.89922          0.87502        -0.53730
9
 step=         385     theta[rad]=           4.0317
  C        -0.02069          0.01490         0.02976
  C         0.02012         -0.02675         1.34904
  H         0.90068         -0.07825        -0.53739
  H         0.94880          0.13362         1.89367
  H        -0.88027          0.06184         1.94238
  C        -1.28922          0.00394        -0.76728
  H        -1.08254         -0.01047        -1.83378
  H        -1.86903         -0.88479        -0.51974
  H        -1.90755          0.87232        -0.54215
9
 step=         386     theta[rad]=           4.0422
  C        -0.02069         -0.02724         0.02976
  C         0.02012          0.04889         1.34904
  H         0.90068          0.14304        -0.53739
  H         0.94880         -0.24424         1.89367
  H        -0.88027         -0.11304         1.94238
  C        -1.28922         -0.00720        -0.76728
  H        -1.08254          0.01914        -1.83378
  H        -1.92350         -0.86716        -0.55142
  H        -1.85309          0.88995        -0.51046
9
 step=         387     theta[rad]=           4.0527
  C        -0.02069          0.01873         0.02976
  C         0.02012         -0.03362         1.34904
  H         0.90068         -0.09835        -0.53739
  H         0.94880          0.16794         1.89367
  H        -0.88027          0.07772         1.94238
  C        -1.28922          0.00495        -0.76728
  H        -1.08254         -0.01316        -1.83378
  H        -1.86408         -0.88639        -0.51686
  H        -1.91250          0.87072        -0.54502
9
 step=         388     theta[rad]=           4.0631
  C        -0.02069          0.00456         0.02976
  C         0.02012         -0.00819         1.34904
  H         0.90068         -0.02396        -0.53739
  H         0.94880          0.04091         1.89367
  H        -0.88027          0.01893         1.94238
  C        -1.28922          0.00121        -0.76728
  H        -1.08254         -0.00321        -1.83378
  H        -1.88240         -0.88046        -0.52751
  H        -1.89419          0.87664        -0.53437
9
 step=         389     theta[rad]=           4.0736
  C        -0.02069         -0.02437         0.02976
  C         0.02012          0.04376         1.34904
  H         0.90068          0.12801        -0.53739
  H         0.94880         -0.21859         1.89367
  H        -0.88027         -0.10116         1.94238
  C        -1.28922         -0.00644        -0.76728
  H        -1.08254          0.01713        -1.83378
  H        -1.91980         -0.86835        -0.54927
  H        -1.85678          0.88875        -0.51261
9
 step=         390     theta[rad]=           4.0841
  C        -0.02069          0.02437         0.02976
  C         0.02012         -0.04376         1.34904
  H         0.90068         -0.12801        -0.53739
  H         0.94880          0.21859         1.89367
  H        -0.88027          0.10116         1.94238
  C        -1.28922          0.00644        -0.76728
  H        -1.08254         -0.01713        -1.83378
  H        -1.85678         -0.88875        -0.51261
  H        -1.91980          0.86835        -0.54927
9
 step=         391     theta[rad]=           4.0945
  C        -0.02069         -0.00400         0.02976
  C         0.02012          0.00717         1.34904
  H         0.90068          0.02099        -0.53739
  H         0.94880         -0.03584         1.89367
  H        -0.88027         -0.01659         1.94238
  C        -1.28922         -0.00106        -0.76728
  H        -1.08254          0.00281        -1.83378
  H        -1.89346         -0.87688        -0.53395
  H        -1.88313          0.88023        -0.52794
9
 step=         392     theta[rad]=           4.1050
  C        -0.02069         -0.01994         0.02976
  C         0.02012          0.03580         1.34904
  H         0.90068          0.10473        -0.53739
  H         0.94880         -0.17884         1.89367
  H        -0.88027         -0.08277         1.94238
  C        -1.28922         -0.00527        -0.76728
  H        -1.08254          0.01402        -1.83378
  H        -1.91407         -0.87021        -0.54594
  H        -1.86251          0.88690        -0.51595
9
 step=         393     theta[rad]=           4.1155
  C        -0.02069          0.02670         0.02976
  C         0.02012         -0.04793         1.34904
  H         0.90068         -0.14021        -0.53739
  H         0.94880          0.23942         1.89367
  H        -0.88027          0.11081         1.94238
  C        -1.28922          0.00706        -0.76728
  H        -1.08254         -0.01877        -1.83378
  H        -1.85378         -0.88972        -0.51087
  H        -1.92281          0.86738        -0.55102
9
 step=         394     theta[rad]=           4.1260
  C        -0.02069         -0.00980         0.02976
  C         0.02012          0.01760         1.34904
  H         0.90068          0.05149        -0.53739
  H         0.94880         -0.08792         1.89367
  H        -0.88027         -0.04069         1.94238
  C        -1.28922         -0.00259        -0.76728
  H        -1.08254          0.00689        -1.83378
  H        -1.90097         -0.87445        -0.53831
  H        -1.87562          0.88266        -0.52357
9
 step=         395     theta[rad]=           4.1364
  C        -0.02069         -0.01608         0.02976
  C         0.02012          0.02887         1.34904
  H         0.90068          0.08445        -0.53739
  H         0.94880         -0.14420         1.89367
  H        -0.88027         -0.06674         1.94238
  C        -1.28922         -0.00425        -0.76728
  H        -1.08254          0.01130        -1.83378
  H        -1.90908         -0.87183        -0.54303
  H        -1.86751          0.88528        -0.51885
9
 step=         396     theta[rad]=           4.1469
  C        -0.02069          0.02730         0.02976
  C         0.02012         -0.04902         1.34904
  H         0.90068         -0.14339        -0.53739
  H         0.94880          0.24484         1.89367
  H        -0.88027          0.11332         1.94238
  C        -1.28922          0.00722        -0.76728
  H        -1.08254         -0.01919        -1.83378
  H        -1.85300         -0.88998        -0.51041
  H        -1.92359          0.86713        -0.55147
9
 step=         397     theta[rad]=           4.1574
  C        -0.02069         -0.01293         0.02976
  C         0.02012          0.02321         1.34904
  H         0.90068          0.06789        -0.53739
  H         0.94880         -0.11593         1.89367
  H        -0.88027         -0.05365         1.94238
  C        -1.28922         -0.00342        -0.76728
  H        -1.08254          0.00909        -1.83378
  H        -1.90500         -0.87314        -0.54066
  H        -1.87158          0.88396        -0.52122
9
 step=         398     theta[rad]=           4.1678
  C        -0.02069         -0.01393         0.02976
  C         0.02012          0.02500         1.34904
  H         0.90068          0.07314        -0.53739
  H         0.94880         -0.12488         1.89367
  H        -0.88027         -0.05780         1.94238
  C        -1.28922         -0.00368        -0.76728
  H        -1.08254          0.00979        -1.83378
  H        -1.90630         -0.87273        -0.54141
  H        -1.87029          0.88438        -0.52047
9
 step=         399     theta[rad]=           4.1783
  C        -0.02069          0.02736         0.02976
  C         0.02012         -0.04911         1.34904
  H         0.90068         -0.14367        -0.53739
  H         0.94880          0.24533         1.89367
  H        -0.88027          0.11354         1.94238
  C        -1.28922          0.00723        -0.76728
  H        -1.08254         -0.01923        -1.83378
  H        -1.85293         -0.89000        -0.51037
  H        -1.92366          0.86711        -0.55151
9
 step=         400     theta[rad]=           4.1888
  C        -0.02069         -0.01368         0.02976
  C         0.02012          0.02456         1.34904
  H         0.90068          0.07184        -0.53739
  H         0.94880         -0.12266         1.89367
  H        -0.88027         -0.05677         1.94238
  C        -1.28922         -0.00362        -0.76728
  H        -1.08254          0.00961        -1.83378
  H        -1.90598         -0.87283        -0.54123
  H        -1.87061          0.88428        -0.52066
9
 step=         401     theta[rad]=           4.1993
  C        -0.02069         -0.01393         0.02976
  C         0.02012          0.02500         1.34904
  H         0.90068          0.07314        -0.53739
  H         0.94880         -0.12488         1.89367
  H        -0.88027         -0.05780         1.94238
  C        -1.28922         -0.00368        -0.76728
  H        -1.08254          0.00979        -1.83378
  H        -1.90630         -0.87273        -0.54141
  H        -1.87029          0.88438        -0.52047
9
 step=         402     theta[rad]=           4.2097
  C        -0.02069          0.02734         0.02976
  C         0.02012         -0.04909         1.34904
  H         0.90068         -0.14360        -0.53739
  H         0.94880          0.24521         1.89367
  H        -0.88027          0.11348         1.94238
  C        -1.28922          0.00723        -0.76728
  H        -1.08254         -0.01922        -1.83378
  H        -1.85295         -0.88999        -0.51038
  H        -1.92364          0.86711        -0.55150
9
 step=         403     theta[rad]=           4.2202
  C        -0.02069         -0.01216         0.02976
  C         0.02012          0.02184         1.34904
  H         0.90068          0.06388        -0.53739
  H         0.94880         -0.10908         1.89367
  H        -0.88027         -0.05048         1.94238
  C        -1.28922         -0.00322        -0.76728
  H        -1.08254          0.00855        -1.83378
  H        -1.90402         -0.87346        -0.54009
  H        -1.87257          0.88364        -0.52180
9
 step=         404     theta[rad]=           4.2307
  C        -0.02069         -0.01608         0.02976
  C         0.02012          0.02887         1.34904
  H         0.90068          0.08445        -0.53739
  H         0.94880         -0.14420         1.89367
  H        -0.88027         -0.06674         1.94238
  C        -1.28922         -0.00425        -0.76728
  H        -1.08254          0.01130        -1.83378
  H        -1.90908         -0.87183        -0.54303
  H        -1.86751          0.88528        -0.51885
9
 step=         405     theta[rad]=           4.2412
  C        -0.02069          0.02702         0.02976
  C         0.02012         -0.04851         1.34904
  H         0.90068         -0.14190        -0.53739
  H         0.94880          0.24231         1.89367
  H        -0.88027          0.11214         1.94238
  C        -1.28922          0.00714        -0.76728
  H        -1.08254         -0.01899        -1.83378
  H        -1.85336         -0.88986        -0.51062
  H        -1.92322          0.86725        -0.55126
9
 step=         406     theta[rad]=           4.2516
  C        -0.02069         -0.00818         0.02976
  C         0.02012          0.01469         1.34904
  H         0.90068          0.04296        -0.53739
  H         0.94880         -0.07336         1.89367
  H        -0.88027         -0.03395         1.94238
  C        -1.28922         -0.00216        -0.76728
  H        -1.08254          0.00575        -1.83378
  H        -1.89887         -0.87513        -0.53709
  H        -1.87772          0.88198        -0.52479
9
 step=         407     theta[rad]=           4.2621
  C        -0.02069         -0.01994         0.02976
  C         0.02012          0.03580         1.34904
  H         0.90068          0.10473        -0.53739
  H         0.94880         -0.17884         1.89367
  H        -0.88027         -0.08277         1.94238
  C        -1.28922         -0.00527        -0.76728
  H        -1.08254          0.01402        -1.83378
  H        -1.91407         -0.87021        -0.54594
  H        -1.86251          0.88690        -0.51595
9
 step=         408     theta[rad]=           4.2726
  C        -0.02069          0.02544         0.02976
  C         0.02012         -0.04566         1.34904
  H         0.90068         -0.13358        -0.53739
  H         0.94880          0.22810         1.89367
  H        -0.88027          0.10557         1.94238
  C        -1.28922          0.00672        -0.76728
  H        -1.08254         -0.01788        -1.83378
  H        -1.85541         -0.88920        -0.51182
  H        -1.92117          0.86791        -0.55007
9
 step=         409     theta[rad]=           4.2830
  C        -0.02069         -0.00143         0.02976
  C         0.02012          0.00257         1.34904
  H         0.90068          0.00752        -0.53739
  H         0.94880         -0.01284         1.89367
  H        -0.88027         -0.00594         1.94238
  C        -1.28922         -0.00038        -0.76728
  H        -1.08254          0.00101        -1.83378
  H        -1.89014         -0.87795        -0.53202
  H        -1.88644          0.87915        -0.52987
9
 step=         410     theta[rad]=           4.2935
  C        -0.02069         -0.02437         0.02976
  C         0.02012          0.04376         1.34904
  H         0.90068          0.12801        -0.53739
  H         0.94880         -0.21859         1.89367
  H        -0.88027         -0.10116         1.94238
  C        -1.28922         -0.00644        -0.76728
  H        -1.08254          0.01713        -1.83378
  H        -1.91980         -0.86835        -0.54927
  H        -1.85678          0.88875        -0.51261
9
 step=         411     theta[rad]=           4.3040
  C        -0.02069          0.02108         0.02976
  C         0.02012         -0.03784         1.34904
  H         0.90068         -0.11070        -0.53739
  H         0.94880          0.18903         1.89367
  H        -0.88027          0.08748         1.94238
  C        -1.28922          0.00557        -0.76728
  H        -1.08254         -0.01482        -1.83378
  H        -1.86104         -0.88737        -0.51509
  H        -1.91554          0.86973        -0.54679
9
 step=         412     theta[rad]=           4.3145
  C        -0.02069          0.00791         0.02976
  C         0.02012         -0.01420         1.34904
  H         0.90068         -0.04153        -0.53739
  H         0.94880          0.07091         1.89367
  H        -0.88027          0.03282         1.94238
  C        -1.28922          0.00209        -0.76728
  H        -1.08254         -0.00556        -1.83378
  H        -1.87807         -0.88186        -0.52500
  H        -1.89851          0.87525        -0.53689
9
 step=         413     theta[rad]=           4.3249
  C        -0.02069         -0.02724         0.02976
  C         0.02012          0.04889         1.34904
  H         0.90068          0.14304        -0.53739
  H         0.94880         -0.24424         1.89367
  H        -0.88027         -0.11304         1.94238
  C        -1.28922         -0.00720        -0.76728
  H        -1.08254          0.01914        -1.83378
  H        -1.92350         -0.86716        -0.55142
  H        -1.85309          0.88995        -0.51046
9
 step=         414     theta[rad]=           4.3354
  C        -0.02069          0.01242         0.02976
  C         0.02012         -0.02230         1.34904
  H         0.90068         -0.06523        -0.53739
  H         0.94880          0.11138         1.89367
  H        -0.88027          0.05155         1.94238
  C        -1.28922          0.00328        -0.76728
  H        -1.08254         -0.00873        -1.83378
  H        -1.87224         -0.88375        -0.52160
  H        -1.90435          0.87336        -0.54028
9
 step=         415     theta[rad]=           4.3459
  C        -0.02069          0.01831         0.02976
  C         0.02012         -0.03286         1.34904
  H         0.90068         -0.09614        -0.53739
  H         0.94880          0.16416         1.89367
  H        -0.88027          0.07597         1.94238
  C        -1.28922          0.00484        -0.76728
  H        -1.08254         -0.01287        -1.83378
  H        -1.86463         -0.88621        -0.51718
  H        -1.91196          0.87089        -0.54471
9
 step=         416     theta[rad]=           4.3563
  C        -0.02069         -0.02544         0.02976
  C         0.02012          0.04566         1.34904
  H         0.90068          0.13358        -0.53739
  H         0.94880         -0.22810         1.89367
  H        -0.88027         -0.10557         1.94238
  C        -1.28922         -0.00672        -0.76728
  H        -1.08254          0.01788        -1.83378
  H        -1.92117         -0.86791        -0.55007
  H        -1.85541          0.88920        -0.51182
9
 step=         417     theta[rad]=           4.3668
  C        -0.02069         -0.00086         0.02976
  C         0.02012          0.00154         1.34904
  H         0.90068          0.00451        -0.53739
  H         0.94880         -0.00771         1.89367
  H        -0.88027         -0.00357         1.94238
  C        -1.28922         -0.00023        -0.76728
  H        -1.08254          0.00060        -1.83378
  H        -1.88940         -0.87819        -0.53159
  H        -1.88718          0.87891        -0.53030
9
 step=         418     theta[rad]=           4.3773
  C        -0.02069          0.02610         0.02976
  C         0.02012         -0.04687         1.34904
  H         0.90068         -0.13710        -0.53739
  H         0.94880          0.23410         1.89367
  H        -0.88027          0.10834         1.94238
  C        -1.28922          0.00690        -0.76728
  H        -1.08254         -0.01835        -1.83378
  H        -1.85455         -0.88948        -0.51131
  H        -1.92204          0.86763        -0.55057
9
 step=         419     theta[rad]=           4.3878
  C        -0.02069         -0.01608         0.02976
  C         0.02012          0.02887         1.34904
  H         0.90068          0.08445        -0.53739
  H         0.94880         -0.14420         1.89367
  H        -0.88027         -0.06674         1.94238
  C        -1.28922         -0.00425        -0.76728
  H        -1.08254          0.01130        -1.83378
  H        -1.90908         -0.87183        -0.54303
  H        -1.86751          0.88528        -0.51885
9
 step=         420     theta[rad]=           4.3982
  C        -0.02069         -0.01608         0.02976
  C         0.02012          0.02887         1.34904
  H         0.90068          0.08445        -0.53739
  H         0.94880         -0.14420         1.89367
  H        -0.88027         -0.06674         1.94238
  C        -1.28922         -0.00425        -0.76728
  H        -1.08254          0.01130        -1.83378
  H        -1.90908         -0.87183        -0.54303
  H        -1.86751          0.88528        -0.51885
9
 step=         421     theta[rad]=           4.4087
  C        -0.02069          0.02593         0.02976
  C         0.02012         -0.04655         1.34904
  H         0.90068         -0.13617        -0.53739
  H         0.94880          0.23251         1.89367
  H        -0.88027          0.10761         1.94238
  C        -1.28922          0.00685        -0.76728
  H        -1.08254         -0.01822        -1.83378
  H        -1.85478         -0.88940        -0.51145
  H        -1.92181          0.86770        -0.55044
9
 step=         422     theta[rad]=           4.4192
  C        -0.02069          0.00086         0.02976
  C         0.02012         -0.00154         1.34904
  H         0.90068         -0.00451        -0.53739
  H         0.94880          0.00771         1.89367
  H        -0.88027          0.00357         1.94238
  C        -1.28922          0.00023        -0.76728
  H        -1.08254         -0.00060        -1.83378
  H        -1.88718         -0.87891        -0.53030
  H        -1.88940          0.87819        -0.53159
9
 step=         423     theta[rad]=           4.4296
  C        -0.02069         -0.02650         0.02976
  C         0.02012          0.04757         1.34904
  H         0.90068          0.13916        -0.53739
  H         0.94880         -0.23762         1.89367
  H        -0.88027         -0.10997         1.94238
  C        -1.28922         -0.00700        -0.76728
  H        -1.08254          0.01862        -1.83378
  H        -1.92255         -0.86747        -0.55087
  H        -1.85404          0.88964        -0.51102
9
 step=         424     theta[rad]=           4.4401
  C        -0.02069          0.01368         0.02976
  C         0.02012         -0.02456         1.34904
  H         0.90068         -0.07184        -0.53739
  H         0.94880          0.12266         1.89367
  H        -0.88027          0.05677         1.94238
  C        -1.28922          0.00362        -0.76728
  H        -1.08254         -0.00961        -1.83378
  H        -1.87061         -0.88428        -0.52066
  H        -1.90598          0.87283        -0.54123
9
 step=         425     theta[rad]=           4.4506
  C        -0.02069          0.01934         0.02976
  C         0.02012         -0.03473         1.34904
  H         0.90068         -0.10159        -0.53739
  H         0.94880          0.17347         1.89367
  H        -0.88027          0.08028         1.94238
  C        -1.28922          0.00511        -0.76728
  H        -1.08254         -0.01360        -1.83378
  H        -1.86329         -0.88665        -0.51640
  H        -1.91330          0.87046        -0.54549
9
 step=         426     theta[rad]=           4.4611
  C        -0.02069         -0.02355         0.02976
  C         0.02012          0.04227         1.34904
  H         0.90068          0.12367        -0.53739
  H         0.94880         -0.21116         1.89367
  H        -0.88027         -0.09773         1.94238
  C        -1.28922         -0.00622        -0.76728
  H        -1.08254          0.01655        -1.83378
  H        -1.91873         -0.86870        -0.54865
  H        -1.85785          0.88841        -0.51324
9
 step=         427     theta[rad]=           4.4715
  C        -0.02069         -0.00791         0.02976
  C         0.02012          0.01420         1.34904
  H         0.90068          0.04153        -0.53739
  H         0.94880         -0.07091         1.89367
  H        -0.88027         -0.03282         1.94238
  C        -1.28922         -0.00209        -0.76728
  H        -1.08254          0.00556        -1.83378
  H        -1.89851         -0.87525        -0.53689
  H        -1.87807          0.88186        -0.52500
9
 step=         428     theta[rad]=           4.4820
  C        -0.02069          0.02730         0.02976
  C         0.02012         -0.04902         1.34904
  H         0.90068         -0.14339        -0.53739
  H         0.94880          0.24484         1.89367
  H        -0.88027          0.11332         1.94238
  C        -1.28922          0.00722        -0.76728
  H        -1.08254         -0.01919        -1.83378
  H        -1.85300         -0.88998        -0.51041
  H        -1.92359          0.86713        -0.55147
9
 step=         429     theta[rad]=           4.4925
  C        -0.02069         -0.00428         0.02976
  C         0.02012          0.00768         1.34904
  H         0.90068          0.02248        -0.53739
  H         0.94880         -0.03838         1.89367
  H        -0.88027         -0.01776         1.94238
  C        -1.28922         -0.00113        -0.76728
  H        -1.08254          0.00301        -1.83378
  H        -1.89383         -0.87676        -0.53416
  H        -1.88276          0.88034        -0.52772
9
 step=         430     theta[rad]=           4.5029
  C        -0.02069         -0.02554         0.02976
  C         0.02012          0.04585         1.34904
  H         0.90068          0.13413        -0.53739
  H         0.94880         -0.22903         1.89367
  H        -0.88027         -0.10600         1.94238
  C        -1.28922         -0.00675        -0.76728
  H        -1.08254          0.01795        -1.83378
  H        -1.92131         -0.86787        -0.55015
  H        -1.85528          0.88924        -0.51174
9
 step=         431     theta[rad]=           4.5134
  C        -0.02069          0.01466         0.02976
  C         0.02012         -0.02632         1.34904
  H         0.90068         -0.07698        -0.53739
  H         0.94880          0.13145         1.89367
  H        -0.88027          0.06084         1.94238
  C        -1.28922          0.00387        -0.76728
  H        -1.08254         -0.01030        -1.83378
  H        -1.86934         -0.88469        -0.51992
  H        -1.90724          0.87242        -0.54197
9
 step=         432     theta[rad]=           4.5239
  C        -0.02069          0.01994         0.02976
  C         0.02012         -0.03580         1.34904
  H         0.90068         -0.10473        -0.53739
  H         0.94880          0.17884         1.89367
  H        -0.88027          0.08277         1.94238
  C        -1.28922          0.00527        -0.76728
  H        -1.08254         -0.01402        -1.83378
  H        -1.86251         -0.88690        -0.51595
  H        -1.91407          0.87021        -0.54594
9
 step=         433     theta[rad]=           4.5344
  C        -0.02069         -0.02196         0.02976
  C         0.02012          0.03943         1.34904
  H         0.90068          0.11534        -0.53739
  H         0.94880         -0.19695         1.89367
  H        -0.88027         -0.09115         1.94238
  C        -1.28922         -0.00581        -0.76728
  H        -1.08254          0.01544        -1.83378
  H        -1.91668         -0.86936        -0.54746
  H        -1.85990          0.88774        -0.51443
9
 step=         434     theta[rad]=           4.5448
  C        -0.02069         -0.01242         0.02976
  C         0.02012          0.02230         1.34904
  H         0.90068          0.06523        -0.53739
  H         0.94880         -0.11138         1.89367
  H        -0.88027         -0.05155         1.94238
  C        -1.28922         -0.00328        -0.76728
  H        -1.08254          0.00873        -1.83378
  H        -1.90435         -0.87336        -0.54028
  H        -1.87224          0.88375        -0.52160
9
 step=         435     theta[rad]=           4.5553
  C        -0.02069          0.02602         0.02976
  C         0.02012         -0.04671         1.34904
  H         0.90068         -0.13664        -0.53739
  H         0.94880          0.23332         1.89367
  H        -0.88027          0.10798         1.94238
  C        -1.28922          0.00688        -0.76728
  H        -1.08254         -0.01829        -1.83378
  H        -1.85466         -0.88944        -0.51138
  H        -1.92193          0.86767        -0.55051
9
 step=         436     theta[rad]=           4.5658
  C        -0.02069          0.00456         0.02976
  C         0.02012         -0.00819         1.34904
  H         0.90068         -0.02396        -0.53739
  H         0.94880          0.04091         1.89367
  H        -0.88027          0.01893         1.94238
  C        -1.28922          0.00121        -0.76728
  H        -1.08254         -0.00321        -1.83378
  H        -1.88240         -0.88046        -0.52751
  H        -1.89419          0.87664        -0.53437
9
 step=         437     theta[rad]=           4.5763
  C        -0.02069         -0.02734         0.02976
  C         0.02012          0.04909         1.34904
  H         0.90068          0.14360        -0.53739
  H         0.94880         -0.24521         1.89367
  H        -0.88027         -0.11348         1.94238
  C        -1.28922         -0.00723        -0.76728
  H        -1.08254          0.01922        -1.83378
  H        -1.92364         -0.86711        -0.55150
  H        -1.85295          0.88999        -0.51038
9
 step=         438     theta[rad]=           4.5867
  C        -0.02069          0.00257         0.02976
  C         0.02012         -0.00462         1.34904
  H         0.90068         -0.01352        -0.53739
  H         0.94880          0.02309         1.89367
  H        -0.88027          0.01069         1.94238
  C        -1.28922          0.00068        -0.76728
  H        -1.08254         -0.00181        -1.83378
  H        -1.88497         -0.87963        -0.52901
  H        -1.89162          0.87748        -0.53288
9
 step=         439     theta[rad]=           4.5972
  C        -0.02069          0.02676         0.02976
  C         0.02012         -0.04804         1.34904
  H         0.90068         -0.14053        -0.53739
  H         0.94880          0.23997         1.89367
  H        -0.88027          0.11106         1.94238
  C        -1.28922          0.00707        -0.76728
  H        -1.08254         -0.01881        -1.83378
  H        -1.85370         -0.88975        -0.51082
  H        -1.92289          0.86736        -0.55106
9
 step=         440     theta[rad]=           4.6077
  C        -0.02069         -0.00845         0.02976
  C         0.02012          0.01518         1.34904
  H         0.90068          0.04440        -0.53739
  H         0.94880         -0.07581         1.89367
  H        -0.88027         -0.03509         1.94238
  C        -1.28922         -0.00223        -0.76728
  H        -1.08254          0.00594        -1.83378
  H        -1.89922         -0.87502        -0.53730
  H        -1.87737          0.88209        -0.52459
9
 step=         441     theta[rad]=           4.6181
  C        -0.02069         -0.02511         0.02976
  C         0.02012          0.04507         1.34904
  H         0.90068          0.13186        -0.53739
  H         0.94880         -0.22515         1.89367
  H        -0.88027         -0.10420         1.94238
  C        -1.28922         -0.00664        -0.76728
  H        -1.08254          0.01765        -1.83378
  H        -1.92075         -0.86805        -0.54982
  H        -1.85584          0.88906        -0.51206
9
 step=         442     theta[rad]=           4.6286
  C        -0.02069          0.01293         0.02976
  C         0.02012         -0.02321         1.34904
  H         0.90068         -0.06789        -0.53739
  H         0.94880          0.11593         1.89367
  H        -0.88027          0.05365         1.94238
  C        -1.28922          0.00342        -0.76728
  H        -1.08254         -0.00909        -1.83378
  H        -1.87158         -0.88396        -0.52122
  H        -1.90500          0.87314        -0.54066
9
 step=         443     theta[rad]=           4.6391
  C        -0.02069          0.02310         0.02976
  C         0.02012         -0.04147         1.34904
  H         0.90068         -0.12131        -0.53739
  H         0.94880          0.20714         1.89367
  H        -0.88027          0.09586         1.94238
  C        -1.28922          0.00611        -0.76728
  H        -1.08254         -0.01624        -1.83378
  H        -1.85843         -0.88822        -0.51357
  H        -1.91815          0.86889        -0.54831
9
 step=         444     theta[rad]=           4.6496
  C        -0.02069         -0.01608         0.02976
  C         0.02012          0.02887         1.34904
  H         0.90068          0.08445        -0.53739
  H         0.94880         -0.14420         1.89367
  H        -0.88027         -0.06674         1.94238
  C        -1.28922         -0.00425        -0.76728
  H        -1.08254          0.01130        -1.83378
  H        -1.90908         -0.87183        -0.54303
  H        -1.86751          0.88528        -0.51885
9
 step=         445     theta[rad]=           4.6600
  C        -0.02069         -0.02126         0.02976
  C         0.02012          0.03817         1.34904
  H         0.90068          0.11166        -0.53739
  H         0.94880         -0.19066         1.89367
  H        -0.88027         -0.08824         1.94238
  C        -1.28922         -0.00562        -0.76728
  H        -1.08254          0.01494        -1.83378
  H        -1.91578         -0.86966        -0.54693
  H        -1.86081          0.88745        -0.51496
9
 step=         446     theta[rad]=           4.6705
  C        -0.02069          0.01809         0.02976
  C         0.02012         -0.03248         1.34904
  H         0.90068         -0.09501        -0.53739
  H         0.94880          0.16224         1.89367
  H        -0.88027          0.07509         1.94238
  C        -1.28922          0.00478        -0.76728
  H        -1.08254         -0.01272        -1.83378
  H        -1.86491         -0.88612        -0.51734
  H        -1.91168          0.87098        -0.54455
9
 step=         447     theta[rad]=           4.6810
  C        -0.02069          0.01994         0.02976
  C         0.02012         -0.03580         1.34904
  H         0.90068         -0.10473        -0.53739
  H         0.94880          0.17884         1.89367
  H        -0.88027          0.08277         1.94238
  C        -1.28922          0.00527        -0.76728
  H        -1.08254         -0.01402        -1.83378
  H        -1.86251         -0.88690        -0.51595
  H        -1.91407          0.87021        -0.54594
9
 step=         448     theta[rad]=           4.6914
  C        -0.02069         -0.01914         0.02976
  C         0.02012          0.03436         1.34904
  H         0.90068          0.10052        -0.53739
  H         0.94880         -0.17165         1.89367
  H        -0.88027         -0.07944         1.94238
  C        -1.28922         -0.00506        -0.76728
  H        -1.08254          0.01345        -1.83378
  H        -1.91304         -0.87054        -0.54534
  H        -1.86355          0.88656        -0.51655
9
 step=         449     theta[rad]=           4.7019
  C        -0.02069         -0.01934         0.02976
  C         0.02012          0.03473         1.34904
  H         0.90068          0.10159        -0.53739
  H         0.94880         -0.17347         1.89367
  H        -0.88027         -0.08028         1.94238
  C        -1.28922         -0.00511        -0.76728
  H        -1.08254          0.01360        -1.83378
  H        -1.91330         -0.87046        -0.54549
  H        -1.86329          0.88665        -0.51640
9
 step=         450     theta[rad]=           4.7124
  C        -0.02069          0.01934         0.02976
  C         0.02012         -0.03473         1.34904
  H         0.90068         -0.10159        -0.53739
  H         0.94880          0.17347         1.89367
  H        -0.88027          0.08028         1.94238
  C        -1.28922          0.00511        -0.76728
  H        -1.08254         -0.01360        -1.83378
  H        -1.86329         -0.88665        -0.51640
  H        -1.91330          0.87046        -0.54549
9
 step=         451     theta[rad]=           4.7229
  C        -0.02069          0.01955         0.02976
  C         0.02012         -0.03509         1.34904
  H         0.90068         -0.10265        -0.53739
  H         0.94880          0.17528         1.89367
  H        -0.88027          0.08112         1.94238
  C        -1.28922          0.00517        -0.76728
  H        -1.08254         -0.01374        -1.83378
  H        -1.86303         -0.88673        -0.51624
  H        -1.91356          0.87038        -0.54564
9
 step=         452     theta[rad]=           4.7333
  C        -0.02069         -0.01873         0.02976
  C         0.02012          0.03362         1.34904
  H         0.90068          0.09835        -0.53739
  H         0.94880         -0.16794         1.89367
  H        -0.88027         -0.07772         1.94238
  C        -1.28922         -0.00495        -0.76728
  H        -1.08254          0.01316        -1.83378
  H        -1.91250         -0.87072        -0.54502
  H        -1.86408          0.88639        -0.51686
9
 step=         453     theta[rad]=           4.7438
  C        -0.02069         -0.02052         0.02976
  C         0.02012          0.03684         1.34904
  H         0.90068          0.10777        -0.53739
  H         0.94880         -0.18402         1.89367
  H        -0.88027         -0.08517         1.94238
  C        -1.28922         -0.00542        -0.76728
  H        -1.08254          0.01442        -1.83378
  H        -1.91482         -0.86997        -0.54637
  H        -1.86177          0.88714        -0.51551
9
 step=         454     theta[rad]=           4.7543
  C        -0.02069          0.01722         0.02976
  C         0.02012         -0.03091         1.34904
  H         0.90068         -0.09042        -0.53739
  H         0.94880          0.15439         1.89367
  H        -0.88027          0.07145         1.94238
  C        -1.28922          0.00455        -0.76728
  H        -1.08254         -0.01210        -1.83378
  H        -1.86604         -0.88576        -0.51800
  H        -1.91055          0.87135        -0.54389
9
 step=         455     theta[rad]=           4.7647
  C        -0.02069          0.02213         0.02976
  C         0.02012         -0.03973         1.34904
  H         0.90068         -0.11623        -0.53739
  H         0.94880          0.19848         1.89367
  H        -0.88027          0.09186         1.94238
  C        -1.28922          0.00585        -0.76728
  H        -1.08254         -0.01556        -1.83378
  H        -1.85968         -0.88781        -0.51430
  H        -1.91690          0.86929        -0.54759
9
 step=         456     theta[rad]=           4.7752
  C        -0.02069         -0.01466         0.02976
  C         0.02012          0.02632         1.34904
  H         0.90068          0.07698        -0.53739
  H         0.94880         -0.13145         1.89367
  H        -0.88027         -0.06084         1.94238
  C        -1.28922         -0.00387        -0.76728
  H        -1.08254          0.01030        -1.83378
  H        -1.90724         -0.87242        -0.54197
  H        -1.86934          0.88469        -0.51992
9
 step=         457     theta[rad]=           4.7857
  C        -0.02069         -0.02411         0.02976
  C         0.02012          0.04328         1.34904
  H         0.90068          0.12662        -0.53739
  H         0.94880         -0.21621         1.89367
  H        -0.88027         -0.10006         1.94238
  C        -1.28922         -0.00637        -0.76728
  H        -1.08254          0.01695        -1.83378
  H        -1.91946         -0.86847        -0.54907
  H        -1.85713          0.88864        -0.51281
9
 step=         458     theta[rad]=           4.7962
  C        -0.02069          0.01086         0.02976
  C         0.02012         -0.01950         1.34904
  H         0.90068         -0.05706        -0.53739
  H         0.94880          0.09743         1.89367
  H        -0.88027          0.04509         1.94238
  C        -1.28922          0.00287        -0.76728
  H        -1.08254         -0.00764        -1.83378
  H        -1.87425         -0.88310        -0.52277
  H        -1.90234          0.87401        -0.53911
9
 step=         459     theta[rad]=           4.8066
  C        -0.02069          0.02602         0.02976
  C         0.02012         -0.04671         1.34904
  H         0.90068         -0.13664        -0.53739
  H         0.94880          0.23332         1.89367
  H        -0.88027          0.10798         1.94238
  C        -1.28922          0.00688        -0.76728
  H        -1.08254         -0.01829        -1.83378
  H        -1.85466         -0.88944        -0.51138
  H        -1.92193          0.86767        -0.55051
9
 step=         460     theta[rad]=           4.8171
  C        -0.02069         -0.00569         0.02976
  C         0.02012          0.01021         1.34904
  H         0.90068          0.02987        -0.53739
  H         0.94880         -0.05101         1.89367
  H        -0.88027         -0.02361         1.94238
  C        -1.28922         -0.00150        -0.76728
  H        -1.08254          0.00400        -1.83378
  H        -1.89565         -0.87617        -0.53522
  H        -1.88094          0.88093        -0.52667
9
 step=         461     theta[rad]=           4.8276
  C        -0.02069         -0.02724         0.02976
  C         0.02012          0.04889         1.34904
  H         0.90068          0.14304        -0.53739
  H         0.94880         -0.24424         1.89367
  H        -0.88027         -0.11304         1.94238
  C        -1.28922         -0.00720        -0.76728
  H        -1.08254          0.01914        -1.83378
  H        -1.92350         -0.86716        -0.55142
  H        -1.85309          0.88995        -0.51046
9
 step=         462     theta[rad]=           4.8381
  C        -0.02069         -0.00086         0.02976
  C         0.02012          0.00154         1.34904
  H         0.90068          0.00451        -0.53739
  H         0.94880         -0.00771         1.89367
  H        -0.88027         -0.00357         1.94238
  C        -1.28922         -0.00023        -0.76728
  H        -1.08254          0.00060        -1.83378
  H        -1.88940         -0.87819        -0.53159
  H        -1.88718          0.87891        -0.53030
9
 step=         463     theta[rad]=           4.8485
  C        -0.02069          0.02697         0.02976
  C         0.02012         -0.04842         1.34904
  H         0.90068         -0.14166        -0.53739
  H         0.94880          0.24189         1.89367
  H        -0.88027          0.11195         1.94238
  C        -1.28922          0.00713        -0.76728
  H        -1.08254         -0.01896        -1.83378
  H        -1.85342         -0.88984        -0.51066
  H        -1.92316          0.86727        -0.55123
9
 step=         464     theta[rad]=           4.8590
  C        -0.02069          0.00845         0.02976
  C         0.02012         -0.01518         1.34904
  H         0.90068         -0.04440        -0.53739
  H         0.94880          0.07581         1.89367
  H        -0.88027          0.03509         1.94238
  C        -1.28922          0.00223        -0.76728
  H        -1.08254         -0.00594        -1.83378
  H        -1.87737         -0.88209        -0.52459
  H        -1.89922          0.87502        -0.53730
9
 step=         465     theta[rad]=           4.8695
  C        -0.02069         -0.02437         0.02976
  C         0.02012          0.04376         1.34904
  H         0.90068          0.12801        -0.53739
  H         0.94880         -0.21859         1.89367
  H        -0.88027         -0.10116         1.94238
  C        -1.28922         -0.00644        -0.76728
  H        -1.08254          0.01713        -1.83378
  H        -1.91980         -0.86835        -0.54927
  H        -1.85678          0.88875        -0.51261
9
 step=         466     theta[rad]=           4.8799
  C        -0.02069         -0.01631         0.02976
  C         0.02012          0.02928         1.34904
  H         0.90068          0.08566        -0.53739
  H         0.94880         -0.14627         1.89367
  H        -0.88027         -0.06770         1.94238
  C        -1.28922         -0.00431        -0.76728
  H        -1.08254          0.01146        -1.83378
  H        -1.90938         -0.87173        -0.54321
  H        -1.86721          0.88538        -0.51868
9
 step=         467     theta[rad]=           4.8904
  C        -0.02069          0.01873         0.02976
  C         0.02012         -0.03362         1.34904
  H         0.90068         -0.09835        -0.53739
  H         0.94880          0.16794         1.89367
  H        -0.88027          0.07772         1.94238
  C        -1.28922          0.00495        -0.76728
  H        -1.08254         -0.01316        -1.83378
  H        -1.86408         -0.88639        -0.51686
  H        -1.91250          0.87072        -0.54502
9
 step=         468     theta[rad]=           4.9009
  C        -0.02069          0.02310         0.02976
  C         0.02012         -0.04147         1.34904
  H         0.90068         -0.12131        -0.53739
  H         0.94880          0.20714         1.89367
  H        -0.88027          0.09586         1.94238
  C        -1.28922          0.00611        -0.76728
  H        -1.08254         -0.01624        -1.83378
  H        -1.85843         -0.88822        -0.51357
  H        -1.91815          0.86889        -0.54831
9
 step=         469     theta[rad]=           4.9114
  C        -0.02069         -0.00980         0.02976
  C         0.02012          0.01760         1.34904
  H         0.90068          0.05149        -0.53739
  H         0.94880         -0.08792         1.89367
  H        -0.88027         -0.04069         1.94238
  C        -1.28922         -0.00259        -0.76728
  H        -1.08254          0.00689        -1.83378
  H        -1.90097         -0.87445        -0.53831
  H        -1.87562          0.88266        -0.52357
9
 step=         470     theta[rad]=           4.9218
  C        -0.02069         -0.02702         0.02976
  C         0.02012          0.04851         1.34904
  H         0.90068          0.14190        -0.53739
  H         0.94880         -0.24231         1.89367
  H        -0.88027         -0.11214         1.94238
  C        -1.28922         -0.00714        -0.76728
  H        -1.08254          0.01899        -1.83378
  H        -1.92322         -0.86725        -0.55126
  H        -1.85336          0.88986        -0.51062
9
 step=         471     theta[rad]=           4.9323
  C        -0.02069         -0.00172         0.02976
  C         0.02012          0.00308         1.34904
  H         0.90068          0.00902        -0.53739
  H         0.94880         -0.01540         1.89367
  H        -0.88027         -0.00713         1.94238
  C        -1.28922         -0.00045        -0.76728
  H        -1.08254          0.00121        -1.83378
  H        -1.89051         -0.87783        -0.53223
  H        -1.88607          0.87927        -0.52965
9
 step=         472     theta[rad]=           4.9428
  C        -0.02069          0.02619         0.02976
  C         0.02012         -0.04702         1.34904
  H         0.90068         -0.13754        -0.53739
  H         0.94880          0.23486         1.89367
  H        -0.88027          0.10869         1.94238
  C        -1.28922          0.00692        -0.76728
  H        -1.08254         -0.01841        -1.83378
  H        -1.85444         -0.88951        -0.51125
  H        -1.92215          0.86760        -0.55064
9
 step=         473     theta[rad]=           4.9532
  C        -0.02069          0.01393         0.02976
  C         0.02012         -0.02500         1.34904
  H         0.90068         -0.07314        -0.53739
  H         0.94880          0.12488         1.89367
  H        -0.88027          0.05780         1.94238
  C        -1.28922          0.00368        -0.76728
  H        -1.08254         -0.00979        -1.83378
  H        -1.87029         -0.88438        -0.52047
  H        -1.90630          0.87273        -0.54141
9
 step=         474     theta[rad]=           4.9637
  C        -0.02069         -0.01934         0.02976
  C         0.02012          0.03473         1.34904
  H         0.90068          0.10159        -0.53739
  H         0.94880         -0.17347         1.89367
  H        -0.88027         -0.08028         1.94238
  C        -1.28922         -0.00511        -0.76728
  H        -1.08254          0.01360        -1.83378
  H        -1.91330         -0.87046        -0.54549
  H        -1.86329          0.88665        -0.51640
9
 step=         475     theta[rad]=           4.9742
  C        -0.02069         -0.02369         0.02976
  C         0.02012          0.04253         1.34904
  H         0.90068          0.12443        -0.53739
  H         0.94880         -0.21246         1.89367
  H        -0.88027         -0.09833         1.94238
  C        -1.28922         -0.00626        -0.76728
  H        -1.08254          0.01665        -1.83378
  H        -1.91892         -0.86864        -0.54876
  H        -1.85767          0.88847        -0.51313
9
 step=         476     theta[rad]=           4.9847
  C        -0.02069          0.00680         0.02976
  C         0.02012         -0.01221         1.34904
  H         0.90068         -0.03573        -0.53739
  H         0.94880          0.06101         1.89367
  H        -0.88027          0.02824         1.94238
  C        -1.28922          0.00180        -0.76728
  H        -1.08254         -0.00478        -1.83378
  H        -1.87950         -0.88140        -0.52583
  H        -1.89709          0.87571        -0.53606
9
 step=         477     theta[rad]=           4.9951
  C        -0.02069          0.02734         0.02976
  C         0.02012         -0.04909         1.34904
  H         0.90068         -0.14360        -0.53739
  H         0.94880          0.24521         1.89367
  H        -0.88027          0.11348         1.94238
  C        -1.28922          0.00723        -0.76728
  H        -1.08254         -0.01922        -1.83378
  H        -1.85295         -0.88999        -0.51038
  H        -1.92364          0.86711        -0.55150
9
 step=         478     theta[rad]=           5.0056
  C        -0.02069          0.00873         0.02976
  C         0.02012         -0.01566         1.34904
  H         0.90068         -0.04583        -0.53739
  H         0.94880          0.07825         1.89367
  H        -0.88027          0.03621         1.94238
  C        -1.28922          0.00231        -0.76728
  H        -1.08254         -0.00613        -1.83378
  H        -1.87701         -0.88220        -0.52438
  H        -1.89957          0.87490        -0.53750
9
 step=         479     theta[rad]=           5.0161
  C        -0.02069         -0.02213         0.02976
  C         0.02012          0.03973         1.34904
  H         0.90068          0.11623        -0.53739
  H         0.94880         -0.19848         1.89367
  H        -0.88027         -0.09186         1.94238
  C        -1.28922         -0.00585        -0.76728
  H        -1.08254          0.01556        -1.83378
  H        -1.91690         -0.86929        -0.54759
  H        -1.85968          0.88781        -0.51430
9
 step=         480     theta[rad]=           5.0265
  C        -0.02069         -0.02213         0.02976
  C         0.02012          0.03973         1.34904
  H         0.90068          0.11623        -0.53739
  H         0.94880         -0.19848         1.89367
  H        -0.88027         -0.09186         1.94238
  C        -1.28922         -0.00585        -0.76728
  H        -1.08254          0.01556        -1.83378
  H        -1.91690         -0.86929        -0.54759
  H        -1.85968          0.88781        -0.51430
9
 step=         481     theta[rad]=           5.0370
  C        -0.02069          0.00818         0.02976
  C         0.02012         -0.01469         1.34904
  H         0.90068         -0.04296        -0.53739
  H         0.94880          0.07336         1.89367
  H        -0.88027          0.03395         1.94238
  C        -1.28922          0.00216        -0.76728
  H        -1.08254         -0.00575        -1.83378
  H        -1.87772         -0.88198        -0.52479
  H        -1.89887          0.87513        -0.53709
9
 step=         482     theta[rad]=           5.0475
  C        -0.02069          0.02734         0.02976
  C         0.02012         -0.04909         1.34904
  H         0.90068         -0.14360        -0.53739
  H         0.94880          0.24521         1.89367
  H        -0.88027          0.11348         1.94238
  C        -1.28922          0.00723        -0.76728
  H        -1.08254         -0.01922        -1.83378
  H        -1.85295         -0.88999        -0.51038
  H        -1.92364          0.86711        -0.55150
9
 step=         483     theta[rad]=           5.0580
  C        -0.02069          0.01007         0.02976
  C         0.02012         -0.01808         1.34904
  H         0.90068         -0.05289        -0.53739
  H         0.94880          0.09031         1.89367
  H        -0.88027          0.04180         1.94238
  C        -1.28922          0.00266        -0.76728
  H        -1.08254         -0.00708        -1.83378
  H        -1.87527         -0.88277        -0.52337
  H        -1.90131          0.87434        -0.53852
9
 step=         484     theta[rad]=           5.0684
  C        -0.02069         -0.02033         0.02976
  C         0.02012          0.03650         1.34904
  H         0.90068          0.10677        -0.53739
  H         0.94880         -0.18231         1.89367
  H        -0.88027         -0.08438         1.94238
  C        -1.28922         -0.00537        -0.76728
  H        -1.08254          0.01429        -1.83378
  H        -1.91457         -0.87005        -0.54623
  H        -1.86201          0.88706        -0.51566
9
 step=         485     theta[rad]=           5.0789
  C        -0.02069         -0.02437         0.02976
  C         0.02012          0.04376         1.34904
  H         0.90068          0.12801        -0.53739
  H         0.94880         -0.21859         1.89367
  H        -0.88027         -0.10116         1.94238
  C        -1.28922         -0.00644        -0.76728
  H        -1.08254          0.01713        -1.83378
  H        -1.91980         -0.86835        -0.54927
  H        -1.85678          0.88875        -0.51261
9
 step=         486     theta[rad]=           5.0894
  C        -0.02069          0.00257         0.02976
  C         0.02012         -0.00462         1.34904
  H         0.90068         -0.01352        -0.53739
  H         0.94880          0.02309         1.89367
  H        -0.88027          0.01069         1.94238
  C        -1.28922          0.00068        -0.76728
  H        -1.08254         -0.00181        -1.83378
  H        -1.88497         -0.87963        -0.52901
  H        -1.89162          0.87748        -0.53288
9
 step=         487     theta[rad]=           5.0999
  C        -0.02069          0.02619         0.02976
  C         0.02012         -0.04702         1.34904
  H         0.90068         -0.13754        -0.53739
  H         0.94880          0.23486         1.89367
  H        -0.88027          0.10869         1.94238
  C        -1.28922          0.00692        -0.76728
  H        -1.08254         -0.01841        -1.83378
  H        -1.85444         -0.88951        -0.51125
  H        -1.92215          0.86760        -0.55064
9
 step=         488     theta[rad]=           5.1103
  C        -0.02069          0.01744         0.02976
  C         0.02012         -0.03131         1.34904
  H         0.90068         -0.09158        -0.53739
  H         0.94880          0.15638         1.89367
  H        -0.88027          0.07237         1.94238
  C        -1.28922          0.00461        -0.76728
  H        -1.08254         -0.01226        -1.83378
  H        -1.86575         -0.88585        -0.51783
  H        -1.91084          0.87126        -0.54406
9
 step=         489     theta[rad]=           5.1208
  C        -0.02069         -0.01242         0.02976
  C         0.02012          0.02230         1.34904
  H         0.90068          0.06523        -0.53739
  H         0.94880         -0.11138         1.89367
  H        -0.88027         -0.05155         1.94238
  C        -1.28922         -0.00328        -0.76728
  H        -1.08254          0.00873        -1.83378
  H        -1.90435         -0.87336        -0.54028
  H        -1.87224          0.88375        -0.52160
9
 step=         490     theta[rad]=           5.1313
  C        -0.02069         -0.02732         0.02976
  C         0.02012          0.04905         1.34904
  H         0.90068          0.14348        -0.53739
  H         0.94880         -0.24499         1.89367
  H        -0.88027         -0.11338         1.94238
  C        -1.28922         -0.00722        -0.76728
  H        -1.08254          0.01920        -1.83378
  H        -1.92361         -0.86712        -0.55149
  H        -1.85298          0.88998        -0.51040
9
 step=         491     theta[rad]=           5.1417
  C        -0.02069         -0.01007         0.02976
  C         0.02012          0.01808         1.34904
  H         0.90068          0.05289        -0.53739
  H         0.94880         -0.09031         1.89367
  H        -0.88027         -0.04180         1.94238
  C        -1.28922         -0.00266        -0.76728
  H        -1.08254          0.00708        -1.83378
  H        -1.90131         -0.87434        -0.53852
  H        -1.87527          0.88277        -0.52337
9
 step=         492     theta[rad]=           5.1522
  C        -0.02069          0.01873         0.02976
  C         0.02012         -0.03362         1.34904
  H         0.90068         -0.09835        -0.53739
  H         0.94880          0.16794         1.89367
  H        -0.88027          0.07772         1.94238
  C        -1.28922          0.00495        -0.76728
  H        -1.08254         -0.01316        -1.83378
  H        -1.86408         -0.88639        -0.51686
  H        -1.91250          0.87072        -0.54502
9
 step=         493     theta[rad]=           5.1627
  C        -0.02069          0.02610         0.02976
  C         0.02012         -0.04687         1.34904
  H         0.90068         -0.13710        -0.53739
  H         0.94880          0.23410         1.89367
  H        -0.88027          0.10834         1.94238
  C        -1.28922          0.00690        -0.76728
  H        -1.08254         -0.01835        -1.83378
  H        -1.85455         -0.88948        -0.51131
  H        -1.92204          0.86763        -0.55057
9
 step=         494     theta[rad]=           5.1732
  C        -0.02069          0.00428         0.02976
  C         0.02012         -0.00768         1.34904
  H         0.90068         -0.02248        -0.53739
  H         0.94880          0.03838         1.89367
  H        -0.88027          0.01776         1.94238
  C        -1.28922          0.00113        -0.76728
  H        -1.08254         -0.00301        -1.83378
  H        -1.88276         -0.88034        -0.52772
  H        -1.89383          0.87676        -0.53416
9
 step=         495     theta[rad]=           5.1836
  C        -0.02069         -0.02213         0.02976
  C         0.02012          0.03973         1.34904
  H         0.90068          0.11623        -0.53739
  H         0.94880         -0.19848         1.89367
  H        -0.88027         -0.09186         1.94238
  C        -1.28922         -0.00585        -0.76728
  H        -1.08254          0.01556        -1.83378
  H        -1.91690         -0.86929        -0.54759
  H        -1.85968          0.88781        -0.51430
9
 step=         496     theta[rad]=           5.1941
  C        -0.02069         -0.02450         0.02976
  C         0.02012          0.04399         1.34904
  H         0.90068          0.12869        -0.53739
  H         0.94880         -0.21974         1.89367
  H        -0.88027         -0.10170         1.94238
  C        -1.28922         -0.00648        -0.76728
  H        -1.08254          0.01722        -1.83378
  H        -1.91997         -0.86830        -0.54937
  H        -1.85662          0.88881        -0.51252
9
 step=         497     theta[rad]=           5.2046
  C        -0.02069         -0.00086         0.02976
  C         0.02012          0.00154         1.34904
  H         0.90068          0.00451        -0.53739
  H         0.94880         -0.00771         1.89367
  H        -0.88027         -0.00357         1.94238
  C        -1.28922         -0.00023        -0.76728
  H        -1.08254          0.00060        -1.83378
  H        -1.88940         -0.87819        -0.53159
  H        -1.88718          0.87891        -0.53030
9
 step=         498     theta[rad]=           5.2150
  C        -0.02069          0.02355         0.02976
  C         0.02012         -0.04227         1.34904
  H         0.90068         -0.12367        -0.53739
  H         0.94880          0.21116         1.89367
  H        -0.88027          0.09773         1.94238
  C        -1.28922          0.00622        -0.76728
  H        -1.08254         -0.01655        -1.83378
  H        -1.85785         -0.88841        -0.51324
  H        -1.91873          0.86870        -0.54865
9
 step=         499     theta[rad]=           5.2255
  C        -0.02069          0.02369         0.02976
  C         0.02012         -0.04253         1.34904
  H         0.90068         -0.12443        -0.53739
  H         0.94880          0.21246         1.89367
  H        -0.88027          0.09833         1.94238
  C        -1.28922          0.00626        -0.76728
  H        -1.08254         -0.01665        -1.83378
  H        -1.85767         -0.88847        -0.51313
  H        -1.91892          0.86864        -0.54876
9
 step=         500     theta[rad]=           5.2360
  C        -0.02069         -0.00000         0.02976
  C         0.02012          0.00000         1.34904
  H         0.90068         -0.00000        -0.53739
  H         0.94880         -0.00000         1.89367
  H        -0.88027          0.00000         1.94238
  C        -1.28922         -0.00000        -0.76728
  H        -1.08254          0.00000        -1.83378
  H        -1.88829         -0.87855        -0.53094
  H        -1.88829          0.87855        -0.53094
9
 step=         501     theta[rad]=           5.2465
  C        -0.02069         -0.02355         0.02976
  C         0.02012          0.04227         1.34904
  H         0.90068          0.12367        -0.53739
  H         0.94880         -0.21116         1.89367
  H        -0.88027         -0.09773         1.94238
  C        -1.28922         -0.00622        -0.76728
  H        -1.08254          0.01655        -1.83378
  H        -1.91873         -0.86870        -0.54865
  H        -1.85785          0.88841        -0.51324
9
 step=         502     theta[rad]=           5.2569
  C        -0.02069         -0.02411         0.02976
  C         0.02012          0.04328         1.34904
  H         0.90068          0.12662        -0.53739
  H         0.94880         -0.21621         1.89367
  H        -0.88027         -0.10006         1.94238
  C        -1.28922         -0.00637        -0.76728
  H        -1.08254          0.01695        -1.83378
  H        -1.91946         -0.86847        -0.54907
  H        -1.85713          0.88864        -0.51281
9
 step=         503     theta[rad]=           5.2674
  C        -0.02069         -0.00172         0.02976
  C         0.02012          0.00308         1.34904
  H         0.90068          0.00902        -0.53739
  H         0.94880         -0.01540         1.89367
  H        -0.88027         -0.00713         1.94238
  C        -1.28922         -0.00045        -0.76728
  H        -1.08254          0.00121        -1.83378
  H        -1.89051         -0.87783        -0.53223
  H        -1.88607          0.87927        -0.52965
9
 step=         504     theta[rad]=           5.2779
  C        -0.02069          0.02213         0.02976
  C         0.02012         -0.03973         1.34904
  H         0.90068         -0.11623        -0.53739
  H         0.94880          0.19848         1.89367
  H        -0.88027          0.09186         1.94238
  C        -1.28922          0.00585        -0.76728
  H        -1.08254         -0.01556        -1.83378
  H        -1.85968         -0.88781        -0.51430
  H        -1.91690          0.86929        -0.54759
9
 step=         505     theta[rad]=           5.2883
  C        -0.02069          0.02554         0.02976
  C         0.02012         -0.04585         1.34904
  H         0.90068         -0.13413        -0.53739
  H         0.94880          0.22903         1.89367
  H        -0.88027          0.10600         1.94238
  C        -1.28922          0.00675        -0.76728
  H        -1.08254         -0.01795        -1.83378
  H        -1.85528         -0.88924        -0.51174
  H        -1.92131          0.86787        -0.55015
9
 step=         506     theta[rad]=           5.2988
  C        -0.02069          0.00597         0.02976
  C         0.02012         -0.01071         1.34904
  H         0.90068         -0.03134        -0.53739
  H         0.94880          0.05352         1.89367
  H        -0.88027          0.02477         1.94238
  C        -1.28922          0.00158        -0.76728
  H        -1.08254         -0.00419        -1.83378
  H        -1.88058         -0.88105        -0.52646
  H        -1.89601          0.87606        -0.53543
9
 step=         507     theta[rad]=           5.3093
  C        -0.02069         -0.01873         0.02976
  C         0.02012          0.03362         1.34904
  H         0.90068          0.09835        -0.53739
  H         0.94880         -0.16794         1.89367
  H        -0.88027         -0.07772         1.94238
  C        -1.28922         -0.00495        -0.76728
  H        -1.08254          0.01316        -1.83378
  H        -1.91250         -0.87072        -0.54502
  H        -1.86408          0.88639        -0.51686
9
 step=         508     theta[rad]=           5.3198
  C        -0.02069         -0.02706         0.02976
  C         0.02012          0.04859         1.34904
  H         0.90068          0.14213        -0.53739
  H         0.94880         -0.24270         1.89367
  H        -0.88027         -0.11232         1.94238
  C        -1.28922         -0.00715        -0.76728
  H        -1.08254          0.01902        -1.83378
  H        -1.92328         -0.86723        -0.55129
  H        -1.85331          0.88988        -0.51059
9
 step=         509     theta[rad]=           5.3302
  C        -0.02069         -0.01242         0.02976
  C         0.02012          0.02230         1.34904
  H         0.90068          0.06523        -0.53739
  H         0.94880         -0.11138         1.89367
  H        -0.88027         -0.05155         1.94238
  C        -1.28922         -0.00328        -0.76728
  H        -1.08254          0.00873        -1.83378
  H        -1.90435         -0.87336        -0.54028
  H        -1.87224          0.88375        -0.52160
9
 step=         510     theta[rad]=           5.3407
  C        -0.02069          0.01242         0.02976
  C         0.02012         -0.02230         1.34904
  H         0.90068         -0.06523        -0.53739
  H         0.94880          0.11138         1.89367
  H        -0.88027          0.05155         1.94238
  C        -1.28922          0.00328        -0.76728
  H        -1.08254         -0.00873        -1.83378
  H        -1.87224         -0.88375        -0.52160
  H        -1.90435          0.87336        -0.54028
9
 step=         511     theta[rad]=           5.3512
  C        -0.02069          0.02697         0.02976
  C         0.02012         -0.04842         1.34904
  H         0.90068         -0.14166        -0.53739
  H         0.94880          0.24189         1.89367
  H        -0.88027          0.11195         1.94238
  C        -1.28922          0.00713        -0.76728
  H        -1.08254         -0.01896        -1.83378
  H        -1.85342         -0.88984        -0.51066
  H        -1.92316          0.86727        -0.55123
9
 step=         512     theta[rad]=           5.3617
  C        -0.02069          0.01994         0.02976
  C         0.02012         -0.03580         1.34904
  H         0.90068         -0.10473        -0.53739
  H         0.94880          0.17884         1.89367
  H        -0.88027          0.08277         1.94238
  C        -1.28922          0.00527        -0.76728
  H        -1.08254         -0.01402        -1.83378
  H        -1.86251         -0.88690        -0.51595
  H        -1.91407          0.87021        -0.54594
9
 step=         513     theta[rad]=           5.3721
  C        -0.02069         -0.00257         0.02976
  C         0.02012          0.00462         1.34904
  H         0.90068          0.01352        -0.53739
  H         0.94880         -0.02309         1.89367
  H        -0.88027         -0.01069         1.94238
  C        -1.28922         -0.00068        -0.76728
  H        -1.08254          0.00181        -1.83378
  H        -1.89162         -0.87748        -0.53288
  H        -1.88497          0.87963        -0.52901
9
 step=         514     theta[rad]=           5.3826
  C        -0.02069         -0.02294         0.02976
  C         0.02012          0.04119         1.34904
  H         0.90068          0.12049        -0.53739
  H         0.94880         -0.20575         1.89367
  H        -0.88027         -0.09522         1.94238
  C        -1.28922         -0.00606        -0.76728
  H        -1.08254          0.01613        -1.83378
  H        -1.91795         -0.86895        -0.54820
  H        -1.85863          0.88815        -0.51369
9
 step=         515     theta[rad]=           5.3931
  C        -0.02069         -0.02602         0.02976
  C         0.02012          0.04671         1.34904
  H         0.90068          0.13664        -0.53739
  H         0.94880         -0.23332         1.89367
  H        -0.88027         -0.10798         1.94238
  C        -1.28922         -0.00688        -0.76728
  H        -1.08254          0.01829        -1.83378
  H        -1.92193         -0.86767        -0.55051
  H        -1.85466          0.88944        -0.51138
9
 step=         516     theta[rad]=           5.4035
  C        -0.02069         -0.01007         0.02976
  C         0.02012          0.01808         1.34904
  H         0.90068          0.05289        -0.53739
  H         0.94880         -0.09031         1.89367
  H        -0.88027         -0.04180         1.94238
  C        -1.28922         -0.00266        -0.76728
  H        -1.08254          0.00708        -1.83378
  H        -1.90131         -0.87434        -0.53852
  H        -1.87527          0.88277        -0.52337
9
 step=         517     theta[rad]=           5.4140
  C        -0.02069          0.01293         0.02976
  C         0.02012         -0.02321         1.34904
  H         0.90068         -0.06789        -0.53739
  H         0.94880          0.11593         1.89367
  H        -0.88027          0.05365         1.94238
  C        -1.28922          0.00342        -0.76728
  H        -1.08254         -0.00909        -1.83378
  H        -1.87158         -0.88396        -0.52122
  H        -1.90500          0.87314        -0.54066
9
 step=         518     theta[rad]=           5.4245
  C        -0.02069          0.02670         0.02976
  C         0.02012         -0.04793         1.34904
  H         0.90068         -0.14021        -0.53739
  H         0.94880          0.23942         1.89367
  H        -0.88027          0.11081         1.94238
  C        -1.28922          0.00706        -0.76728
  H        -1.08254         -0.01877        -1.83378
  H        -1.85378         -0.88972        -0.51087
  H        -1.92281          0.86738        -0.55102
9
 step=         519     theta[rad]=           5.4350
  C        -0.02069          0.02213         0.02976
  C         0.02012         -0.03973         1.34904
  H         0.90068         -0.11623        -0.53739
  H         0.94880          0.19848         1.89367
  H        -0.88027          0.09186         1.94238
  C        -1.28922          0.00585        -0.76728
  H        -1.08254         -0.01556        -1.83378
  H        -1.85968         -0.88781        -0.51430
  H        -1.91690          0.86929        -0.54759
9
 step=         520     theta[rad]=           5.4454
  C        -0.02069          0.00286         0.02976
  C         0.02012         -0.00513         1.34904
  H         0.90068         -0.01502        -0.53739
  H         0.94880          0.02564         1.89367
  H        -0.88027          0.01187         1.94238
  C        -1.28922          0.00076        -0.76728
  H        -1.08254         -0.00201        -1.83378
  H        -1.88460         -0.87975        -0.52879
  H        -1.89199          0.87736        -0.53309
9
 step=         521     theta[rad]=           5.4559
  C        -0.02069         -0.01809         0.02976
  C         0.02012          0.03248         1.34904
  H         0.90068          0.09501        -0.53739
  H         0.94880         -0.16224         1.89367
  H        -0.88027         -0.07509         1.94238
  C        -1.28922         -0.00478        -0.76728
  H        -1.08254          0.01272        -1.83378
  H        -1.91168         -0.87098        -0.54455
  H        -1.86491          0.88612        -0.51734
9
 step=         522     theta[rad]=           5.4664
  C        -0.02069         -0.02734         0.02976
  C         0.02012          0.04909         1.34904
  H         0.90068          0.14360        -0.53739
  H         0.94880         -0.24521         1.89367
  H        -0.88027         -0.11348         1.94238
  C        -1.28922         -0.00723        -0.76728
  H        -1.08254          0.01922        -1.83378
  H        -1.92364         -0.86711        -0.55150
  H        -1.85295          0.88999        -0.51038
9
 step=         523     theta[rad]=           5.4768
  C        -0.02069         -0.01955         0.02976
  C         0.02012          0.03509         1.34904
  H         0.90068          0.10265        -0.53739
  H         0.94880         -0.17528         1.89367
  H        -0.88027         -0.08112         1.94238
  C        -1.28922         -0.00517        -0.76728
  H        -1.08254          0.01374        -1.83378
  H        -1.91356         -0.87038        -0.54564
  H        -1.86303          0.88673        -0.51624
9
 step=         524     theta[rad]=           5.4873
  C        -0.02069         -0.00000         0.02976
  C         0.02012          0.00000         1.34904
  H         0.90068         -0.00000        -0.53739
  H         0.94880         -0.00000         1.89367
  H        -0.88027          0.00000         1.94238
  C        -1.28922         -0.00000        -0.76728
  H        -1.08254          0.00000        -1.83378
  H        -1.88829         -0.87855        -0.53094
  H        -1.88829          0.87855        -0.53094
9
 step=         525     theta[rad]=           5.4978
  C        -0.02069          0.01934         0.02976
  C         0.02012         -0.03473         1.34904
  H         0.90068         -0.10159        -0.53739
  H         0.94880          0.17347         1.89367
  H        -0.88027          0.08028         1.94238
  C        -1.28922          0.00511        -0.76728
  H        -1.08254         -0.01360        -1.83378
  H        -1.86329         -0.88665        -0.51640
  H        -1.91330          0.87046        -0.54549
9
 step=         526     theta[rad]=           5.5083
  C        -0.02069          0.02735         0.02976
  C         0.02012         -0.04911         1.34904
  H         0.90068         -0.14367        -0.53739
  H         0.94880          0.24532         1.89367
  H        -0.88027          0.11353         1.94238
  C        -1.28922          0.00723        -0.76728
  H        -1.08254         -0.01923        -1.83378
  H        -1.85293         -0.89000        -0.51037
  H        -1.92366          0.86711        -0.55151
9
 step=         527     theta[rad]=           5.5187
  C        -0.02069          0.01994         0.02976
  C         0.02012         -0.03580         1.34904
  H         0.90068         -0.10473        -0.53739
  H         0.94880          0.17884         1.89367
  H        -0.88027          0.08277         1.94238
  C        -1.28922          0.00527        -0.76728
  H        -1.08254         -0.01402        -1.83378
  H        -1.86251         -0.88690        -0.51595
  H        -1.91407          0.87021        -0.54594
9
 step=         528     theta[rad]=           5.5292
  C        -0.02069          0.00172         0.02976
  C         0.02012         -0.00308         1.34904
  H         0.90068         -0.00902        -0.53739
  H         0.94880          0.01540         1.89367
  H        -0.88027          0.00713         1.94238
  C        -1.28922          0.00045        -0.76728
  H        -1.08254         -0.00121        -1.83378
  H        -1.88607         -0.87927        -0.52965
  H        -1.89051          0.87783        -0.53223
9
 step=         529     theta[rad]=           5.5397
  C        -0.02069         -0.01722         0.02976
  C         0.02012          0.03091         1.34904
  H         0.90068          0.09042        -0.53739
  H         0.94880         -0.15439         1.89367
  H        -0.88027         -0.07145         1.94238
  C        -1.28922         -0.00455        -0.76728
  H        -1.08254          0.01210        -1.83378
  H        -1.91055         -0.87135        -0.54389
  H        -1.86604          0.88576        -0.51800
9
 step=         530     theta[rad]=           5.5501
  C        -0.02069         -0.02702         0.02976
  C         0.02012          0.04851         1.34904
  H         0.90068          0.14190        -0.53739
  H         0.94880         -0.24231         1.89367
  H        -0.88027         -0.11214         1.94238
  C        -1.28922         -0.00714        -0.76728
  H        -1.08254          0.01899        -1.83378
  H        -1.92322         -0.86725        -0.55126
  H        -1.85336          0.88986        -0.51062
9
 step=         531     theta[rad]=           5.5606
  C        -0.02069         -0.02310         0.02976
  C         0.02012          0.04147         1.34904
  H         0.90068          0.12131        -0.53739
  H         0.94880         -0.20714         1.89367
  H        -0.88027         -0.09586         1.94238
  C        -1.28922         -0.00611        -0.76728
  H        -1.08254          0.01624        -1.83378
  H        -1.91815         -0.86889        -0.54831
  H        -1.85843          0.88822        -0.51357
9
 step=         532     theta[rad]=           5.5711
  C        -0.02069         -0.00791         0.02976
  C         0.02012          0.01420         1.34904
  H         0.90068          0.04153        -0.53739
  H         0.94880         -0.07091         1.89367
  H        -0.88027         -0.03282         1.94238
  C        -1.28922         -0.00209        -0.76728
  H        -1.08254          0.00556        -1.83378
  H        -1.89851         -0.87525        -0.53689
  H        -1.87807          0.88186        -0.52500
9
 step=         533     theta[rad]=           5.5816
  C        -0.02069          0.01086         0.02976
  C         0.02012         -0.01950         1.34904
  H         0.90068         -0.05706        -0.53739
  H         0.94880          0.09743         1.89367
  H        -0.88027          0.04509         1.94238
  C        -1.28922          0.00287        -0.76728
  H        -1.08254         -0.00764        -1.83378
  H        -1.87425         -0.88310        -0.52277
  H        -1.90234          0.87401        -0.53911
9
 step=         534     theta[rad]=           5.5920
  C        -0.02069          0.02437         0.02976
  C         0.02012         -0.04376         1.34904
  H         0.90068         -0.12801        -0.53739
  H         0.94880          0.21859         1.89367
  H        -0.88027          0.10116         1.94238
  C        -1.28922          0.00644        -0.76728
  H        -1.08254         -0.01713        -1.83378
  H        -1.85678         -0.88875        -0.51261
  H        -1.91980          0.86835        -0.54927
9
 step=         535     theta[rad]=           5.6025
  C        -0.02069          0.02676         0.02976
  C         0.02012         -0.04804         1.34904
  H         0.90068         -0.14053        -0.53739
  H         0.94880          0.23997         1.89367
  H        -0.88027          0.11106         1.94238
  C        -1.28922          0.00707        -0.76728
  H        -1.08254         -0.01881        -1.83378
  H        -1.85370         -0.88975        -0.51082
  H        -1.92289          0.86736        -0.55106
9
 step=         536     theta[rad]=           5.6130
  C        -0.02069          0.01744         0.02976
  C         0.02012         -0.03131         1.34904
  H         0.90068         -0.09158        -0.53739
  H         0.94880          0.15638         1.89367
  H        -0.88027          0.07237         1.94238
  C        -1.28922          0.00461        -0.76728
  H        -1.08254         -0.01226        -1.83378
  H        -1.86575         -0.88585        -0.51783
  H        -1.91084          0.87126        -0.54406
9
 step=         537     theta[rad]=           5.6235
  C        -0.02069          0.00086         0.02976
  C         0.02012         -0.00154         1.34904
  H         0.90068         -0.00451        -0.53739
  H         0.94880          0.00771         1.89367
  H        -0.88027          0.00357         1.94238
  C        -1.28922          0.00023        -0.76728
  H        -1.08254         -0.00060        -1.83378
  H        -1.88718         -0.87891        -0.53030
  H        -1.88940          0.87819        -0.53159
9
 step=         538     theta[rad]=           5.6339
  C        -0.02069         -0.01585         0.02976
  C         0.02012          0.02845         1.34904
  H         0.90068          0.08323        -0.53739
  H         0.94880         -0.14211         1.89367
  H        -0.88027         -0.06577         1.94238
  C        -1.28922         -0.00419        -0.76728
  H        -1.08254          0.01114        -1.83378
  H        -1.90878         -0.87192        -0.54286
  H        -1.86781          0.88518        -0.51903
9
 step=         539     theta[rad]=           5.6444
  C        -0.02069         -0.02602         0.02976
  C         0.02012          0.04671         1.34904
  H         0.90068          0.13664        -0.53739
  H         0.94880         -0.23332         1.89367
  H        -0.88027         -0.10798         1.94238
  C        -1.28922         -0.00688        -0.76728
  H        -1.08254          0.01829        -1.83378
  H        -1.92193         -0.86767        -0.55051
  H        -1.85466          0.88944        -0.51138
9
 step=         540     theta[rad]=           5.6549
  C        -0.02069         -0.02602         0.02976
  C         0.02012          0.04671         1.34904
  H         0.90068          0.13664        -0.53739
  H         0.94880         -0.23332         1.89367
  H        -0.88027         -0.10798         1.94238
  C        -1.28922         -0.00688        -0.76728
  H        -1.08254          0.01829        -1.83378
  H        -1.92193         -0.86767        -0.55051
  H        -1.85466          0.88944        -0.51138
9
 step=         541     theta[rad]=           5.6653
  C        -0.02069         -0.01631         0.02976
  C         0.02012          0.02928         1.34904
  H         0.90068          0.08566        -0.53739
  H         0.94880         -0.14627         1.89367
  H        -0.88027         -0.06770         1.94238
  C        -1.28922         -0.00431        -0.76728
  H        -1.08254          0.01146        -1.83378
  H        -1.90938         -0.87173        -0.54321
  H        -1.86721          0.88538        -0.51868
9
 step=         542     theta[rad]=           5.6758
  C        -0.02069         -0.00086         0.02976
  C         0.02012          0.00154         1.34904
  H         0.90068          0.00451        -0.53739
  H         0.94880         -0.00771         1.89367
  H        -0.88027         -0.00357         1.94238
  C        -1.28922         -0.00023        -0.76728
  H        -1.08254          0.00060        -1.83378
  H        -1.88940         -0.87819        -0.53159
  H        -1.88718          0.87891        -0.53030
9
 step=         543     theta[rad]=           5.6863
  C        -0.02069          0.01466         0.02976
  C         0.02012         -0.02632         1.34904
  H         0.90068         -0.07698        -0.53739
  H         0.94880          0.13145         1.89367
  H        -0.88027          0.06084         1.94238
  C        -1.28922          0.00387        -0.76728
  H        -1.08254         -0.01030        -1.83378
  H        -1.86934         -0.88469        -0.51992
  H        -1.90724          0.87242        -0.54197
9
 step=         544     theta[rad]=           5.6968
  C        -0.02069          0.02499         0.02976
  C         0.02012         -0.04487         1.34904
  H         0.90068         -0.13125        -0.53739
  H         0.94880          0.22412         1.89367
  H        -0.88027          0.10372         1.94238
  C        -1.28922          0.00661        -0.76728
  H        -1.08254         -0.01757        -1.83378
  H        -1.85599         -0.88901        -0.51215
  H        -1.92060          0.86810        -0.54974
9
 step=         545     theta[rad]=           5.7072
  C        -0.02069          0.02702         0.02976
  C         0.02012         -0.04851         1.34904
  H         0.90068         -0.14190        -0.53739
  H         0.94880          0.24231         1.89367
  H        -0.88027          0.11214         1.94238
  C        -1.28922          0.00714        -0.76728
  H        -1.08254         -0.01899        -1.83378
  H        -1.85336         -0.88986        -0.51062
  H        -1.92322          0.86725        -0.55126
9
 step=         546     theta[rad]=           5.7177
  C        -0.02069          0.02052         0.02976
  C         0.02012         -0.03684         1.34904
  H         0.90068         -0.10777        -0.53739
  H         0.94880          0.18402         1.89367
  H        -0.88027          0.08517         1.94238
  C        -1.28922          0.00542        -0.76728
  H        -1.08254         -0.01442        -1.83378
  H        -1.86177         -0.88714        -0.51551
  H        -1.91482          0.86997        -0.54637
9
 step=         547     theta[rad]=           5.7282
  C        -0.02069          0.00791         0.02976
  C         0.02012         -0.01420         1.34904
  H         0.90068         -0.04153        -0.53739
  H         0.94880          0.07091         1.89367
  H        -0.88027          0.03282         1.94238
  C        -1.28922          0.00209        -0.76728
  H        -1.08254         -0.00556        -1.83378
  H        -1.87807         -0.88186        -0.52500
  H        -1.89851          0.87525        -0.53689
9
 step=         548     theta[rad]=           5.7386
  C        -0.02069         -0.00680         0.02976
  C         0.02012          0.01221         1.34904
  H         0.90068          0.03573        -0.53739
  H         0.94880         -0.06101         1.89367
  H        -0.88027         -0.02824         1.94238
  C        -1.28922         -0.00180        -0.76728
  H        -1.08254          0.00478        -1.83378
  H        -1.89709         -0.87571        -0.53606
  H        -1.87950          0.88140        -0.52583
9
 step=         549     theta[rad]=           5.7491
  C        -0.02069         -0.01934         0.02976
  C         0.02012          0.03473         1.34904
  H         0.90068          0.10159        -0.53739
  H         0.94880         -0.17347         1.89367
  H        -0.88027         -0.08028         1.94238
  C        -1.28922         -0.00511        -0.76728
  H        -1.08254          0.01360        -1.83378
  H        -1.91330         -0.87046        -0.54549
  H        -1.86329          0.88665        -0.51640
9
 step=         550     theta[rad]=           5.7596
  C        -0.02069         -0.02642         0.02976
  C         0.02012          0.04744         1.34904
  H         0.90068          0.13878        -0.53739
  H         0.94880         -0.23697         1.89367
  H        -0.88027         -0.10967         1.94238
  C        -1.28922         -0.00698        -0.76728
  H        -1.08254          0.01857        -1.83378
  H        -1.92245         -0.86750        -0.55081
  H        -1.85413          0.88961        -0.51107
9
 step=         551     theta[rad]=           5.7701
  C        -0.02069         -0.02650         0.02976
  C         0.02012          0.04757         1.34904
  H         0.90068          0.13916        -0.53739
  H         0.94880         -0.23762         1.89367
  H        -0.88027         -0.10997         1.94238
  C        -1.28922         -0.00700        -0.76728
  H        -1.08254          0.01862        -1.83378
  H        -1.92255         -0.86747        -0.55087
  H        -1.85404          0.88964        -0.51102
9
 step=         552     theta[rad]=           5.7805
  C        -0.02069         -0.01994         0.02976
  C         0.02012          0.03580         1.34904
  H         0.90068          0.10473        -0.53739
  H         0.94880         -0.17884         1.89367
  H        -0.88027         -0.08277         1.94238
  C        -1.28922         -0.00527        -0.76728
  H        -1.08254          0.01402        -1.83378
  H        -1.91407         -0.87021        -0.54594
  H        -1.86251          0.88690        -0.51595
9
 step=         553     theta[rad]=           5.7910
  C        -0.02069         -0.00873         0.02976
  C         0.02012          0.01566         1.34904
  H         0.90068          0.04583        -0.53739
  H         0.94880         -0.07825         1.89367
  H        -0.88027         -0.03621         1.94238
  C        -1.28922         -0.00231        -0.76728
  H        -1.08254          0.00613        -1.83378
  H        -1.89957         -0.87490        -0.53750
  H        -1.87701          0.88220        -0.52438
9
 step=         554     theta[rad]=           5.8015
  C        -0.02069          0.00428         0.02976
  C         0.02012         -0.00768         1.34904
  H         0.90068         -0.02248        -0.53739
  H         0.94880          0.03838         1.89367
  H        -0.88027          0.01776         1.94238
  C        -1.28922          0.00113        -0.76728
  H        -1.08254         -0.00301        -1.83378
  H        -1.88276         -0.88034        -0.52772
  H        -1.89383          0.87676        -0.53416
9
 step=         555     theta[rad]=           5.8119
  C        -0.02069          0.01608         0.02976
  C         0.02012         -0.02887         1.34904
  H         0.90068         -0.08445        -0.53739
  H         0.94880          0.14420         1.89367
  H        -0.88027          0.06674         1.94238
  C        -1.28922          0.00425        -0.76728
  H        -1.08254         -0.01130        -1.83378
  H        -1.86751         -0.88528        -0.51885
  H        -1.90908          0.87183        -0.54303
9
 step=         556     theta[rad]=           5.8224
  C        -0.02069          0.02424         0.02976
  C         0.02012         -0.04352         1.34904
  H         0.90068         -0.12732        -0.53739
  H         0.94880          0.21741         1.89367
  H        -0.88027          0.10062         1.94238
  C        -1.28922          0.00641        -0.76728
  H        -1.08254         -0.01704        -1.83378
  H        -1.85695         -0.88870        -0.51271
  H        -1.91963          0.86841        -0.54917
9
 step=         557     theta[rad]=           5.8329
  C        -0.02069          0.02734         0.02976
  C         0.02012         -0.04909         1.34904
  H         0.90068         -0.14360        -0.53739
  H         0.94880          0.24521         1.89367
  H        -0.88027          0.11348         1.94238
  C        -1.28922          0.00723        -0.76728
  H        -1.08254         -0.01922        -1.83378
  H        -1.85295         -0.88999        -0.51038
  H        -1.92364          0.86711        -0.55150
9
 step=         558     theta[rad]=           5.8434
  C        -0.02069          0.02511         0.02976
  C         0.02012         -0.04507         1.34904
  H         0.90068         -0.13186        -0.53739
  H         0.94880          0.22515         1.89367
  H        -0.88027          0.10420         1.94238
  C        -1.28922          0.00664        -0.76728
  H        -1.08254         -0.01765        -1.83378
  H        -1.85584         -0.88906        -0.51206
  H        -1.92075          0.86805        -0.54982
9
 step=         559     theta[rad]=           5.8538
  C        -0.02069          0.01831         0.02976
  C         0.02012         -0.03286         1.34904
  H         0.90068         -0.09614        -0.53739
  H         0.94880          0.16416         1.89367
  H        -0.88027          0.07597         1.94238
  C        -1.28922          0.00484        -0.76728
  H        -1.08254         -0.01287        -1.83378
  H        -1.86463         -0.88621        -0.51718
  H        -1.91196          0.87089        -0.54471
9
 step=         560     theta[rad]=           5.8643
  C        -0.02069          0.00845         0.02976
  C         0.02012         -0.01518         1.34904
  H         0.90068         -0.04440        -0.53739
  H         0.94880          0.07581         1.89367
  H        -0.88027          0.03509         1.94238
  C        -1.28922          0.00223        -0.76728
  H        -1.08254         -0.00594        -1.83378
  H        -1.87737         -0.88209        -0.52459
  H        -1.89922          0.87502        -0.53730
9
 step=         561     theta[rad]=           5.8748
  C        -0.02069         -0.00257         0.02976
  C         0.02012          0.00462         1.34904
  H         0.90068          0.01352        -0.53739
  H         0.94880         -0.02309         1.89367
  H        -0.88027         -0.01069         1.94238
  C        -1.28922         -0.00068        -0.76728
  H        -1.08254          0.00181        -1.83378
  H        -1.89162         -0.87748        -0.53288
  H        -1.88497          0.87963        -0.52901
9
 step=         562     theta[rad]=           5.8853
  C        -0.02069         -0.01293         0.02976
  C         0.02012          0.02321         1.34904
  H         0.90068          0.06789        -0.53739
  H         0.94880         -0.11593         1.89367
  H        -0.88027         -0.05365         1.94238
  C        -1.28922         -0.00342        -0.76728
  H        -1.08254          0.00909        -1.83378
  H        -1.90500         -0.87314        -0.54066
  H        -1.87158          0.88396        -0.52122
9
 step=         563     theta[rad]=           5.8957
  C        -0.02069         -0.02108         0.02976
  C         0.02012          0.03784         1.34904
  H         0.90068          0.11070        -0.53739
  H         0.94880         -0.18903         1.89367
  H        -0.88027         -0.08748         1.94238
  C        -1.28922         -0.00557        -0.76728
  H        -1.08254          0.01482        -1.83378
  H        -1.91554         -0.86973        -0.54679
  H        -1.86104          0.88737        -0.51509
9
 step=         564     theta[rad]=           5.9062
  C        -0.02069         -0.02602         0.02976
  C         0.02012          0.04671         1.34904
  H         0.90068          0.13664        -0.53739
  H         0.94880         -0.23332         1.89367
  H        -0.88027         -0.10798         1.94238
  C        -1.28922         -0.00688        -0.76728
  H        -1.08254          0.01829        -1.83378
  H        -1.92193         -0.86767        -0.55051
  H        -1.85466          0.88944        -0.51138
9
 step=         565     theta[rad]=           5.9167
  C        -0.02069         -0.02732         0.02976
  C         0.02012          0.04905         1.34904
  H         0.90068          0.14348        -0.53739
  H         0.94880         -0.24499         1.89367
  H        -0.88027         -0.11338         1.94238
  C        -1.28922         -0.00722        -0.76728
  H        -1.08254          0.01920        -1.83378
  H        -1.92361         -0.86712        -0.55149
  H        -1.85298          0.88998        -0.51040
9
 step=         566     theta[rad]=           5.9271
  C        -0.02069         -0.02511         0.02976
  C         0.02012          0.04507         1.34904
  H         0.90068          0.13186        -0.53739
  H         0.94880         -0.22515         1.89367
  H        -0.88027         -0.10420         1.94238
  C        -1.28922         -0.00664        -0.76728
  H        -1.08254          0.01765        -1.83378
  H        -1.92075         -0.86805        -0.54982
  H        -1.85584          0.88906        -0.51206
9
 step=         567     theta[rad]=           5.9376
  C        -0.02069         -0.01994         0.02976
  C         0.02012          0.03580         1.34904
  H         0.90068          0.10473        -0.53739
  H         0.94880         -0.17884         1.89367
  H        -0.88027         -0.08277         1.94238
  C        -1.28922         -0.00527        -0.76728
  H        -1.08254          0.01402        -1.83378
  H        -1.91407         -0.87021        -0.54594
  H        -1.86251          0.88690        -0.51595
9
 step=         568     theta[rad]=           5.9481
  C        -0.02069         -0.01267         0.02976
  C         0.02012          0.02275         1.34904
  H         0.90068          0.06656        -0.53739
  H         0.94880         -0.11366         1.89367
  H        -0.88027         -0.05260         1.94238
  C        -1.28922         -0.00335        -0.76728
  H        -1.08254          0.00891        -1.83378
  H        -1.90468         -0.87325        -0.54047
  H        -1.87191          0.88386        -0.52141
9
 step=         569     theta[rad]=           5.9586
  C        -0.02069         -0.00428         0.02976
  C         0.02012          0.00768         1.34904
  H         0.90068          0.02248        -0.53739
  H         0.94880         -0.03838         1.89367
  H        -0.88027         -0.01776         1.94238
  C        -1.28922         -0.00113        -0.76728
  H        -1.08254          0.00301        -1.83378
  H        -1.89383         -0.87676        -0.53416
  H        -1.88276          0.88034        -0.52772
9
 step=         570     theta[rad]=           5.9690
  C        -0.02069          0.00428         0.02976
  C         0.02012         -0.00768         1.34904
  H         0.90068         -0.02248        -0.53739
  H         0.94880          0.03838         1.89367
  H        -0.88027          0.01776         1.94238
  C        -1.28922          0.00113        -0.76728
  H        -1.08254         -0.00301        -1.83378
  H        -1.88276         -0.88034        -0.52772
  H        -1.89383          0.87676        -0.53416
9
 step=         571     theta[rad]=           5.9795
  C        -0.02069          0.01216         0.02976
  C         0.02012         -0.02184         1.34904
  H         0.90068         -0.06388        -0.53739
  H         0.94880          0.10908         1.89367
  H        -0.88027          0.05048         1.94238
  C        -1.28922          0.00322        -0.76728
  H        -1.08254         -0.00855        -1.83378
  H        -1.87257         -0.88364        -0.52180
  H        -1.90402          0.87346        -0.54009
9
 step=         572     theta[rad]=           5.9900
  C        -0.02069          0.01873         0.02976
  C         0.02012         -0.03362         1.34904
  H         0.90068         -0.09835        -0.53739
  H         0.94880          0.16794         1.89367
  H        -0.88027          0.07772         1.94238
  C        -1.28922          0.00495        -0.76728
  H        -1.08254         -0.01316        -1.83378
  H        -1.86408         -0.88639        -0.51686
  H        -1.91250          0.87072        -0.54502
9
 step=         573     theta[rad]=           6.0004
  C        -0.02069          0.02355         0.02976
  C         0.02012         -0.04227         1.34904
  H         0.90068         -0.12367        -0.53739
  H         0.94880          0.21116         1.89367
  H        -0.88027          0.09773         1.94238
  C        -1.28922          0.00622        -0.76728
  H        -1.08254         -0.01655        -1.83378
  H        -1.85785         -0.88841        -0.51324
  H        -1.91873          0.86870        -0.54865
9
 step=         574     theta[rad]=           6.0109
  C        -0.02069          0.02642         0.02976
  C         0.02012         -0.04744         1.34904
  H         0.90068         -0.13878        -0.53739
  H         0.94880          0.23697         1.89367
  H        -0.88027          0.10967         1.94238
  C        -1.28922          0.00698        -0.76728
  H        -1.08254         -0.01857        -1.83378
  H        -1.85413         -0.88961        -0.51107
  H        -1.92245          0.86750        -0.55081
9
 step=         575     theta[rad]=           6.0214
  C        -0.02069          0.02736         0.02976
  C         0.02012         -0.04911         1.34904
  H         0.90068         -0.14367        -0.53739
  H         0.94880          0.24533         1.89367
  H        -0.88027          0.11354         1.94238
  C        -1.28922          0.00723        -0.76728
  H        -1.08254         -0.01923        -1.83378
  H        -1.85293         -0.89000        -0.51037
  H        -1.92366          0.86711        -0.55151
9
 step=         576     theta[rad]=           6.0319
  C        -0.02069          0.02650         0.02976
  C         0.02012         -0.04757         1.34904
  H         0.90068         -0.13916        -0.53739
  H         0.94880          0.23762         1.89367
  H        -0.88027          0.10997         1.94238
  C        -1.28922          0.00700        -0.76728
  H        -1.08254         -0.01862        -1.83378
  H        -1.85404         -0.88964        -0.51102
  H        -1.92255          0.86747        -0.55087
9
 step=         577     theta[rad]=           6.0423
  C        -0.02069          0.02411         0.02976
  C         0.02012         -0.04328         1.34904
  H         0.90068         -0.12662        -0.53739
  H         0.94880          0.21621         1.89367
  H        -0.88027          0.10006         1.94238
  C        -1.28922          0.00637        -0.76728
  H        -1.08254         -0.01695        -1.83378
  H        -1.85713         -0.88864        -0.51281
  H        -1.91946          0.86847        -0.54907
9
 step=         578     theta[rad]=           6.0528
  C        -0.02069          0.02052         0.02976
  C         0.02012         -0.03684         1.34904
  H         0.90068         -0.10777        -0.53739
  H         0.94880          0.18402         1.89367
  H        -0.88027          0.08517         1.94238
  C        -1.28922          0.00542        -0.76728
  H        -1.08254         -0.01442        -1.83378
  H        -1.86177         -0.88714        -0.51551
  H        -1.91482          0.86997        -0.54637
9
 step=         579     theta[rad]=           6.0633
  C        -0.02069          0.01608         0.02976
  C         0.02012         -0.02887         1.34904
  H         0.90068         -0.08445        -0.53739
  H         0.94880          0.14420         1.89367
  H        -0.88027          0.06674         1.94238
  C        -1.28922          0.00425        -0.76728
  H        -1.08254         -0.01130        -1.83378
  H        -1.86751         -0.88528        -0.51885
  H        -1.90908          0.87183        -0.54303
9
 step=         580     theta[rad]=           6.0737
  C        -0.02069          0.01113         0.02976
  C         0.02012         -0.01998         1.34904
  H         0.90068         -0.05844        -0.53739
  H         0.94880          0.09978         1.89367
  H        -0.88027          0.04618         1.94238
  C        -1.28922          0.00294        -0.76728
  H        -1.08254         -0.00782        -1.83378
  H        -1.87391         -0.88321        -0.52258
  H        -1.90268          0.87390        -0.53931
9
 step=         581     theta[rad]=           6.0842
  C        -0.02069          0.00597         0.02976
  C         0.02012         -0.01071         1.34904
  H         0.90068         -0.03134        -0.53739
  H         0.94880          0.05352         1.89367
  H        -0.88027          0.02477         1.94238
  C        -1.28922          0.00158        -0.76728
  H        -1.08254         -0.00419        -1.83378
  H        -1.88058         -0.88105        -0.52646
  H        -1.89601          0.87606        -0.53543
9
 step=         582     theta[rad]=           6.0947
  C        -0.02069          0.00086         0.02976
  C         0.02012         -0.00154         1.34904
  H         0.90068         -0.00451        -0.53739
  H         0.94880          0.00771         1.89367
  H        -0.88027          0.00357         1.94238
  C        -1.28922          0.00023        -0.76728
  H        -1.08254         -0.00060        -1.83378
  H        -1.88718         -0.87891        -0.53030
  H        -1.88940          0.87819        -0.53159
9
 step=         583     theta[rad]=           6.1052
  C        -0.02069         -0.00400         0.02976
  C         0.02012          0.00717         1.34904
  H         0.90068          0.02099        -0.53739
  H         0.94880         -0.03584         1.89367
  H        -0.88027         -0.01659         1.94238
  C        -1.28922         -0.00106        -0.76728
  H        -1.08254          0.00281        -1.83378
  H        -1.89346         -0.87688        -0.53395
  H        -1.88313          0.88023        -0.52794
9
 step=         584     theta[rad]=           6.1156
  C        -0.02069         -0.00845         0.02976
  C         0.02012          0.01518         1.34904
  H         0.90068          0.04440        -0.53739
  H         0.94880         -0.07581         1.89367
  H        -0.88027         -0.03509         1.94238
  C        -1.28922         -0.00223        -0.76728
  H        -1.08254          0.00594        -1.83378
  H        -1.89922         -0.87502        -0.53730
  H        -1.87737          0.88209        -0.52459
9
 step=         585     theta[rad]=           6.1261
  C        -0.02069         -0.01242         0.02976
  C         0.02012          0.02230         1.34904
  H         0.90068          0.06523        -0.53739
  H         0.94880         -0.11138         1.89367
  H        -0.88027         -0.05155         1.94238
  C        -1.28922         -0.00328        -0.76728
  H        -1.08254          0.00873        -1.83378
  H        -1.90435         -0.87336        -0.54028
  H        -1.87224          0.88375        -0.52160
9
 step=         586     theta[rad]=           6.1366
  C        -0.02069         -0.01585         0.02976
  C         0.02012          0.02845         1.34904
  H         0.90068          0.08323        -0.53739
  H         0.94880         -0.14211         1.89367
  H        -0.88027         -0.06577         1.94238
  C        -1.28922         -0.00419        -0.76728
  H        -1.08254          0.01114        -1.83378
  H        -1.90878         -0.87192        -0.54286
  H        -1.86781          0.88518        -0.51903
9
 step=         587     theta[rad]=           6.1470
  C        -0.02069         -0.01873         0.02976
  C         0.02012          0.03362         1.34904
  H         0.90068          0.09835        -0.53739
  H         0.94880         -0.16794         1.89367
  H        -0.88027         -0.07772         1.94238
  C        -1.28922         -0.00495        -0.76728
  H        -1.08254          0.01316        -1.83378
  H        -1.91250         -0.87072        -0.54502
  H        -1.86408          0.88639        -0.51686
9
 step=         588     theta[rad]=           6.1575
  C        -0.02069         -0.02108         0.02976
  C         0.02012          0.03784         1.34904
  H         0.90068          0.11070        -0.53739
  H         0.94880         -0.18903         1.89367
  H        -0.88027         -0.08748         1.94238
  C        -1.28922         -0.00557        -0.76728
  H        -1.08254          0.01482        -1.83378
  H        -1.91554         -0.86973        -0.54679
  H        -1.86104          0.88737        -0.51509
9
 step=         589     theta[rad]=           6.1680
  C        -0.02069         -0.02294         0.02976
  C         0.02012          0.04119         1.34904
  H         0.90068          0.12049        -0.53739
  H         0.94880         -0.20575         1.89367
  H        -0.88027         -0.09522         1.94238
  C        -1.28922         -0.00606        -0.76728
  H        -1.08254          0.01613        -1.83378
  H        -1.91795         -0.86895        -0.54820
  H        -1.85863          0.88815        -0.51369
9
 step=         590     theta[rad]=           6.1785
  C        -0.02069         -0.02437         0.02976
  C         0.02012          0.04376         1.34904
  H         0.90068          0.12801        -0.53739
  H         0.94880         -0.21859         1.89367
  H        -0.88027         -0.10116         1.94238
  C        -1.28922         -0.00644        -0.76728
  H        -1.08254          0.01713        -1.83378
  H        -1.91980         -0.86835        -0.54927
  H        -1.85678          0.88875        -0.51261
9
 step=         591     theta[rad]=           6.1889
  C        -0.02069         -0.02544         0.02976
  C         0.02012          0.04566         1.34904
  H         0.90068          0.13358        -0.53739
  H         0.94880         -0.22810         1.89367
  H        -0.88027         -0.10557         1.94238
  C        -1.28922         -0.00672        -0.76728
  H        -1.08254          0.01788        -1.83378
  H        -1.92117         -0.86791        -0.55007
  H        -1.85541          0.88920        -0.51182
9
 step=         592     theta[rad]=           6.1994
  C        -0.02069         -0.02619         0.02976
  C         0.02012          0.04702         1.34904
  H         0.90068          0.13754        -0.53739
  H         0.94880         -0.23486         1.89367
  H        -0.88027         -0.10869         1.94238
  C        -1.28922         -0.00692        -0.76728
  H        -1.08254          0.01841        -1.83378
  H        -1.92215         -0.86760        -0.55064
  H        -1.85444          0.88951        -0.51125
9
 step=         593     theta[rad]=           6.2099
  C        -0.02069         -0.02670         0.02976
  C         0.02012          0.04793         1.34904
  H         0.90068          0.14021        -0.53739
  H         0.94880         -0.23942         1.89367
  H        -0.88027         -0.11081         1.94238
  C        -1.28922         -0.00706        -0.76728
  H        -1.08254          0.01877        -1.83378
  H        -1.92281         -0.86738        -0.55102
  H        -1.85378          0.88972        -0.51087
9
 step=         594     theta[rad]=           6.2204
  C        -0.02069         -0.02702         0.02976
  C         0.02012          0.04851         1.34904
  H         0.90068          0.14190        -0.53739
  H         0.94880         -0.24231         1.89367
  H        -0.88027         -0.11214         1.94238
  C        -1.28922         -0.00714        -0.76728
  H        -1.08254          0.01899        -1.83378
  H        -1.92322         -0.86725        -0.55126
  H        -1.85336          0.88986        -0.51062
9
 step=         595     theta[rad]=           6.2308
  C        -0.02069         -0.02721         0.02976
  C         0.02012          0.04884         1.34904
  H         0.90068          0.14289        -0.53739
  H         0.94880         -0.24398         1.89367
  H        -0.88027         -0.11292         1.94238
  C        -1.28922         -0.00719        -0.76728
  H        -1.08254          0.01912        -1.83378
  H        -1.92346         -0.86717        -0.55140
  H        -1.85312          0.88994        -0.51048
9
 step=         596     theta[rad]=           6.2413
  C        -0.02069         -0.02730         0.02976
  C         0.02012          0.04902         1.34904
  H         0.90068          0.14339        -0.53739
  H         0.94880         -0.24484         1.89367
  H        -0.88027         -0.11332         1.94238
  C        -1.28922         -0.00722        -0.76728
  H        -1.08254          0.01919        -1.83378
  H        -1.92359         -0.86713        -0.55147
  H        -1.85300          0.88998        -0.51041
9
 step=         597     theta[rad]=           6.2518
  C        -0.02069         -0.02734         0.02976
  C         0.02012          0.04909         1.34904
  H         0.90068          0.14360        -0.53739
  H         0.94880         -0.24521         1.89367
  H        -0.88027         -0.11348         1.94238
  C        -1.28922         -0.00723        -0.76728
  H        -1.08254          0.01922        -1.83378
  H        -1.92364         -0.86711        -0.55150
  H        -1.85295          0.88999        -0.51038
9
 step=         598     theta[rad]=           6.2622
  C        -0.02069         -0.02736         0.02976
  C         0.02012          0.04911         1.34904
  H         0.90068          0.14367        -0.53739
  H         0.94880         -0.24532         1.89367
  H        -0.88027         -0.11353         1.94238
  C        -1.28922         -0.00723        -0.76728
  H        -1.08254          0.01923        -1.83378
  H        -1.92366         -0.86711        -0.55151
  H        -1.85293          0.89000        -0.51037
9
 step=         599     theta[rad]=           6.2727
  C        -0.02069         -0.02736         0.02976
  C         0.02012          0.04911         1.34904
  H         0.90068          0.14367        -0.53739
  H         0.94880         -0.24533         1.89367
  H        -0.88027         -0.11354         1.94238
  C        -1.28922         -0.00723        -0.76728
  H        -1.08254          0.01923        -1.83378
  H        -1.92366         -0.86711        -0.55151
  H        -1.85293          0.89000        -0.51037
9
 step=         600     theta[rad]=           6.2832
  C        -0.02069         -0.02736         0.02976
  C         0.02012          0.04911         1.34904
  H         0.90068          0.14367        -0.53739
  H         0.94880         -0.24533         1.89367
  H        -0.88027         -0.11354         1.94238
  C        -1.28922         -0.00723        -0.76728
  H        -1.08254          0.01923        -1.83378
  H        -1.92366         -0.86711        -0.55151
  H        -1.85293          0.89000        -0.51037
