9
 step=           0     theta[rad]=           0.0000
  C        -0.02267         -0.00000         0.04064
  C         0.02118          0.00000         1.34860
  H         0.91151         -0.00000        -0.50209
  H         0.97588         -0.00000         1.84865
  H        -0.90877          0.00000         1.89613
  C        -1.30312         -0.00000        -0.75651
  H        -1.22088          0.00000        -1.84399
  H        -1.73556         -1.02071        -0.62429
  H        -1.73556          1.02071        -0.62429
9
 step=           1     theta[rad]=           0.0105
  C        -0.02267         -0.00000         0.04064
  C         0.02118          0.00000         1.34860
  H         0.91151         -0.00000        -0.50209
  H         0.97588         -0.00000         1.84865
  H        -0.90876          0.00000         1.89613
  C        -1.30312         -0.00000        -0.75651
  H        -1.22088          0.00000        -1.84399
  H        -1.73556         -1.02070        -0.62428
  H        -1.73556          1.02070        -0.62428
9
 step=           2     theta[rad]=           0.0209
  C        -0.02267         -0.00000         0.04064
  C         0.02118          0.00000         1.34860
  H         0.91150         -0.00000        -0.50211
  H         0.97587         -0.00000         1.84867
  H        -0.90875          0.00000         1.89615
  C        -1.30311         -0.00000        -0.75651
  H        -1.22082          0.00000        -1.84398
  H        -1.73563         -1.02064        -0.62424
  H        -1.73563          1.02064        -0.62424
9
 step=           3     theta[rad]=           0.0314
  C        -0.02266         -0.00000         0.04062
  C         0.02118          0.00000         1.34860
  H         0.91149         -0.00000        -0.50216
  H         0.97583         -0.00000         1.84873
  H        -0.90871          0.00000         1.89622
  C        -1.30309         -0.00000        -0.75653
  H        -1.22061          0.00000        -1.84397
  H        -1.73586         -1.02043        -0.62410
  H        -1.73586          1.02043        -0.62410
9
 step=           4     theta[rad]=           0.0419
  C        -0.02266         -0.00000         0.04058
  C         0.02118          0.00000         1.34860
  H         0.91145         -0.00000        -0.50228
  H         0.97574         -0.00000         1.84889
  H        -0.90861          0.00000         1.89638
  C        -1.30304         -0.00000        -0.75657
  H        -1.22013          0.00000        -1.84393
  H        -1.73639         -1.01993        -0.62378
  H        -1.73639          1.01993        -0.62378
9
 step=           5     theta[rad]=           0.0524
  C        -0.02264         -0.00000         0.04051
  C         0.02117          0.00000         1.34860
  H         0.91138         -0.00000        -0.50252
  H         0.97555         -0.00000         1.84920
  H        -0.90841          0.00000         1.89670
  C        -1.30295         -0.00000        -0.75664
  H        -1.21918          0.00000        -1.84386
  H        -1.73744         -1.01896        -0.62314
  H        -1.73744          1.01896        -0.62314
9
 step=           6     theta[rad]=           0.0628
  C        -0.02262         -0.00000         0.04038
  C         0.02116          0.00000         1.34861
  H         0.91125         -0.00000        -0.50294
  H         0.97523         -0.00000         1.84973
  H        -0.90808          0.00000         1.89724
  C        -1.30278         -0.00000        -0.75677
  H        -1.21755          0.00000        -1.84374
  H        -1.73923         -1.01729        -0.62204
  H        -1.73923          1.01729        -0.62204
9
 step=           7     theta[rad]=           0.0733
  C        -0.02258         -0.00000         0.04018
  C         0.02114          0.00000         1.34862
  H         0.91105         -0.00000        -0.50360
  H         0.97473         -0.00000         1.85057
  H        -0.90755          0.00000         1.89810
  C        -1.30253         -0.00000        -0.75697
  H        -1.21498          0.00000        -1.84355
  H        -1.74208         -1.01464        -0.62030
  H        -1.74208          1.01464        -0.62030
9
 step=           8     theta[rad]=           0.0838
  C        -0.02253         -0.00000         0.03988
  C         0.02111          0.00000         1.34863
  H         0.91075         -0.00000        -0.50457
  H         0.97398         -0.00000         1.85181
  H        -0.90676          0.00000         1.89938
  C        -1.30214         -0.00000        -0.75727
  H        -1.21117          0.00000        -1.84327
  H        -1.74628         -1.01073        -0.61773
  H        -1.74628          1.01073        -0.61773
9
 step=           9     theta[rad]=           0.0942
  C        -0.02245         -0.00000         0.03946
  C         0.02107          0.00000         1.34865
  H         0.91033         -0.00000        -0.50594
  H         0.97293         -0.00000         1.85355
  H        -0.90566          0.00000         1.90117
  C        -1.30160         -0.00000        -0.75768
  H        -1.20581          0.00000        -1.84288
  H        -1.75220         -1.00522        -0.61411
  H        -1.75220          1.00522        -0.61411
9
 step=          10     theta[rad]=           0.1047
  C        -0.02235         -0.00000         0.03889
  C         0.02101          0.00000         1.34867
  H         0.90976         -0.00000        -0.50778
  H         0.97151         -0.00000         1.85591
  H        -0.90417          0.00000         1.90359
  C        -1.30088         -0.00000        -0.75825
  H        -1.19856          0.00000        -1.84234
  H        -1.76020         -0.99778        -0.60923
  H        -1.76020          0.99778        -0.60923
9
 step=          11     theta[rad]=           0.1152
  C        -0.02221         -0.00000         0.03814
  C         0.02094          0.00000         1.34870
  H         0.90902         -0.00000        -0.51019
  H         0.96967         -0.00000         1.85898
  H        -0.90223          0.00000         1.90674
  C        -1.29993         -0.00000        -0.75898
  H        -1.18914          0.00000        -1.84165
  H        -1.77061         -0.98809        -0.60287
  H        -1.77061          0.98809        -0.60287
9
 step=          12     theta[rad]=           0.1257
  C        -0.02204         -0.00000         0.03721
  C         0.02085          0.00000         1.34874
  H         0.90809         -0.00000        -0.51323
  H         0.96734         -0.00000         1.86285
  H        -0.89978          0.00000         1.91072
  C        -1.29873         -0.00000        -0.75991
  H        -1.17724          0.00000        -1.84077
  H        -1.78374         -0.97587        -0.59484
  H        -1.78374          0.97587        -0.59484
9
 step=          13     theta[rad]=           0.1361
  C        -0.02184         -0.00000         0.03606
  C         0.02074          0.00000         1.34878
  H         0.90695         -0.00000        -0.51694
  H         0.96449         -0.00000         1.86759
  H        -0.89678          0.00000         1.91559
  C        -1.29727         -0.00000        -0.76104
  H        -1.16268          0.00000        -1.83969
  H        -1.79982         -0.96090        -0.58502
  H        -1.79982          0.96090        -0.58502
9
 step=          14     theta[rad]=           0.1466
  C        -0.02159         -0.00000         0.03470
  C         0.02060          0.00000         1.34884
  H         0.90560         -0.00000        -0.52136
  H         0.96110         -0.00000         1.87323
  H        -0.89320          0.00000         1.92138
  C        -1.29553         -0.00000        -0.76239
  H        -1.14535          0.00000        -1.83842
  H        -1.81895         -0.94309        -0.57332
  H        -1.81895          0.94309        -0.57332
9
 step=          15     theta[rad]=           0.1571
  C        -0.02130         -0.00000         0.03312
  C         0.02045          0.00000         1.34890
  H         0.90402         -0.00000        -0.52648
  H         0.95717         -0.00000         1.87975
  H        -0.88907          0.00000         1.92809
  C        -1.29351         -0.00000        -0.76395
  H        -1.12529          0.00000        -1.83694
  H        -1.84110         -0.92248        -0.55979
  H        -1.84110          0.92248        -0.55979
9
 step=          16     theta[rad]=           0.1676
  C        -0.02098         -0.00000         0.03135
  C         0.02028          0.00000         1.34897
  H         0.90226         -0.00000        -0.53223
  H         0.95276         -0.00000         1.88709
  H        -0.88443          0.00000         1.93563
  C        -1.29125         -0.00000        -0.76571
  H        -1.10275          0.00000        -1.83527
  H        -1.86598         -0.89932        -0.54458
  H        -1.86598          0.89932        -0.54458
9
 step=          17     theta[rad]=           0.1780
  C        -0.02063         -0.00000         0.02941
  C         0.02009          0.00000         1.34905
  H         0.90034         -0.00000        -0.53850
  H         0.94795         -0.00000         1.89508
  H        -0.87937          0.00000         1.94383
  C        -1.28878         -0.00000        -0.76762
  H        -1.07819          0.00000        -1.83346
  H        -1.89309         -0.87409        -0.52801
  H        -1.89309          0.87409        -0.52801
9
 step=          18     theta[rad]=           0.1885
  C        -0.02026         -0.00000         0.02738
  C         0.01989          0.00000         1.34913
  H         0.89831         -0.00000        -0.54509
  H         0.94289         -0.00000         1.90349
  H        -0.87405          0.00000         1.95247
  C        -1.28619         -0.00000        -0.76963
  H        -1.05236          0.00000        -1.83155
  H        -1.92161         -0.84754        -0.51058
  H        -1.92161          0.84754        -0.51058
9
 step=          19     theta[rad]=           0.1990
  C        -0.01988         -0.00000         0.02533
  C         0.01969          0.00000         1.34921
  H         0.89627         -0.00000        -0.55175
  H         0.93778         -0.00000         1.91198
  H        -0.86868          0.00000         1.96120
  C        -1.28356         -0.00000        -0.77167
  H        -1.02627          0.00000        -1.82963
  H        -1.95042         -0.82073        -0.49298
  H        -1.95042          0.82073        -0.49298
9
 step=          20     theta[rad]=           0.2094
  C        -0.01953         -0.00000         0.02336
  C         0.01950          0.00000         1.34929
  H         0.89431         -0.00000        -0.55814
  H         0.93288         -0.00000         1.92013
  H        -0.86352          0.00000         1.96957
  C        -1.28105         -0.00000        -0.77362
  H        -1.00122          0.00000        -1.82778
  H        -1.97807         -0.79500        -0.47608
  H        -1.97807          0.79499        -0.47608
9
 step=          21     theta[rad]=           0.2199
  C        -0.01921         -0.00000         0.02159
  C         0.01932          0.00000         1.34936
  H         0.89255         -0.00000        -0.56387
  H         0.92849         -0.00000         1.92743
  H        -0.85889          0.00000         1.97708
  C        -1.27879         -0.00000        -0.77537
  H        -0.97876          0.00000        -1.82612
  H        -2.00286         -0.77192        -0.46092
  H        -2.00286          0.77192        -0.46092
9
 step=          22     theta[rad]=           0.2304
  C        -0.01895         -0.00000         0.02016
  C         0.01919          0.00000         1.34942
  H         0.89113         -0.00000        -0.56850
  H         0.92493         -0.00000         1.93334
  H        -0.85515          0.00000         1.98315
  C        -1.27697         -0.00000        -0.77678
  H        -0.96061          0.00000        -1.82478
  H        -2.02290         -0.75327        -0.44868
  H        -2.02290          0.75327        -0.44868
9
 step=          23     theta[rad]=           0.2409
  C        -0.01877         -0.00000         0.01921
  C         0.01909          0.00000         1.34946
  H         0.89018         -0.00000        -0.57158
  H         0.92257         -0.00000         1.93727
  H        -0.85266          0.00000         1.98718
  C        -1.27575         -0.00000        -0.77772
  H        -0.94854          0.00000        -1.82389
  H        -2.03623         -0.74086        -0.44053
  H        -2.03623          0.74086        -0.44053
9
 step=          24     theta[rad]=           0.2513
  C        -0.01871         -0.00000         0.01887
  C         0.01906          0.00000         1.34947
  H         0.88984         -0.00000        -0.57269
  H         0.92172         -0.00000         1.93868
  H        -0.85177          0.00000         1.98864
  C        -1.27532         -0.00000        -0.77806
  H        -0.94419          0.00000        -1.82357
  H        -2.04103         -0.73640        -0.43760
  H        -2.04103          0.73640        -0.43760
9
 step=          25     theta[rad]=           0.2618
  C        -0.01878         -0.00000         0.01924
  C         0.01910          0.00000         1.34946
  H         0.89021         -0.00000        -0.57149
  H         0.92264         -0.00000         1.93715
  H        -0.85274          0.00000         1.98706
  C        -1.27579         -0.00000        -0.77769
  H        -0.94890          0.00000        -1.82392
  H        -2.03583         -0.74124        -0.44078
  H        -2.03583          0.74124        -0.44078
9
 step=          26     theta[rad]=           0.2723
  C        -0.01899         -0.00000         0.02039
  C         0.01921          0.00000         1.34941
  H         0.89135         -0.00000        -0.56778
  H         0.92549         -0.00000         1.93242
  H        -0.85574          0.00000         1.98219
  C        -1.27725         -0.00000        -0.77656
  H        -0.96346          0.00000        -1.82499
  H        -2.01976         -0.75619        -0.45060
  H        -2.01976          0.75619        -0.45060
9
 step=          27     theta[rad]=           0.2827
  C        -0.01934         -0.00000         0.02231
  C         0.01939          0.00000         1.34934
  H         0.89326         -0.00000        -0.56156
  H         0.93026         -0.00000         1.92448
  H        -0.86076          0.00000         1.97404
  C        -1.27970         -0.00000        -0.77466
  H        -0.98783          0.00000        -1.82679
  H        -1.99285         -0.78124        -0.46704
  H        -1.99285          0.78124        -0.46704
9
 step=          28     theta[rad]=           0.2932
  C        -0.01981         -0.00000         0.02492
  C         0.01965          0.00000         1.34923
  H         0.89586         -0.00000        -0.55309
  H         0.93676         -0.00000         1.91368
  H        -0.86759          0.00000         1.96295
  C        -1.28304         -0.00000        -0.77207
  H        -1.02102          0.00000        -1.82924
  H        -1.95621         -0.81534        -0.48944
  H        -1.95621          0.81534        -0.48944
9
 step=          29     theta[rad]=           0.3037
  C        -0.02038         -0.00000         0.02805
  C         0.01996          0.00000         1.34910
  H         0.89898         -0.00000        -0.54291
  H         0.94456         -0.00000         1.90071
  H        -0.87581          0.00000         1.94962
  C        -1.28704         -0.00000        -0.76897
  H        -1.06089          0.00000        -1.83218
  H        -1.91219         -0.85632        -0.51634
  H        -1.91219          0.85632        -0.51634
9
 step=          30     theta[rad]=           0.3142
  C        -0.02100         -0.00000         0.03146
  C         0.02029          0.00000         1.34897
  H         0.90237         -0.00000        -0.53187
  H         0.95304         -0.00000         1.88662
  H        -0.88472          0.00000         1.93515
  C        -1.29139         -0.00000        -0.76560
  H        -1.10418          0.00000        -1.83538
  H        -1.86440         -0.90079        -0.54554
  H        -1.86440          0.90079        -0.54554
9
 step=          31     theta[rad]=           0.3246
  C        -0.02161         -0.00000         0.03480
  C         0.02061          0.00000         1.34883
  H         0.90570         -0.00000        -0.52104
  H         0.96135         -0.00000         1.87281
  H        -0.89347          0.00000         1.92095
  C        -1.29566         -0.00000        -0.76229
  H        -1.14663          0.00000        -1.83851
  H        -1.81753         -0.94441        -0.57419
  H        -1.81753          0.94441        -0.57419
9
 step=          32     theta[rad]=           0.3351
  C        -0.02213         -0.00000         0.03769
  C         0.02090          0.00000         1.34872
  H         0.90857         -0.00000        -0.51166
  H         0.96854         -0.00000         1.86085
  H        -0.90104          0.00000         1.90866
  C        -1.29935         -0.00000        -0.75943
  H        -1.18339          0.00000        -1.84122
  H        -1.77695         -0.98218        -0.59899
  H        -1.77695          0.98218        -0.59899
9
 step=          33     theta[rad]=           0.3456
  C        -0.02250         -0.00000         0.03975
  C         0.02110          0.00000         1.34863
  H         0.91062         -0.00000        -0.50499
  H         0.97366         -0.00000         1.85235
  H        -0.90642          0.00000         1.89993
  C        -1.30198         -0.00000        -0.75740
  H        -1.20951          0.00000        -1.84315
  H        -1.74812         -1.00902        -0.61661
  H        -1.74812          1.00902        -0.61661
9
 step=          34     theta[rad]=           0.3560
  C        -0.02266         -0.00000         0.04063
  C         0.02118          0.00000         1.34860
  H         0.91150         -0.00000        -0.50214
  H         0.97585         -0.00000         1.84871
  H        -0.90873          0.00000         1.89619
  C        -1.30310         -0.00000        -0.75652
  H        -1.22069          0.00000        -1.84398
  H        -1.73577         -1.02052        -0.62416
  H        -1.73577          1.02052        -0.62416
9
 step=          35     theta[rad]=           0.3665
  C        -0.02257         -0.00000         0.04011
  C         0.02113          0.00000         1.34862
  H         0.91098         -0.00000        -0.50382
  H         0.97456         -0.00000         1.85085
  H        -0.90737          0.00000         1.89839
  C        -1.30244         -0.00000        -0.75704
  H        -1.21411          0.00000        -1.84349
  H        -1.74303         -1.01375        -0.61972
  H        -1.74303          1.01375        -0.61972
9
 step=          36     theta[rad]=           0.3770
  C        -0.02221         -0.00000         0.03814
  C         0.02094          0.00000         1.34870
  H         0.90902         -0.00000        -0.51019
  H         0.96967         -0.00000         1.85898
  H        -0.90223          0.00000         1.90674
  C        -1.29993         -0.00000        -0.75898
  H        -1.18914          0.00000        -1.84165
  H        -1.77061         -0.98809        -0.60287
  H        -1.77061          0.98809        -0.60287
9
 step=          37     theta[rad]=           0.3875
  C        -0.02162         -0.00000         0.03490
  C         0.02062          0.00000         1.34883
  H         0.90580         -0.00000        -0.52071
  H         0.96160         -0.00000         1.87239
  H        -0.89373          0.00000         1.92052
  C        -1.29579         -0.00000        -0.76219
  H        -1.14791          0.00000        -1.83860
  H        -1.81612         -0.94573        -0.57505
  H        -1.81612          0.94573        -0.57505
9
 step=          38     theta[rad]=           0.3979
  C        -0.02088         -0.00000         0.03078
  C         0.02022          0.00000         1.34899
  H         0.90170         -0.00000        -0.53407
  H         0.95135         -0.00000         1.88943
  H        -0.88295          0.00000         1.93803
  C        -1.29053         -0.00000        -0.76627
  H        -1.09556          0.00000        -1.83474
  H        -1.87392         -0.89193        -0.53973
  H        -1.87392          0.89193        -0.53973
9
 step=          39     theta[rad]=           0.4084
  C        -0.02008         -0.00000         0.02639
  C         0.01979          0.00000         1.34917
  H         0.89733         -0.00000        -0.54830
  H         0.94043         -0.00000         1.90758
  H        -0.87146          0.00000         1.95668
  C        -1.28492         -0.00000        -0.77061
  H        -1.03979          0.00000        -1.83063
  H        -1.93549         -0.83462        -0.50210
  H        -1.93549          0.83462        -0.50210
9
 step=          40     theta[rad]=           0.4189
  C        -0.01937         -0.00000         0.02247
  C         0.01941          0.00000         1.34933
  H         0.89343         -0.00000        -0.56101
  H         0.93068         -0.00000         1.92379
  H        -0.86120          0.00000         1.97333
  C        -1.27992         -0.00000        -0.77449
  H        -0.98996          0.00000        -1.82695
  H        -1.99049         -0.78343        -0.46848
  H        -1.99049          0.78343        -0.46848
9
 step=          41     theta[rad]=           0.4294
  C        -0.01887         -0.00000         0.01977
  C         0.01915          0.00000         1.34944
  H         0.89074         -0.00000        -0.56979
  H         0.92394         -0.00000         1.93498
  H        -0.85411          0.00000         1.98483
  C        -1.27646         -0.00000        -0.77717
  H        -0.95557          0.00000        -1.82441
  H        -2.02847         -0.74809        -0.44527
  H        -2.02847          0.74809        -0.44527
9
 step=          42     theta[rad]=           0.4398
  C        -0.01871         -0.00000         0.01888
  C         0.01906          0.00000         1.34947
  H         0.88985         -0.00000        -0.57268
  H         0.92173         -0.00000         1.93866
  H        -0.85178          0.00000         1.98861
  C        -1.27533         -0.00000        -0.77805
  H        -0.94426          0.00000        -1.82358
  H        -2.04095         -0.73647        -0.43764
  H        -2.04095          0.73647        -0.43764
9
 step=          43     theta[rad]=           0.4503
  C        -0.01894         -0.00000         0.02011
  C         0.01918          0.00000         1.34942
  H         0.89108         -0.00000        -0.56868
  H         0.92480         -0.00000         1.93356
  H        -0.85501          0.00000         1.98337
  C        -1.27690         -0.00000        -0.77683
  H        -0.95993          0.00000        -1.82473
  H        -2.02365         -0.75257        -0.44822
  H        -2.02365          0.75257        -0.44822
9
 step=          44     theta[rad]=           0.4608
  C        -0.01953         -0.00000         0.02336
  C         0.01950          0.00000         1.34929
  H         0.89431         -0.00000        -0.55814
  H         0.93288         -0.00000         1.92013
  H        -0.86352          0.00000         1.96957
  C        -1.28105         -0.00000        -0.77362
  H        -1.00122          0.00000        -1.82778
  H        -1.97807         -0.79500        -0.47608
  H        -1.97807          0.79499        -0.47608
9
 step=          45     theta[rad]=           0.4712
  C        -0.02038         -0.00000         0.02805
  C         0.01996          0.00000         1.34910
  H         0.89898         -0.00000        -0.54291
  H         0.94456         -0.00000         1.90071
  H        -0.87581          0.00000         1.94962
  C        -1.28704         -0.00000        -0.76897
  H        -1.06089          0.00000        -1.83218
  H        -1.91219         -0.85632        -0.51634
  H        -1.91219          0.85632        -0.51634
9
 step=          46     theta[rad]=           0.4817
  C        -0.02132         -0.00000         0.03323
  C         0.02046          0.00000         1.34890
  H         0.90413         -0.00000        -0.52613
  H         0.95744         -0.00000         1.87931
  H        -0.88936          0.00000         1.92763
  C        -1.29365         -0.00000        -0.76385
  H        -1.12666          0.00000        -1.83704
  H        -1.83958         -0.92390        -0.56072
  H        -1.83958          0.92390        -0.56072
9
 step=          47     theta[rad]=           0.4922
  C        -0.02213         -0.00000         0.03769
  C         0.02090          0.00000         1.34872
  H         0.90857         -0.00000        -0.51166
  H         0.96854         -0.00000         1.86085
  H        -0.90104          0.00000         1.90866
  C        -1.29935         -0.00000        -0.75943
  H        -1.18339          0.00000        -1.84122
  H        -1.77695         -0.98218        -0.59899
  H        -1.77695          0.98218        -0.59899
9
 step=          48     theta[rad]=           0.5027
  C        -0.02261         -0.00000         0.04030
  C         0.02115          0.00000         1.34861
  H         0.91117         -0.00000        -0.50320
  H         0.97503         -0.00000         1.85006
  H        -0.90787          0.00000         1.89758
  C        -1.30268         -0.00000        -0.75685
  H        -1.21654          0.00000        -1.84367
  H        -1.74036         -1.01625        -0.62135
  H        -1.74036          1.01625        -0.62135
9
 step=          49     theta[rad]=           0.5131
  C        -0.02260         -0.00000         0.04027
  C         0.02115          0.00000         1.34861
  H         0.91114         -0.00000        -0.50329
  H         0.97496         -0.00000         1.85018
  H        -0.90779          0.00000         1.89770
  C        -1.30264         -0.00000        -0.75688
  H        -1.21617          0.00000        -1.84364
  H        -1.74076         -1.01587        -0.62111
  H        -1.74076          1.01587        -0.62111
9
 step=          50     theta[rad]=           0.5236
  C        -0.02209         -0.00000         0.03745
  C         0.02087          0.00000         1.34873
  H         0.90834         -0.00000        -0.51243
  H         0.96795         -0.00000         1.86183
  H        -0.90042          0.00000         1.90968
  C        -1.29905         -0.00000        -0.75967
  H        -1.18036          0.00000        -1.84100
  H        -1.78029         -0.97907        -0.59695
  H        -1.78029          0.97907        -0.59695
9
 step=          51     theta[rad]=           0.5341
  C        -0.02118         -0.00000         0.03246
  C         0.02039          0.00000         1.34893
  H         0.90337         -0.00000        -0.52861
  H         0.95554         -0.00000         1.88247
  H        -0.88735          0.00000         1.93088
  C        -1.29268         -0.00000        -0.76460
  H        -1.11694          0.00000        -1.83632
  H        -1.85031         -0.91391        -0.55416
  H        -1.85031          0.91391        -0.55416
9
 step=          52     theta[rad]=           0.5445
  C        -0.02012         -0.00000         0.02661
  C         0.01981          0.00000         1.34916
  H         0.89755         -0.00000        -0.54759
  H         0.94097         -0.00000         1.90668
  H        -0.87203          0.00000         1.95575
  C        -1.28520         -0.00000        -0.77040
  H        -1.04255          0.00000        -1.83083
  H        -1.93244         -0.83747        -0.50396
  H        -1.93244          0.83747        -0.50396
9
 step=          53     theta[rad]=           0.5550
  C        -0.01921         -0.00000         0.02159
  C         0.01932          0.00000         1.34936
  H         0.89255         -0.00000        -0.56387
  H         0.92849         -0.00000         1.92743
  H        -0.85889          0.00000         1.97708
  C        -1.27879         -0.00000        -0.77537
  H        -0.97876          0.00000        -1.82612
  H        -2.00286         -0.77192        -0.46092
  H        -2.00286          0.77192        -0.46092
9
 step=          54     theta[rad]=           0.5655
  C        -0.01874         -0.00000         0.01901
  C         0.01907          0.00000         1.34947
  H         0.88998         -0.00000        -0.57226
  H         0.92205         -0.00000         1.93813
  H        -0.85212          0.00000         1.98807
  C        -1.27549         -0.00000        -0.77793
  H        -0.94589          0.00000        -1.82370
  H        -2.03915         -0.73815        -0.43875
  H        -2.03915          0.73815        -0.43875
9
 step=          55     theta[rad]=           0.5760
  C        -0.01888         -0.00000         0.01981
  C         0.01915          0.00000         1.34944
  H         0.89078         -0.00000        -0.56964
  H         0.92406         -0.00000         1.93479
  H        -0.85423          0.00000         1.98464
  C        -1.27652         -0.00000        -0.77713
  H        -0.95615          0.00000        -1.82445
  H        -2.02783         -0.74869        -0.44567
  H        -2.02783          0.74869        -0.44567
9
 step=          56     theta[rad]=           0.5864
  C        -0.01963         -0.00000         0.02392
  C         0.01955          0.00000         1.34927
  H         0.89487         -0.00000        -0.55631
  H         0.93429         -0.00000         1.91779
  H        -0.86500          0.00000         1.96717
  C        -1.28177         -0.00000        -0.77306
  H        -1.00841          0.00000        -1.82831
  H        -1.97013         -0.80238        -0.48093
  H        -1.97013          0.80238        -0.48093
9
 step=          57     theta[rad]=           0.5969
  C        -0.02075         -0.00000         0.03010
  C         0.02015          0.00000         1.34902
  H         0.90102         -0.00000        -0.53628
  H         0.94965         -0.00000         1.89225
  H        -0.88116          0.00000         1.94093
  C        -1.28965         -0.00000        -0.76695
  H        -1.08688          0.00000        -1.83410
  H        -1.88350         -0.88302        -0.53387
  H        -1.88350          0.88302        -0.53387
9
 step=          58     theta[rad]=           0.6074
  C        -0.02187         -0.00000         0.03625
  C         0.02075          0.00000         1.34878
  H         0.90714         -0.00000        -0.51634
  H         0.96495         -0.00000         1.86682
  H        -0.89726          0.00000         1.91480
  C        -1.29751         -0.00000        -0.76086
  H        -1.16502          0.00000        -1.83987
  H        -1.79723         -0.96331        -0.58660
  H        -1.79723          0.96331        -0.58660
9
 step=          59     theta[rad]=           0.6178
  C        -0.02257         -0.00000         0.04011
  C         0.02113          0.00000         1.34862
  H         0.91098         -0.00000        -0.50382
  H         0.97456         -0.00000         1.85085
  H        -0.90737          0.00000         1.89839
  C        -1.30244         -0.00000        -0.75704
  H        -1.21411          0.00000        -1.84349
  H        -1.74303         -1.01375        -0.61972
  H        -1.74303          1.01375        -0.61972
9
 step=          60     theta[rad]=           0.6283
  C        -0.02257         -0.00000         0.04011
  C         0.02113          0.00000         1.34862
  H         0.91098         -0.00000        -0.50382
  H         0.97456         -0.00000         1.85085
  H        -0.90737          0.00000         1.89839
  C        -1.30244         -0.00000        -0.75704
  H        -1.21411          0.00000        -1.84349
  H        -1.74303         -1.01375        -0.61972
  H        -1.74303          1.01375        -0.61972
9
 step=          61     theta[rad]=           0.6388
  C        -0.02184         -0.00000         0.03606
  C         0.02074          0.00000         1.34878
  H         0.90695         -0.00000        -0.51694
  H         0.96449         -0.00000         1.86759
  H        -0.89678          0.00000         1.91559
  C        -1.29727         -0.00000        -0.76104
  H        -1.16268          0.00000        -1.83969
  H        -1.79982         -0.96090        -0.58502
  H        -1.79982          0.96090        -0.58502
9
 step=          62     theta[rad]=           0.6493
  C        -0.02063         -0.00000         0.02941
  C         0.02009          0.00000         1.34905
  H         0.90034         -0.00000        -0.53850
  H         0.94795         -0.00000         1.89508
  H        -0.87937          0.00000         1.94383
  C        -1.28878         -0.00000        -0.76762
  H        -1.07819          0.00000        -1.83346
  H        -1.89309         -0.87409        -0.52801
  H        -1.89309          0.87409        -0.52801
9
 step=          63     theta[rad]=           0.6597
  C        -0.01943         -0.00000         0.02282
  C         0.01944          0.00000         1.34931
  H         0.89377         -0.00000        -0.55989
  H         0.93154         -0.00000         1.92236
  H        -0.86210          0.00000         1.97187
  C        -1.28036         -0.00000        -0.77415
  H        -0.99435          0.00000        -1.82727
  H        -1.98565         -0.78794        -0.47144
  H        -1.98565          0.78794        -0.47144
9
 step=          64     theta[rad]=           0.6702
  C        -0.01875         -0.00000         0.01911
  C         0.01908          0.00000         1.34946
  H         0.89008         -0.00000        -0.57192
  H         0.92231         -0.00000         1.93770
  H        -0.85239          0.00000         1.98762
  C        -1.27562         -0.00000        -0.77782
  H        -0.94721          0.00000        -1.82380
  H        -2.03769         -0.73950        -0.43964
  H        -2.03769          0.73950        -0.43964
9
 step=          65     theta[rad]=           0.6807
  C        -0.01893         -0.00000         0.02006
  C         0.01918          0.00000         1.34943
  H         0.89102         -0.00000        -0.56885
  H         0.92467         -0.00000         1.93378
  H        -0.85487          0.00000         1.98359
  C        -1.27683         -0.00000        -0.77688
  H        -0.95927          0.00000        -1.82468
  H        -2.02438         -0.75189        -0.44777
  H        -2.02438          0.75189        -0.44777
9
 step=          66     theta[rad]=           0.6912
  C        -0.01990         -0.00000         0.02543
  C         0.01970          0.00000         1.34921
  H         0.89637         -0.00000        -0.55141
  H         0.93804         -0.00000         1.91154
  H        -0.86895          0.00000         1.96075
  C        -1.28370         -0.00000        -0.77156
  H        -1.02759          0.00000        -1.82973
  H        -1.94895         -0.82210        -0.49387
  H        -1.94895          0.82210        -0.49387
9
 step=          67     theta[rad]=           0.7016
  C        -0.02126         -0.00000         0.03290
  C         0.02043          0.00000         1.34891
  H         0.90381         -0.00000        -0.52719
  H         0.95663         -0.00000         1.88065
  H        -0.88850          0.00000         1.92901
  C        -1.29324         -0.00000        -0.76417
  H        -1.12252          0.00000        -1.83673
  H        -1.84415         -0.91964        -0.55792
  H        -1.84415          0.91964        -0.55792
9
 step=          68     theta[rad]=           0.7121
  C        -0.02236         -0.00000         0.03895
  C         0.02102          0.00000         1.34867
  H         0.90982         -0.00000        -0.50759
  H         0.97167         -0.00000         1.85565
  H        -0.90433          0.00000         1.90333
  C        -1.30095         -0.00000        -0.75819
  H        -1.19935          0.00000        -1.84240
  H        -1.75933         -0.99858        -0.60976
  H        -1.75933          0.99858        -0.60976
9
 step=          69     theta[rad]=           0.7226
  C        -0.02264         -0.00000         0.04051
  C         0.02117          0.00000         1.34860
  H         0.91138         -0.00000        -0.50252
  H         0.97555         -0.00000         1.84920
  H        -0.90841          0.00000         1.89670
  C        -1.30295         -0.00000        -0.75664
  H        -1.21918          0.00000        -1.84386
  H        -1.73744         -1.01896        -0.62314
  H        -1.73744          1.01896        -0.62314
9
 step=          70     theta[rad]=           0.7330
  C        -0.02193         -0.00000         0.03661
  C         0.02079          0.00000         1.34876
  H         0.90749         -0.00000        -0.51518
  H         0.96584         -0.00000         1.86533
  H        -0.89820          0.00000         1.91327
  C        -1.29797         -0.00000        -0.76050
  H        -1.16960          0.00000        -1.84021
  H        -1.79217         -0.96802        -0.58969
  H        -1.79217          0.96802        -0.58969
9
 step=          71     theta[rad]=           0.7435
  C        -0.02057         -0.00000         0.02907
  C         0.02005          0.00000         1.34906
  H         0.90000         -0.00000        -0.53961
  H         0.94710         -0.00000         1.89649
  H        -0.87848          0.00000         1.94529
  C        -1.28835         -0.00000        -0.76796
  H        -1.07385          0.00000        -1.83314
  H        -1.89788         -0.86963        -0.52508
  H        -1.89788          0.86963        -0.52508
9
 step=          72     theta[rad]=           0.7540
  C        -0.01925         -0.00000         0.02182
  C         0.01935          0.00000         1.34935
  H         0.89278         -0.00000        -0.56313
  H         0.92906         -0.00000         1.92648
  H        -0.85949          0.00000         1.97610
  C        -1.27909         -0.00000        -0.77514
  H        -0.98169          0.00000        -1.82634
  H        -1.99963         -0.77492        -0.46290
  H        -1.99963          0.77492        -0.46290
9
 step=          73     theta[rad]=           0.7645
  C        -0.01871         -0.00000         0.01887
  C         0.01906          0.00000         1.34947
  H         0.88984         -0.00000        -0.57269
  H         0.92172         -0.00000         1.93868
  H        -0.85177          0.00000         1.98863
  C        -1.27532         -0.00000        -0.77806
  H        -0.94420          0.00000        -1.82357
  H        -2.04102         -0.73640        -0.43760
  H        -2.04102          0.73640        -0.43760
9
 step=          74     theta[rad]=           0.7749
  C        -0.01929         -0.00000         0.02206
  C         0.01937          0.00000         1.34934
  H         0.89302         -0.00000        -0.56235
  H         0.92965         -0.00000         1.92550
  H        -0.86011          0.00000         1.97509
  C        -1.27939         -0.00000        -0.77490
  H        -0.98471          0.00000        -1.82656
  H        -1.99629         -0.77803        -0.46494
  H        -1.99629          0.77803        -0.46494
9
 step=          75     theta[rad]=           0.7854
  C        -0.02069         -0.00000         0.02976
  C         0.02012          0.00000         1.34904
  H         0.90068         -0.00000        -0.53739
  H         0.94880         -0.00000         1.89367
  H        -0.88027          0.00000         1.94238
  C        -1.28922         -0.00000        -0.76728
  H        -1.08254          0.00000        -1.83378
  H        -1.88829         -0.87855        -0.53094
  H        -1.88829          0.87855        -0.53094
9
 step=          76     theta[rad]=           0.7959
  C        -0.02210         -0.00000         0.03753
  C         0.02088          0.00000         1.34872
  H         0.90842         -0.00000        -0.51217
  H         0.96815         -0.00000         1.86150
  H        -0.90063          0.00000         1.90934
  C        -1.29915         -0.00000        -0.75959
  H        -1.18138          0.00000        -1.84107
  H        -1.77917         -0.98012        -0.59764
  H        -1.77917          0.98012        -0.59763
9
 step=          77     theta[rad]=           0.8063
  C        -0.02267         -0.00000         0.04064
  C         0.02118          0.00000         1.34860
  H         0.91150         -0.00000        -0.50211
  H         0.97587         -0.00000         1.84867
  H        -0.90875          0.00000         1.89615
  C        -1.30311         -0.00000        -0.75651
  H        -1.22082          0.00000        -1.84398
  H        -1.73563         -1.02064        -0.62424
  H        -1.73563          1.02064        -0.62424
9
 step=          78     theta[rad]=           0.8168
  C        -0.02200         -0.00000         0.03695
  C         0.02082          0.00000         1.34875
  H         0.90784         -0.00000        -0.51405
  H         0.96671         -0.00000         1.86389
  H        -0.89911          0.00000         1.91179
  C        -1.29841         -0.00000        -0.76016
  H        -1.17403          0.00000        -1.84053
  H        -1.78729         -0.97256        -0.59267
  H        -1.78729          0.97256        -0.59267
9
 step=          79     theta[rad]=           0.8273
  C        -0.02048         -0.00000         0.02862
  C         0.02001          0.00000         1.34908
  H         0.89954         -0.00000        -0.54108
  H         0.94597         -0.00000         1.89837
  H        -0.87729          0.00000         1.94722
  C        -1.28777         -0.00000        -0.76841
  H        -1.06808          0.00000        -1.83271
  H        -1.90426         -0.86369        -0.52119
  H        -1.90426          0.86369        -0.52119
9
 step=          80     theta[rad]=           0.8378
  C        -0.01909         -0.00000         0.02095
  C         0.01926          0.00000         1.34939
  H         0.89191         -0.00000        -0.56595
  H         0.92689         -0.00000         1.93009
  H        -0.85721          0.00000         1.97980
  C        -1.27797         -0.00000        -0.77600
  H        -0.97061          0.00000        -1.82552
  H        -2.01186         -0.76355        -0.45542
  H        -2.01186          0.76355        -0.45542
9
 step=          81     theta[rad]=           0.8482
  C        -0.01876         -0.00000         0.01913
  C         0.01908          0.00000         1.34946
  H         0.89010         -0.00000        -0.57184
  H         0.92237         -0.00000         1.93760
  H        -0.85245          0.00000         1.98752
  C        -1.27565         -0.00000        -0.77780
  H        -0.94752          0.00000        -1.82382
  H        -2.03735         -0.73982        -0.43985
  H        -2.03735          0.73982        -0.43985
9
 step=          82     theta[rad]=           0.8587
  C        -0.01975         -0.00000         0.02461
  C         0.01962          0.00000         1.34924
  H         0.89556         -0.00000        -0.55407
  H         0.93600         -0.00000         1.91494
  H        -0.86680          0.00000         1.96424
  C        -1.28265         -0.00000        -0.77237
  H        -1.01716          0.00000        -1.82896
  H        -1.96047         -0.81138        -0.48683
  H        -1.96047          0.81138        -0.48683
9
 step=          83     theta[rad]=           0.8692
  C        -0.02142         -0.00000         0.03376
  C         0.02051          0.00000         1.34887
  H         0.90466         -0.00000        -0.52440
  H         0.95877         -0.00000         1.87709
  H        -0.89076          0.00000         1.92536
  C        -1.29434         -0.00000        -0.76332
  H        -1.13347          0.00000        -1.83754
  H        -1.83207         -0.93089        -0.56531
  H        -1.83207          0.93089        -0.56531
9
 step=          84     theta[rad]=           0.8796
  C        -0.02257         -0.00000         0.04011
  C         0.02113          0.00000         1.34862
  H         0.91098         -0.00000        -0.50382
  H         0.97456         -0.00000         1.85085
  H        -0.90737          0.00000         1.89839
  C        -1.30244         -0.00000        -0.75704
  H        -1.21411          0.00000        -1.84349
  H        -1.74303         -1.01375        -0.61972
  H        -1.74303          1.01375        -0.61972
9
 step=          85     theta[rad]=           0.8901
  C        -0.02235         -0.00000         0.03889
  C         0.02101          0.00000         1.34867
  H         0.90976         -0.00000        -0.50778
  H         0.97151         -0.00000         1.85591
  H        -0.90417          0.00000         1.90359
  C        -1.30088         -0.00000        -0.75825
  H        -1.19856          0.00000        -1.84234
  H        -1.76020         -0.99778        -0.60923
  H        -1.76020          0.99778        -0.60923
9
 step=          86     theta[rad]=           0.9006
  C        -0.02088         -0.00000         0.03078
  C         0.02022          0.00000         1.34899
  H         0.90170         -0.00000        -0.53407
  H         0.95135         -0.00000         1.88943
  H        -0.88295          0.00000         1.93803
  C        -1.29053         -0.00000        -0.76627
  H        -1.09556          0.00000        -1.83474
  H        -1.87392         -0.89193        -0.53973
  H        -1.87392          0.89193        -0.53973
9
 step=          87     theta[rad]=           0.9111
  C        -0.01925         -0.00000         0.02182
  C         0.01935          0.00000         1.34935
  H         0.89278         -0.00000        -0.56313
  H         0.92906         -0.00000         1.92648
  H        -0.85949          0.00000         1.97610
  C        -1.27909         -0.00000        -0.77514
  H        -0.98169          0.00000        -1.82634
  H        -1.99963         -0.77492        -0.46290
  H        -1.99963          0.77492        -0.46290
9
 step=          88     theta[rad]=           0.9215
  C        -0.01874         -0.00000         0.01902
  C         0.01907          0.00000         1.34947
  H         0.89000         -0.00000        -0.57220
  H         0.92210         -0.00000         1.93805
  H        -0.85217          0.00000         1.98799
  C        -1.27551         -0.00000        -0.77791
  H        -0.94613          0.00000        -1.82371
  H        -2.03889         -0.73839        -0.43890
  H        -2.03889          0.73839        -0.43890
9
 step=          89     theta[rad]=           0.9320
  C        -0.01979         -0.00000         0.02482
  C         0.01964          0.00000         1.34923
  H         0.89576         -0.00000        -0.55342
  H         0.93651         -0.00000         1.91410
  H        -0.86733          0.00000         1.96338
  C        -1.28291         -0.00000        -0.77217
  H        -1.01973          0.00000        -1.82915
  H        -1.95763         -0.81402        -0.48856
  H        -1.95763          0.81402        -0.48856
9
 step=          90     theta[rad]=           0.9425
  C        -0.02159         -0.00000         0.03470
  C         0.02060          0.00000         1.34884
  H         0.90560         -0.00000        -0.52136
  H         0.96110         -0.00000         1.87323
  H        -0.89320          0.00000         1.92138
  C        -1.29553         -0.00000        -0.76239
  H        -1.14535          0.00000        -1.83842
  H        -1.81895         -0.94309        -0.57332
  H        -1.81895          0.94309        -0.57332
9
 step=          91     theta[rad]=           0.9529
  C        -0.02265         -0.00000         0.04052
  C         0.02117          0.00000         1.34860
  H         0.91139         -0.00000        -0.50247
  H         0.97559         -0.00000         1.84913
  H        -0.90846          0.00000         1.89662
  C        -1.30297         -0.00000        -0.75663
  H        -1.21940          0.00000        -1.84388
  H        -1.73720         -1.01919        -0.62329
  H        -1.73720          1.01919        -0.62329
9
 step=          92     theta[rad]=           0.9634
  C        -0.02204         -0.00000         0.03721
  C         0.02085          0.00000         1.34874
  H         0.90809         -0.00000        -0.51323
  H         0.96734         -0.00000         1.86285
  H        -0.89978          0.00000         1.91072
  C        -1.29873         -0.00000        -0.75991
  H        -1.17724          0.00000        -1.84077
  H        -1.78374         -0.97587        -0.59484
  H        -1.78374          0.97587        -0.59484
9
 step=          93     theta[rad]=           0.9739
  C        -0.02026         -0.00000         0.02738
  C         0.01989          0.00000         1.34913
  H         0.89831         -0.00000        -0.54509
  H         0.94289         -0.00000         1.90349
  H        -0.87405          0.00000         1.95247
  C        -1.28619         -0.00000        -0.76963
  H        -1.05236          0.00000        -1.83155
  H        -1.92161         -0.84754        -0.51058
  H        -1.92161          0.84754        -0.51058
9
 step=          94     theta[rad]=           0.9844
  C        -0.01884         -0.00000         0.01960
  C         0.01913          0.00000         1.34944
  H         0.89056         -0.00000        -0.57035
  H         0.92352         -0.00000         1.93569
  H        -0.85366          0.00000         1.98556
  C        -1.27624         -0.00000        -0.77734
  H        -0.95338          0.00000        -1.82425
  H        -2.03089         -0.74584        -0.44380
  H        -2.03089          0.74584        -0.44380
9
 step=          95     theta[rad]=           0.9948
  C        -0.01909         -0.00000         0.02095
  C         0.01926          0.00000         1.34939
  H         0.89191         -0.00000        -0.56595
  H         0.92689         -0.00000         1.93009
  H        -0.85721          0.00000         1.97980
  C        -1.27797         -0.00000        -0.77600
  H        -0.97061          0.00000        -1.82552
  H        -2.01186         -0.76355        -0.45542
  H        -2.01186          0.76355        -0.45542
9
 step=          96     theta[rad]=           1.0053
  C        -0.02081         -0.00000         0.03044
  C         0.02019          0.00000         1.34901
  H         0.90136         -0.00000        -0.53517
  H         0.95050         -0.00000         1.89084
  H        -0.88206          0.00000         1.93948
  C        -1.29009         -0.00000        -0.76661
  H        -1.09122          0.00000        -1.83442
  H        -1.87870         -0.88748        -0.53680
  H        -1.87870          0.88748        -0.53680
9
 step=          97     theta[rad]=           1.0158
  C        -0.02243         -0.00000         0.03935
  C         0.02106          0.00000         1.34865
  H         0.91022         -0.00000        -0.50628
  H         0.97267         -0.00000         1.85399
  H        -0.90538          0.00000         1.90162
  C        -1.30147         -0.00000        -0.75779
  H        -1.20446          0.00000        -1.84278
  H        -1.75369         -1.00384        -0.61321
  H        -1.75369          1.00384        -0.61321
9
 step=          98     theta[rad]=           1.0263
  C        -0.02239         -0.00000         0.03913
  C         0.02104          0.00000         1.34866
  H         0.91000         -0.00000        -0.50701
  H         0.97211         -0.00000         1.85492
  H        -0.90480          0.00000         1.90257
  C        -1.30118         -0.00000        -0.75801
  H        -1.20162          0.00000        -1.84257
  H        -1.75683         -1.00092        -0.61129
  H        -1.75683          1.00092        -0.61129
9
 step=          99     theta[rad]=           1.0367
  C        -0.02069         -0.00000         0.02976
  C         0.02012          0.00000         1.34904
  H         0.90068         -0.00000        -0.53739
  H         0.94880         -0.00000         1.89367
  H        -0.88027          0.00000         1.94238
  C        -1.28922         -0.00000        -0.76728
  H        -1.08254          0.00000        -1.83378
  H        -1.88829         -0.87855        -0.53094
  H        -1.88829          0.87855        -0.53094
9
 step=         100     theta[rad]=           1.0472
  C        -0.01898         -0.00000         0.02033
  C         0.01920          0.00000         1.34941
  H         0.89130         -0.00000        -0.56796
  H         0.92535         -0.00000         1.93265
  H        -0.85559          0.00000         1.98244
  C        -1.27718         -0.00000        -0.77661
  H        -0.96272          0.00000        -1.82494
  H        -2.02057         -0.75544        -0.45010
  H        -2.02057          0.75544        -0.45010
9
 step=         101     theta[rad]=           1.0577
  C        -0.01899         -0.00000         0.02039
  C         0.01921          0.00000         1.34941
  H         0.89135         -0.00000        -0.56778
  H         0.92549         -0.00000         1.93242
  H        -0.85574          0.00000         1.98219
  C        -1.27725         -0.00000        -0.77656
  H        -0.96346          0.00000        -1.82499
  H        -2.01976         -0.75619        -0.45060
  H        -2.01976          0.75619        -0.45060
9
 step=         102     theta[rad]=           1.0681
  C        -0.02075         -0.00000         0.03010
  C         0.02015          0.00000         1.34902
  H         0.90102         -0.00000        -0.53628
  H         0.94965         -0.00000         1.89225
  H        -0.88116          0.00000         1.94093
  C        -1.28965         -0.00000        -0.76695
  H        -1.08688          0.00000        -1.83410
  H        -1.88350         -0.88302        -0.53387
  H        -1.88350          0.88302        -0.53387
9
 step=         103     theta[rad]=           1.0786
  C        -0.02246         -0.00000         0.03951
  C         0.02107          0.00000         1.34864
  H         0.91038         -0.00000        -0.50577
  H         0.97306         -0.00000         1.85334
  H        -0.90579          0.00000         1.90095
  C        -1.30167         -0.00000        -0.75763
  H        -1.20646          0.00000        -1.84292
  H        -1.75149         -1.00589        -0.61455
  H        -1.75149          1.00589        -0.61455
9
 step=         104     theta[rad]=           1.0891
  C        -0.02229         -0.00000         0.03856
  C         0.02098          0.00000         1.34868
  H         0.90944         -0.00000        -0.50883
  H         0.97071         -0.00000         1.85724
  H        -0.90332          0.00000         1.90496
  C        -1.30046         -0.00000        -0.75857
  H        -1.19446          0.00000        -1.84204
  H        -1.76473         -0.99356        -0.60646
  H        -1.76473          0.99356        -0.60646
9
 step=         105     theta[rad]=           1.0996
  C        -0.02038         -0.00000         0.02805
  C         0.01996          0.00000         1.34910
  H         0.89898         -0.00000        -0.54291
  H         0.94456         -0.00000         1.90071
  H        -0.87581          0.00000         1.94962
  C        -1.28704         -0.00000        -0.76897
  H        -1.06089          0.00000        -1.83218
  H        -1.91219         -0.85632        -0.51634
  H        -1.91219          0.85632        -0.51634
9
 step=         106     theta[rad]=           1.1100
  C        -0.01880         -0.00000         0.01937
  C         0.01911          0.00000         1.34945
  H         0.89034         -0.00000        -0.57108
  H         0.92296         -0.00000         1.93662
  H        -0.85307          0.00000         1.98652
  C        -1.27595         -0.00000        -0.77756
  H        -0.95052          0.00000        -1.82404
  H        -2.03404         -0.74290        -0.44187
  H        -2.03404          0.74290        -0.44187
9
 step=         107     theta[rad]=           1.1205
  C        -0.01934         -0.00000         0.02231
  C         0.01939          0.00000         1.34934
  H         0.89326         -0.00000        -0.56156
  H         0.93026         -0.00000         1.92448
  H        -0.86076          0.00000         1.97404
  C        -1.27970         -0.00000        -0.77466
  H        -0.98783          0.00000        -1.82679
  H        -1.99285         -0.78124        -0.46704
  H        -1.99285          0.78124        -0.46704
9
 step=         108     theta[rad]=           1.1310
  C        -0.02142         -0.00000         0.03376
  C         0.02051          0.00000         1.34887
  H         0.90466         -0.00000        -0.52440
  H         0.95877         -0.00000         1.87709
  H        -0.89076          0.00000         1.92536
  C        -1.29434         -0.00000        -0.76332
  H        -1.13347          0.00000        -1.83754
  H        -1.83207         -0.93089        -0.56531
  H        -1.83207          0.93089        -0.56531
9
 step=         109     theta[rad]=           1.1414
  C        -0.02266         -0.00000         0.04063
  C         0.02118          0.00000         1.34860
  H         0.91150         -0.00000        -0.50214
  H         0.97585         -0.00000         1.84871
  H        -0.90873          0.00000         1.89619
  C        -1.30310         -0.00000        -0.75652
  H        -1.22069          0.00000        -1.84398
  H        -1.73577         -1.02052        -0.62416
  H        -1.73577          1.02052        -0.62416
9
 step=         110     theta[rad]=           1.1519
  C        -0.02159         -0.00000         0.03470
  C         0.02060          0.00000         1.34884
  H         0.90560         -0.00000        -0.52136
  H         0.96110         -0.00000         1.87323
  H        -0.89320          0.00000         1.92138
  C        -1.29553         -0.00000        -0.76239
  H        -1.14535          0.00000        -1.83842
  H        -1.81895         -0.94309        -0.57332
  H        -1.81895          0.94309        -0.57332
9
 step=         111     theta[rad]=           1.1624
  C        -0.01943         -0.00000         0.02282
  C         0.01944          0.00000         1.34931
  H         0.89377         -0.00000        -0.55989
  H         0.93154         -0.00000         1.92236
  H        -0.86210          0.00000         1.97187
  C        -1.28036         -0.00000        -0.77415
  H        -0.99435          0.00000        -1.82727
  H        -1.98565         -0.78794        -0.47144
  H        -1.98565          0.78794        -0.47144
9
 step=         112     theta[rad]=           1.1729
  C        -0.01880         -0.00000         0.01934
  C         0.01910          0.00000         1.34945
  H         0.89031         -0.00000        -0.57119
  H         0.92287         -0.00000         1.93676
  H        -0.85298          0.00000         1.98666
  C        -1.27591         -0.00000        -0.77760
  H        -0.95009          0.00000        -1.82401
  H        -2.03451         -0.74246        -0.44158
  H        -2.03451          0.74246        -0.44158
9
 step=         113     theta[rad]=           1.1833
  C        -0.02050         -0.00000         0.02873
  C         0.02002          0.00000         1.34908
  H         0.89966         -0.00000        -0.54071
  H         0.94625         -0.00000         1.89790
  H        -0.87758          0.00000         1.94673
  C        -1.28791         -0.00000        -0.76830
  H        -1.06952          0.00000        -1.83282
  H        -1.90267         -0.86518        -0.52216
  H        -1.90267          0.86518        -0.52216
9
 step=         114     theta[rad]=           1.1938
  C        -0.02245         -0.00000         0.03946
  C         0.02107          0.00000         1.34865
  H         0.91033         -0.00000        -0.50594
  H         0.97293         -0.00000         1.85355
  H        -0.90566          0.00000         1.90117
  C        -1.30160         -0.00000        -0.75768
  H        -1.20581          0.00000        -1.84288
  H        -1.75220         -1.00522        -0.61411
  H        -1.75220          1.00522        -0.61411
9
 step=         115     theta[rad]=           1.2043
  C        -0.02216         -0.00000         0.03785
  C         0.02091          0.00000         1.34871
  H         0.90873         -0.00000        -0.51116
  H         0.96893         -0.00000         1.86021
  H        -0.90145          0.00000         1.90801
  C        -1.29955         -0.00000        -0.75928
  H        -1.18535          0.00000        -1.84137
  H        -1.77479         -0.98420        -0.60031
  H        -1.77479          0.98420        -0.60031
9
 step=         116     theta[rad]=           1.2147
  C        -0.01996         -0.00000         0.02575
  C         0.01973          0.00000         1.34920
  H         0.89669         -0.00000        -0.55039
  H         0.93883         -0.00000         1.91024
  H        -0.86978          0.00000         1.95941
  C        -1.28410         -0.00000        -0.77125
  H        -1.03161          0.00000        -1.83002
  H        -1.94452         -0.82622        -0.49658
  H        -1.94452          0.82622        -0.49658
9
 step=         117     theta[rad]=           1.2252
  C        -0.01871         -0.00000         0.01888
  C         0.01906          0.00000         1.34947
  H         0.88985         -0.00000        -0.57268
  H         0.92173         -0.00000         1.93866
  H        -0.85178          0.00000         1.98861
  C        -1.27533         -0.00000        -0.77805
  H        -0.94426          0.00000        -1.82358
  H        -2.04095         -0.73647        -0.43764
  H        -2.04095          0.73647        -0.43764
9
 step=         118     theta[rad]=           1.2357
  C        -0.02010         -0.00000         0.02650
  C         0.01980          0.00000         1.34917
  H         0.89744         -0.00000        -0.54795
  H         0.94070         -0.00000         1.90713
  H        -0.87174          0.00000         1.95621
  C        -1.28506         -0.00000        -0.77051
  H        -1.04117          0.00000        -1.83073
  H        -1.93397         -0.83604        -0.50303
  H        -1.93397          0.83604        -0.50303
9
 step=         119     theta[rad]=           1.2462
  C        -0.02229         -0.00000         0.03856
  C         0.02098          0.00000         1.34868
  H         0.90944         -0.00000        -0.50883
  H         0.97071         -0.00000         1.85724
  H        -0.90332          0.00000         1.90496
  C        -1.30046         -0.00000        -0.75857
  H        -1.19446          0.00000        -1.84204
  H        -1.76473         -0.99356        -0.60646
  H        -1.76473          0.99356        -0.60646
9
 step=         120     theta[rad]=           1.2566
  C        -0.02229         -0.00000         0.03856
  C         0.02098          0.00000         1.34868
  H         0.90944         -0.00000        -0.50883
  H         0.97071         -0.00000         1.85724
  H        -0.90332          0.00000         1.90496
  C        -1.30046         -0.00000        -0.75857
  H        -1.19446          0.00000        -1.84204
  H        -1.76473         -0.99356        -0.60646
  H        -1.76473          0.99356        -0.60646
9
 step=         121     theta[rad]=           1.2671
  C        -0.02006         -0.00000         0.02629
  C         0.01978          0.00000         1.34918
  H         0.89722         -0.00000        -0.54865
  H         0.94016         -0.00000         1.90802
  H        -0.87118          0.00000         1.95714
  C        -1.28478         -0.00000        -0.77072
  H        -1.03841          0.00000        -1.83052
  H        -1.93701         -0.83321        -0.50117
  H        -1.93701          0.83321        -0.50117
9
 step=         122     theta[rad]=           1.2776
  C        -0.01871         -0.00000         0.01888
  C         0.01906          0.00000         1.34947
  H         0.88985         -0.00000        -0.57268
  H         0.92173         -0.00000         1.93866
  H        -0.85178          0.00000         1.98861
  C        -1.27533         -0.00000        -0.77805
  H        -0.94426          0.00000        -1.82358
  H        -2.04095         -0.73647        -0.43764
  H        -2.04095          0.73647        -0.43764
9
 step=         123     theta[rad]=           1.2881
  C        -0.02020         -0.00000         0.02705
  C         0.01986          0.00000         1.34914
  H         0.89798         -0.00000        -0.54617
  H         0.94207         -0.00000         1.90486
  H        -0.87318          0.00000         1.95388
  C        -1.28576         -0.00000        -0.76996
  H        -1.04813          0.00000        -1.83124
  H        -1.92628         -0.84320        -0.50773
  H        -1.92628          0.84320        -0.50773
9
 step=         124     theta[rad]=           1.2985
  C        -0.02240         -0.00000         0.03918
  C         0.02104          0.00000         1.34866
  H         0.91006         -0.00000        -0.50682
  H         0.97226         -0.00000         1.85468
  H        -0.90495          0.00000         1.90233
  C        -1.30126         -0.00000        -0.75795
  H        -1.20235          0.00000        -1.84262
  H        -1.75602         -1.00167        -0.61178
  H        -1.75602          1.00167        -0.61178
9
 step=         125     theta[rad]=           1.3090
  C        -0.02209         -0.00000         0.03745
  C         0.02087          0.00000         1.34873
  H         0.90834         -0.00000        -0.51243
  H         0.96795         -0.00000         1.86183
  H        -0.90042          0.00000         1.90968
  C        -1.29905         -0.00000        -0.75967
  H        -1.18036          0.00000        -1.84100
  H        -1.78029         -0.97907        -0.59695
  H        -1.78029          0.97907        -0.59695
9
 step=         126     theta[rad]=           1.3195
  C        -0.01968         -0.00000         0.02422
  C         0.01958          0.00000         1.34926
  H         0.89516         -0.00000        -0.55536
  H         0.93501         -0.00000         1.91658
  H        -0.86576          0.00000         1.96593
  C        -1.28214         -0.00000        -0.77277
  H        -1.01211          0.00000        -1.82858
  H        -1.96604         -0.80619        -0.48343
  H        -1.96604          0.80619        -0.48343
9
 step=         127     theta[rad]=           1.3299
  C        -0.01880         -0.00000         0.01934
  C         0.01910          0.00000         1.34945
  H         0.89031         -0.00000        -0.57119
  H         0.92287         -0.00000         1.93676
  H        -0.85298          0.00000         1.98666
  C        -1.27591         -0.00000        -0.77760
  H        -0.95009          0.00000        -1.82401
  H        -2.03451         -0.74246        -0.44158
  H        -2.03451          0.74246        -0.44158
9
 step=         128     theta[rad]=           1.3404
  C        -0.02081         -0.00000         0.03044
  C         0.02019          0.00000         1.34901
  H         0.90136         -0.00000        -0.53517
  H         0.95050         -0.00000         1.89084
  H        -0.88206          0.00000         1.93948
  C        -1.29009         -0.00000        -0.76661
  H        -1.09122          0.00000        -1.83442
  H        -1.87870         -0.88748        -0.53680
  H        -1.87870          0.88748        -0.53680
9
 step=         129     theta[rad]=           1.3509
  C        -0.02264         -0.00000         0.04051
  C         0.02117          0.00000         1.34860
  H         0.91138         -0.00000        -0.50252
  H         0.97555         -0.00000         1.84920
  H        -0.90841          0.00000         1.89670
  C        -1.30295         -0.00000        -0.75664
  H        -1.21918          0.00000        -1.84386
  H        -1.73744         -1.01896        -0.62314
  H        -1.73744          1.01896        -0.62314
9
 step=         130     theta[rad]=           1.3614
  C        -0.02140         -0.00000         0.03366
  C         0.02050          0.00000         1.34888
  H         0.90456         -0.00000        -0.52474
  H         0.95851         -0.00000         1.87753
  H        -0.89048          0.00000         1.92581
  C        -1.29420         -0.00000        -0.76342
  H        -1.13212          0.00000        -1.83744
  H        -1.83356         -0.92950        -0.56439
  H        -1.83356          0.92950        -0.56439
9
 step=         131     theta[rad]=           1.3718
  C        -0.01902         -0.00000         0.02057
  C         0.01922          0.00000         1.34940
  H         0.89153         -0.00000        -0.56720
  H         0.92593         -0.00000         1.93168
  H        -0.85620          0.00000         1.98144
  C        -1.27748         -0.00000        -0.77638
  H        -0.96573          0.00000        -1.82516
  H        -2.01725         -0.75853        -0.45213
  H        -2.01725          0.75853        -0.45213
9
 step=         132     theta[rad]=           1.3823
  C        -0.01934         -0.00000         0.02231
  C         0.01939          0.00000         1.34934
  H         0.89326         -0.00000        -0.56156
  H         0.93026         -0.00000         1.92448
  H        -0.86076          0.00000         1.97404
  C        -1.27970         -0.00000        -0.77466
  H        -0.98783          0.00000        -1.82679
  H        -1.99285         -0.78124        -0.46704
  H        -1.99285          0.78124        -0.46704
9
 step=         133     theta[rad]=           1.3928
  C        -0.02187         -0.00000         0.03625
  C         0.02075          0.00000         1.34878
  H         0.90714         -0.00000        -0.51634
  H         0.96495         -0.00000         1.86682
  H        -0.89726          0.00000         1.91480
  C        -1.29751         -0.00000        -0.76086
  H        -1.16502          0.00000        -1.83987
  H        -1.79723         -0.96331        -0.58660
  H        -1.79723          0.96331        -0.58660
9
 step=         134     theta[rad]=           1.4032
  C        -0.02245         -0.00000         0.03946
  C         0.02107          0.00000         1.34865
  H         0.91033         -0.00000        -0.50594
  H         0.97293         -0.00000         1.85355
  H        -0.90566          0.00000         1.90117
  C        -1.30160         -0.00000        -0.75768
  H        -1.20581          0.00000        -1.84288
  H        -1.75220         -1.00522        -0.61411
  H        -1.75220          1.00522        -0.61411
9
 step=         135     theta[rad]=           1.4137
  C        -0.02008         -0.00000         0.02639
  C         0.01979          0.00000         1.34917
  H         0.89733         -0.00000        -0.54830
  H         0.94043         -0.00000         1.90758
  H        -0.87146          0.00000         1.95668
  C        -1.28492         -0.00000        -0.77061
  H        -1.03979          0.00000        -1.83063
  H        -1.93549         -0.83462        -0.50210
  H        -1.93549          0.83462        -0.50210
9
 step=         136     theta[rad]=           1.4242
  C        -0.01874         -0.00000         0.01902
  C         0.01907          0.00000         1.34947
  H         0.89000         -0.00000        -0.57220
  H         0.92210         -0.00000         1.93805
  H        -0.85217          0.00000         1.98799
  C        -1.27551         -0.00000        -0.77791
  H        -0.94613          0.00000        -1.82371
  H        -2.03889         -0.73839        -0.43890
  H        -2.03889          0.73839        -0.43890
9
 step=         137     theta[rad]=           1.4347
  C        -0.02075         -0.00000         0.03010
  C         0.02015          0.00000         1.34902
  H         0.90102         -0.00000        -0.53628
  H         0.94965         -0.00000         1.89225
  H        -0.88116          0.00000         1.94093
  C        -1.28965         -0.00000        -0.76695
  H        -1.08688          0.00000        -1.83410
  H        -1.88350         -0.88302        -0.53387
  H        -1.88350          0.88302        -0.53387
9
 step=         138     theta[rad]=           1.4451
  C        -0.02266         -0.00000         0.04059
  C         0.02118          0.00000         1.34860
  H         0.91146         -0.00000        -0.50225
  H         0.97576         -0.00000         1.84885
  H        -0.90864          0.00000         1.89633
  C        -1.30306         -0.00000        -0.75656
  H        -1.22027          0.00000        -1.84394
  H        -1.73623         -1.02008        -0.62387
  H        -1.73623          1.02008        -0.62387
9
 step=         139     theta[rad]=           1.4556
  C        -0.02110         -0.00000         0.03202
  C         0.02034          0.00000         1.34894
  H         0.90293         -0.00000        -0.53005
  H         0.95443         -0.00000         1.88431
  H        -0.88619          0.00000         1.93277
  C        -1.29211         -0.00000        -0.76504
  H        -1.11130          0.00000        -1.83590
  H        -1.85654         -0.90811        -0.55035
  H        -1.85654          0.90811        -0.55035
9
 step=         140     theta[rad]=           1.4661
  C        -0.01881         -0.00000         0.01940
  C         0.01911          0.00000         1.34945
  H         0.89037         -0.00000        -0.57097
  H         0.92304         -0.00000         1.93648
  H        -0.85316          0.00000         1.98637
  C        -1.27600         -0.00000        -0.77753
  H        -0.95096          0.00000        -1.82407
  H        -2.03355         -0.74335        -0.44217
  H        -2.03355          0.74335        -0.44217
9
 step=         141     theta[rad]=           1.4765
  C        -0.01990         -0.00000         0.02543
  C         0.01970          0.00000         1.34921
  H         0.89637         -0.00000        -0.55141
  H         0.93804         -0.00000         1.91154
  H        -0.86895          0.00000         1.96075
  C        -1.28370         -0.00000        -0.77156
  H        -1.02759          0.00000        -1.82973
  H        -1.94895         -0.82210        -0.49387
  H        -1.94895          0.82210        -0.49387
9
 step=         142     theta[rad]=           1.4870
  C        -0.02243         -0.00000         0.03935
  C         0.02106          0.00000         1.34865
  H         0.91022         -0.00000        -0.50628
  H         0.97267         -0.00000         1.85399
  H        -0.90538          0.00000         1.90162
  C        -1.30147         -0.00000        -0.75779
  H        -1.20446          0.00000        -1.84278
  H        -1.75369         -1.00384        -0.61321
  H        -1.75369          1.00384        -0.61321
9
 step=         143     theta[rad]=           1.4975
  C        -0.02175         -0.00000         0.03559
  C         0.02069          0.00000         1.34880
  H         0.90648         -0.00000        -0.51848
  H         0.96331         -0.00000         1.86954
  H        -0.89554          0.00000         1.91760
  C        -1.29667         -0.00000        -0.76151
  H        -1.15667          0.00000        -1.83925
  H        -1.80645         -0.95473        -0.58096
  H        -1.80645          0.95473        -0.58096
9
 step=         144     theta[rad]=           1.5080
  C        -0.01909         -0.00000         0.02095
  C         0.01926          0.00000         1.34939
  H         0.89191         -0.00000        -0.56595
  H         0.92689         -0.00000         1.93009
  H        -0.85721          0.00000         1.97980
  C        -1.27797         -0.00000        -0.77600
  H        -0.97061          0.00000        -1.82552
  H        -2.01186         -0.76355        -0.45542
  H        -2.01186          0.76355        -0.45542
9
 step=         145     theta[rad]=           1.5184
  C        -0.01944         -0.00000         0.02291
  C         0.01945          0.00000         1.34931
  H         0.89386         -0.00000        -0.55961
  H         0.93176         -0.00000         1.92200
  H        -0.86233          0.00000         1.97149
  C        -1.28047         -0.00000        -0.77406
  H        -0.99547          0.00000        -1.82736
  H        -1.98441         -0.78909        -0.47220
  H        -1.98441          0.78909        -0.47220
9
 step=         146     theta[rad]=           1.5289
  C        -0.02217         -0.00000         0.03792
  C         0.02092          0.00000         1.34871
  H         0.90880         -0.00000        -0.51091
  H         0.96912         -0.00000         1.85990
  H        -0.90164          0.00000         1.90769
  C        -1.29964         -0.00000        -0.75920
  H        -1.18631          0.00000        -1.84144
  H        -1.77372         -0.98519        -0.60096
  H        -1.77372          0.98519        -0.60096
9
 step=         147     theta[rad]=           1.5394
  C        -0.02204         -0.00000         0.03721
  C         0.02085          0.00000         1.34874
  H         0.90809         -0.00000        -0.51323
  H         0.96734         -0.00000         1.86285
  H        -0.89978          0.00000         1.91072
  C        -1.29873         -0.00000        -0.75991
  H        -1.17724          0.00000        -1.84077
  H        -1.78374         -0.97587        -0.59484
  H        -1.78374          0.97587        -0.59484
9
 step=         148     theta[rad]=           1.5499
  C        -0.01928         -0.00000         0.02198
  C         0.01936          0.00000         1.34935
  H         0.89294         -0.00000        -0.56261
  H         0.92945         -0.00000         1.92583
  H        -0.85990          0.00000         1.97543
  C        -1.27929         -0.00000        -0.77498
  H        -0.98369          0.00000        -1.82649
  H        -1.99742         -0.77699        -0.46425
  H        -1.99742          0.77699        -0.46425
9
 step=         149     theta[rad]=           1.5603
  C        -0.01929         -0.00000         0.02206
  C         0.01937          0.00000         1.34934
  H         0.89302         -0.00000        -0.56235
  H         0.92965         -0.00000         1.92550
  H        -0.86011          0.00000         1.97509
  C        -1.27939         -0.00000        -0.77490
  H        -0.98471          0.00000        -1.82656
  H        -1.99629         -0.77803        -0.46494
  H        -1.99629          0.77803        -0.46494
9
 step=         150     theta[rad]=           1.5708
  C        -0.02209         -0.00000         0.03745
  C         0.02087          0.00000         1.34873
  H         0.90834         -0.00000        -0.51243
  H         0.96795         -0.00000         1.86183
  H        -0.90042          0.00000         1.90968
  C        -1.29905         -0.00000        -0.75967
  H        -1.18036          0.00000        -1.84100
  H        -1.78029         -0.97907        -0.59695
  H        -1.78029          0.97907        -0.59695
9
 step=         151     theta[rad]=           1.5813
  C        -0.02207         -0.00000         0.03737
  C         0.02086          0.00000         1.34873
  H         0.90826         -0.00000        -0.51269
  H         0.96775         -0.00000         1.86217
  H        -0.90021          0.00000         1.91002
  C        -1.29894         -0.00000        -0.75975
  H        -1.17933          0.00000        -1.84092
  H        -1.78143         -0.97802        -0.59625
  H        -1.78143          0.97802        -0.59625
9
 step=         152     theta[rad]=           1.5917
  C        -0.01925         -0.00000         0.02182
  C         0.01935          0.00000         1.34935
  H         0.89278         -0.00000        -0.56313
  H         0.92906         -0.00000         1.92648
  H        -0.85949          0.00000         1.97610
  C        -1.27909         -0.00000        -0.77514
  H        -0.98169          0.00000        -1.82634
  H        -1.99963         -0.77492        -0.46290
  H        -1.99963          0.77492        -0.46290
9
 step=         153     theta[rad]=           1.6022
  C        -0.01938         -0.00000         0.02256
  C         0.01942          0.00000         1.34932
  H         0.89351         -0.00000        -0.56074
  H         0.93089         -0.00000         1.92344
  H        -0.86142          0.00000         1.97297
  C        -1.28003         -0.00000        -0.77441
  H        -0.99105          0.00000        -1.82703
  H        -1.98930         -0.78454        -0.46921
  H        -1.98930          0.78454        -0.46921
9
 step=         154     theta[rad]=           1.6127
  C        -0.02223         -0.00000         0.03822
  C         0.02095          0.00000         1.34870
  H         0.90910         -0.00000        -0.50996
  H         0.96985         -0.00000         1.85868
  H        -0.90241          0.00000         1.90644
  C        -1.30002         -0.00000        -0.75891
  H        -1.19005          0.00000        -1.84171
  H        -1.76959         -0.98903        -0.60349
  H        -1.76959          0.98903        -0.60349
9
 step=         155     theta[rad]=           1.6232
  C        -0.02185         -0.00000         0.03615
  C         0.02075          0.00000         1.34878
  H         0.90704         -0.00000        -0.51664
  H         0.96472         -0.00000         1.86720
  H        -0.89702          0.00000         1.91519
  C        -1.29739         -0.00000        -0.76095
  H        -1.16386          0.00000        -1.83978
  H        -1.79852         -0.96211        -0.58581
  H        -1.79852          0.96211        -0.58581
9
 step=         156     theta[rad]=           1.6336
  C        -0.01902         -0.00000         0.02057
  C         0.01922          0.00000         1.34940
  H         0.89153         -0.00000        -0.56720
  H         0.92593         -0.00000         1.93168
  H        -0.85620          0.00000         1.98144
  C        -1.27748         -0.00000        -0.77638
  H        -0.96573          0.00000        -1.82516
  H        -2.01725         -0.75853        -0.45213
  H        -2.01725          0.75853        -0.45213
9
 step=         157     theta[rad]=           1.6441
  C        -0.01975         -0.00000         0.02461
  C         0.01962          0.00000         1.34924
  H         0.89556         -0.00000        -0.55407
  H         0.93600         -0.00000         1.91494
  H        -0.86680          0.00000         1.96424
  C        -1.28265         -0.00000        -0.77237
  H        -1.01716          0.00000        -1.82896
  H        -1.96047         -0.81138        -0.48683
  H        -1.96047          0.81138        -0.48683
9
 step=         158     theta[rad]=           1.6546
  C        -0.02250         -0.00000         0.03975
  C         0.02110          0.00000         1.34863
  H         0.91062         -0.00000        -0.50499
  H         0.97366         -0.00000         1.85235
  H        -0.90642          0.00000         1.89993
  C        -1.30198         -0.00000        -0.75740
  H        -1.20951          0.00000        -1.84315
  H        -1.74812         -1.00902        -0.61661
  H        -1.74812          1.00902        -0.61661
9
 step=         159     theta[rad]=           1.6650
  C        -0.02130         -0.00000         0.03312
  C         0.02045          0.00000         1.34890
  H         0.90402         -0.00000        -0.52648
  H         0.95717         -0.00000         1.87975
  H        -0.88907          0.00000         1.92809
  C        -1.29351         -0.00000        -0.76395
  H        -1.12529          0.00000        -1.83694
  H        -1.84110         -0.92248        -0.55979
  H        -1.84110          0.92248        -0.55979
9
 step=         160     theta[rad]=           1.6755
  C        -0.01875         -0.00000         0.01911
  C         0.01908          0.00000         1.34946
  H         0.89008         -0.00000        -0.57192
  H         0.92231         -0.00000         1.93770
  H        -0.85239          0.00000         1.98762
  C        -1.27562         -0.00000        -0.77782
  H        -0.94721          0.00000        -1.82380
  H        -2.03769         -0.73950        -0.43964
  H        -2.03769          0.73950        -0.43964
9
 step=         161     theta[rad]=           1.6860
  C        -0.02050         -0.00000         0.02873
  C         0.02002          0.00000         1.34908
  H         0.89966         -0.00000        -0.54071
  H         0.94625         -0.00000         1.89790
  H        -0.87758          0.00000         1.94673
  C        -1.28791         -0.00000        -0.76830
  H        -1.06952          0.00000        -1.83282
  H        -1.90267         -0.86518        -0.52216
  H        -1.90267          0.86518        -0.52216
9
 step=         162     theta[rad]=           1.6965
  C        -0.02267         -0.00000         0.04064
  C         0.02118          0.00000         1.34860
  H         0.91150         -0.00000        -0.50211
  H         0.97587         -0.00000         1.84867
  H        -0.90875          0.00000         1.89615
  C        -1.30311         -0.00000        -0.75651
  H        -1.22082          0.00000        -1.84398
  H        -1.73563         -1.02064        -0.62424
  H        -1.73563          1.02064        -0.62424
9
 step=         163     theta[rad]=           1.7069
  C        -0.02036         -0.00000         0.02794
  C         0.01994          0.00000         1.34911
  H         0.89887         -0.00000        -0.54328
  H         0.94428         -0.00000         1.90117
  H        -0.87551          0.00000         1.95010
  C        -1.28690         -0.00000        -0.76908
  H        -1.05946          0.00000        -1.83208
  H        -1.91377         -0.85485        -0.51538
  H        -1.91377          0.85485        -0.51538
9
 step=         164     theta[rad]=           1.7174
  C        -0.01881         -0.00000         0.01940
  C         0.01911          0.00000         1.34945
  H         0.89037         -0.00000        -0.57097
  H         0.92304         -0.00000         1.93648
  H        -0.85316          0.00000         1.98637
  C        -1.27600         -0.00000        -0.77753
  H        -0.95096          0.00000        -1.82407
  H        -2.03355         -0.74335        -0.44217
  H        -2.03355          0.74335        -0.44217
9
 step=         165     theta[rad]=           1.7279
  C        -0.02159         -0.00000         0.03470
  C         0.02060          0.00000         1.34884
  H         0.90560         -0.00000        -0.52136
  H         0.96110         -0.00000         1.87323
  H        -0.89320          0.00000         1.92138
  C        -1.29553         -0.00000        -0.76239
  H        -1.14535          0.00000        -1.83842
  H        -1.81895         -0.94309        -0.57332
  H        -1.81895          0.94309        -0.57332
9
 step=         166     theta[rad]=           1.7383
  C        -0.02228         -0.00000         0.03850
  C         0.02097          0.00000         1.34868
  H         0.90937         -0.00000        -0.50905
  H         0.97054         -0.00000         1.85752
  H        -0.90315          0.00000         1.90525
  C        -1.30038         -0.00000        -0.75863
  H        -1.19360          0.00000        -1.84198
  H        -1.76567         -0.99268        -0.60588
  H        -1.76567          0.99268        -0.60588
9
 step=         167     theta[rad]=           1.7488
  C        -0.01925         -0.00000         0.02182
  C         0.01935          0.00000         1.34935
  H         0.89278         -0.00000        -0.56313
  H         0.92906         -0.00000         1.92648
  H        -0.85949          0.00000         1.97610
  C        -1.27909         -0.00000        -0.77514
  H        -0.98169          0.00000        -1.82634
  H        -1.99963         -0.77492        -0.46290
  H        -1.99963          0.77492        -0.46290
9
 step=         168     theta[rad]=           1.7593
  C        -0.01963         -0.00000         0.02392
  C         0.01955          0.00000         1.34927
  H         0.89487         -0.00000        -0.55631
  H         0.93429         -0.00000         1.91779
  H        -0.86500          0.00000         1.96717
  C        -1.28177         -0.00000        -0.77306
  H        -1.00841          0.00000        -1.82831
  H        -1.97013         -0.80238        -0.48093
  H        -1.97013          0.80238        -0.48093
9
 step=         169     theta[rad]=           1.7698
  C        -0.02254         -0.00000         0.03992
  C         0.02111          0.00000         1.34863
  H         0.91079         -0.00000        -0.50443
  H         0.97409         -0.00000         1.85164
  H        -0.90687          0.00000         1.89920
  C        -1.30220         -0.00000        -0.75723
  H        -1.21170          0.00000        -1.84331
  H        -1.74570         -1.01127        -0.61809
  H        -1.74570          1.01127        -0.61809
9
 step=         170     theta[rad]=           1.7802
  C        -0.02100         -0.00000         0.03146
  C         0.02029          0.00000         1.34897
  H         0.90237         -0.00000        -0.53187
  H         0.95304         -0.00000         1.88662
  H        -0.88472          0.00000         1.93515
  C        -1.29139         -0.00000        -0.76560
  H        -1.10418          0.00000        -1.83538
  H        -1.86440         -0.90079        -0.54554
  H        -1.86440          0.90079        -0.54554
9
 step=         171     theta[rad]=           1.7907
  C        -0.01872         -0.00000         0.01889
  C         0.01906          0.00000         1.34947
  H         0.88987         -0.00000        -0.57262
  H         0.92177         -0.00000         1.93860
  H        -0.85182          0.00000         1.98854
  C        -1.27535         -0.00000        -0.77804
  H        -0.94446          0.00000        -1.82359
  H        -2.04073         -0.73668        -0.43778
  H        -2.04073          0.73668        -0.43778
9
 step=         172     theta[rad]=           1.8012
  C        -0.02126         -0.00000         0.03290
  C         0.02043          0.00000         1.34891
  H         0.90381         -0.00000        -0.52719
  H         0.95663         -0.00000         1.88065
  H        -0.88850          0.00000         1.92901
  C        -1.29324         -0.00000        -0.76417
  H        -1.12252          0.00000        -1.83673
  H        -1.84415         -0.91964        -0.55792
  H        -1.84415          0.91964        -0.55792
9
 step=         173     theta[rad]=           1.8117
  C        -0.02239         -0.00000         0.03913
  C         0.02104          0.00000         1.34866
  H         0.91000         -0.00000        -0.50701
  H         0.97211         -0.00000         1.85492
  H        -0.90480          0.00000         1.90257
  C        -1.30118         -0.00000        -0.75801
  H        -1.20162          0.00000        -1.84257
  H        -1.75683         -1.00092        -0.61129
  H        -1.75683          1.00092        -0.61129
9
 step=         174     theta[rad]=           1.8221
  C        -0.01929         -0.00000         0.02206
  C         0.01937          0.00000         1.34934
  H         0.89302         -0.00000        -0.56235
  H         0.92965         -0.00000         1.92550
  H        -0.86011          0.00000         1.97509
  C        -1.27939         -0.00000        -0.77490
  H        -0.98471          0.00000        -1.82656
  H        -1.99629         -0.77803        -0.46494
  H        -1.99629          0.77803        -0.46494
9
 step=         175     theta[rad]=           1.8326
  C        -0.01970         -0.00000         0.02431
  C         0.01959          0.00000         1.34925
  H         0.89526         -0.00000        -0.55504
  H         0.93526         -0.00000         1.91617
  H        -0.86602          0.00000         1.96551
  C        -1.28227         -0.00000        -0.77267
  H        -1.01336          0.00000        -1.82868
  H        -1.96466         -0.80747        -0.48427
  H        -1.96466          0.80747        -0.48427
9
 step=         176     theta[rad]=           1.8431
  C        -0.02261         -0.00000         0.04030
  C         0.02115          0.00000         1.34861
  H         0.91117         -0.00000        -0.50320
  H         0.97503         -0.00000         1.85006
  H        -0.90787          0.00000         1.89758
  C        -1.30268         -0.00000        -0.75685
  H        -1.21654          0.00000        -1.84367
  H        -1.74036         -1.01625        -0.62135
  H        -1.74036          1.01625        -0.62135
9
 step=         177     theta[rad]=           1.8535
  C        -0.02063         -0.00000         0.02941
  C         0.02009          0.00000         1.34905
  H         0.90034         -0.00000        -0.53850
  H         0.94795         -0.00000         1.89508
  H        -0.87937          0.00000         1.94383
  C        -1.28878         -0.00000        -0.76762
  H        -1.07819          0.00000        -1.83346
  H        -1.89309         -0.87409        -0.52801
  H        -1.89309          0.87409        -0.52801
9
 step=         178     theta[rad]=           1.8640
  C        -0.01881         -0.00000         0.01944
  C         0.01911          0.00000         1.34945
  H         0.89041         -0.00000        -0.57085
  H         0.92313         -0.00000         1.93633
  H        -0.85326          0.00000         1.98622
  C        -1.27604         -0.00000        -0.77749
  H        -0.95142          0.00000        -1.82411
  H        -2.03305         -0.74382        -0.44247
  H        -2.03305          0.74382        -0.44247
9
 step=         179     theta[rad]=           1.8745
  C        -0.02185         -0.00000         0.03615
  C         0.02075          0.00000         1.34878
  H         0.90704         -0.00000        -0.51664
  H         0.96472         -0.00000         1.86720
  H        -0.89702          0.00000         1.91519
  C        -1.29739         -0.00000        -0.76095
  H        -1.16386          0.00000        -1.83978
  H        -1.79852         -0.96211        -0.58581
  H        -1.79852          0.96211        -0.58581
9
 step=         180     theta[rad]=           1.8850
  C        -0.02185         -0.00000         0.03615
  C         0.02075          0.00000         1.34878
  H         0.90704         -0.00000        -0.51664
  H         0.96472         -0.00000         1.86720
  H        -0.89702          0.00000         1.91519
  C        -1.29739         -0.00000        -0.76095
  H        -1.16386          0.00000        -1.83978
  H        -1.79852         -0.96211        -0.58581
  H        -1.79852          0.96211        -0.58581
9
 step=         181     theta[rad]=           1.8954
  C        -0.01880         -0.00000         0.01937
  C         0.01911          0.00000         1.34945
  H         0.89034         -0.00000        -0.57108
  H         0.92296         -0.00000         1.93662
  H        -0.85307          0.00000         1.98652
  C        -1.27595         -0.00000        -0.77756
  H        -0.95052          0.00000        -1.82404
  H        -2.03404         -0.74290        -0.44187
  H        -2.03404          0.74290        -0.44187
9
 step=         182     theta[rad]=           1.9059
  C        -0.02075         -0.00000         0.03010
  C         0.02015          0.00000         1.34902
  H         0.90102         -0.00000        -0.53628
  H         0.94965         -0.00000         1.89225
  H        -0.88116          0.00000         1.94093
  C        -1.28965         -0.00000        -0.76695
  H        -1.08688          0.00000        -1.83410
  H        -1.88350         -0.88302        -0.53387
  H        -1.88350          0.88302        -0.53387
9
 step=         183     theta[rad]=           1.9164
  C        -0.02253         -0.00000         0.03988
  C         0.02111          0.00000         1.34863
  H         0.91075         -0.00000        -0.50457
  H         0.97398         -0.00000         1.85181
  H        -0.90676          0.00000         1.89938
  C        -1.30214         -0.00000        -0.75727
  H        -1.21117          0.00000        -1.84327
  H        -1.74628         -1.01073        -0.61773
  H        -1.74628          1.01073        -0.61773
9
 step=         184     theta[rad]=           1.9268
  C        -0.01937         -0.00000         0.02247
  C         0.01941          0.00000         1.34933
  H         0.89343         -0.00000        -0.56101
  H         0.93068         -0.00000         1.92379
  H        -0.86120          0.00000         1.97333
  C        -1.27992         -0.00000        -0.77449
  H        -0.98996          0.00000        -1.82695
  H        -1.99049         -0.78343        -0.46848
  H        -1.99049          0.78343        -0.46848
9
 step=         185     theta[rad]=           1.9373
  C        -0.01979         -0.00000         0.02482
  C         0.01964          0.00000         1.34923
  H         0.89576         -0.00000        -0.55342
  H         0.93651         -0.00000         1.91410
  H        -0.86733          0.00000         1.96338
  C        -1.28291         -0.00000        -0.77217
  H        -1.01973          0.00000        -1.82915
  H        -1.95763         -0.81402        -0.48856
  H        -1.95763          0.81402        -0.48856
9
 step=         186     theta[rad]=           1.9478
  C        -0.02266         -0.00000         0.04059
  C         0.02118          0.00000         1.34860
  H         0.91146         -0.00000        -0.50225
  H         0.97576         -0.00000         1.84885
  H        -0.90864          0.00000         1.89633
  C        -1.30306         -0.00000        -0.75656
  H        -1.22027          0.00000        -1.84394
  H        -1.73623         -1.02008        -0.62387
  H        -1.73623          1.02008        -0.62387
9
 step=         187     theta[rad]=           1.9583
  C        -0.02012         -0.00000         0.02661
  C         0.01981          0.00000         1.34916
  H         0.89755         -0.00000        -0.54759
  H         0.94097         -0.00000         1.90668
  H        -0.87203          0.00000         1.95575
  C        -1.28520         -0.00000        -0.77040
  H        -1.04255          0.00000        -1.83083
  H        -1.93244         -0.83747        -0.50396
  H        -1.93244          0.83747        -0.50396
9
 step=         188     theta[rad]=           1.9687
  C        -0.01917         -0.00000         0.02137
  C         0.01930          0.00000         1.34937
  H         0.89233         -0.00000        -0.56459
  H         0.92793         -0.00000         1.92835
  H        -0.85831          0.00000         1.97802
  C        -1.27851         -0.00000        -0.77559
  H        -0.97594          0.00000        -1.82591
  H        -2.00598         -0.76902        -0.45902
  H        -2.00598          0.76902        -0.45902
9
 step=         189     theta[rad]=           1.9792
  C        -0.02245         -0.00000         0.03946
  C         0.02107          0.00000         1.34865
  H         0.91033         -0.00000        -0.50594
  H         0.97293         -0.00000         1.85355
  H        -0.90566          0.00000         1.90117
  C        -1.30160         -0.00000        -0.75768
  H        -1.20581          0.00000        -1.84288
  H        -1.75220         -1.00522        -0.61411
  H        -1.75220          1.00522        -0.61411
9
 step=         190     theta[rad]=           1.9897
  C        -0.02079         -0.00000         0.03033
  C         0.02018          0.00000         1.34901
  H         0.90124         -0.00000        -0.53554
  H         0.95022         -0.00000         1.89131
  H        -0.88176          0.00000         1.93996
  C        -1.28995         -0.00000        -0.76672
  H        -1.08978          0.00000        -1.83431
  H        -1.88030         -0.88599        -0.53583
  H        -1.88030          0.88599        -0.53583
9
 step=         191     theta[rad]=           2.0001
  C        -0.01885         -0.00000         0.01964
  C         0.01913          0.00000         1.34944
  H         0.89060         -0.00000        -0.57021
  H         0.92362         -0.00000         1.93552
  H        -0.85377          0.00000         1.98539
  C        -1.27629         -0.00000        -0.77730
  H        -0.95390          0.00000        -1.82429
  H        -2.03030         -0.74638        -0.44415
  H        -2.03030          0.74638        -0.44415
9
 step=         192     theta[rad]=           2.0106
  C        -0.02213         -0.00000         0.03769
  C         0.02090          0.00000         1.34872
  H         0.90857         -0.00000        -0.51166
  H         0.96854         -0.00000         1.86085
  H        -0.90104          0.00000         1.90866
  C        -1.29935         -0.00000        -0.75943
  H        -1.18339          0.00000        -1.84122
  H        -1.77695         -0.98218        -0.59899
  H        -1.77695          0.98218        -0.59899
9
 step=         193     theta[rad]=           2.0211
  C        -0.02128         -0.00000         0.03301
  C         0.02044          0.00000         1.34891
  H         0.90392         -0.00000        -0.52683
  H         0.95690         -0.00000         1.88020
  H        -0.88879          0.00000         1.92855
  C        -1.29337         -0.00000        -0.76406
  H        -1.12391          0.00000        -1.83683
  H        -1.84262         -0.92106        -0.55886
  H        -1.84262          0.92106        -0.55886
9
 step=         194     theta[rad]=           2.0316
  C        -0.01874         -0.00000         0.01901
  C         0.01907          0.00000         1.34947
  H         0.88998         -0.00000        -0.57226
  H         0.92205         -0.00000         1.93813
  H        -0.85212          0.00000         1.98807
  C        -1.27549         -0.00000        -0.77793
  H        -0.94589          0.00000        -1.82370
  H        -2.03915         -0.73815        -0.43875
  H        -2.03915          0.73815        -0.43875
9
 step=         195     theta[rad]=           2.0420
  C        -0.02185         -0.00000         0.03615
  C         0.02075          0.00000         1.34878
  H         0.90704         -0.00000        -0.51664
  H         0.96472         -0.00000         1.86720
  H        -0.89702          0.00000         1.91519
  C        -1.29739         -0.00000        -0.76095
  H        -1.16386          0.00000        -1.83978
  H        -1.79852         -0.96211        -0.58581
  H        -1.79852          0.96211        -0.58581
9
 step=         196     theta[rad]=           2.0525
  C        -0.02157         -0.00000         0.03460
  C         0.02059          0.00000         1.34884
  H         0.90549         -0.00000        -0.52170
  H         0.96084         -0.00000         1.87365
  H        -0.89294          0.00000         1.92182
  C        -1.29540         -0.00000        -0.76249
  H        -1.14405          0.00000        -1.83832
  H        -1.82038         -0.94176        -0.57245
  H        -1.82038          0.94176        -0.57245
9
 step=         197     theta[rad]=           2.0630
  C        -0.01871         -0.00000         0.01888
  C         0.01906          0.00000         1.34947
  H         0.88985         -0.00000        -0.57268
  H         0.92173         -0.00000         1.93866
  H        -0.85178          0.00000         1.98861
  C        -1.27533         -0.00000        -0.77805
  H        -0.94426          0.00000        -1.82358
  H        -2.04095         -0.73647        -0.43764
  H        -2.04095          0.73647        -0.43764
9
 step=         198     theta[rad]=           2.0735
  C        -0.02170         -0.00000         0.03530
  C         0.02066          0.00000         1.34881
  H         0.90619         -0.00000        -0.51942
  H         0.96259         -0.00000         1.87075
  H        -0.89477          0.00000         1.91884
  C        -1.29629         -0.00000        -0.76180
  H        -1.15296          0.00000        -1.83898
  H        -1.81054         -0.95092        -0.57846
  H        -1.81054          0.95092        -0.57846
9
 step=         199     theta[rad]=           2.0839
  C        -0.02168         -0.00000         0.03520
  C         0.02065          0.00000         1.34882
  H         0.90609         -0.00000        -0.51974
  H         0.96234         -0.00000         1.87116
  H        -0.89452          0.00000         1.91926
  C        -1.29617         -0.00000        -0.76190
  H        -1.15171          0.00000        -1.83888
  H        -1.81192         -0.94963        -0.57762
  H        -1.81192          0.94963        -0.57762
9
 step=         200     theta[rad]=           2.0944
  C        -0.01871         -0.00000         0.01887
  C         0.01906          0.00000         1.34947
  H         0.88984         -0.00000        -0.57269
  H         0.92172         -0.00000         1.93868
  H        -0.85177          0.00000         1.98864
  C        -1.27532         -0.00000        -0.77806
  H        -0.94419          0.00000        -1.82357
  H        -2.04103         -0.73640        -0.43760
  H        -2.04103          0.73640        -0.43760
9
 step=         201     theta[rad]=           2.1049
  C        -0.02170         -0.00000         0.03530
  C         0.02066          0.00000         1.34881
  H         0.90619         -0.00000        -0.51942
  H         0.96259         -0.00000         1.87075
  H        -0.89477          0.00000         1.91884
  C        -1.29629         -0.00000        -0.76180
  H        -1.15296          0.00000        -1.83898
  H        -1.81054         -0.95092        -0.57846
  H        -1.81054          0.95092        -0.57846
9
 step=         202     theta[rad]=           2.1153
  C        -0.02162         -0.00000         0.03490
  C         0.02062          0.00000         1.34883
  H         0.90580         -0.00000        -0.52071
  H         0.96160         -0.00000         1.87239
  H        -0.89373          0.00000         1.92052
  C        -1.29579         -0.00000        -0.76219
  H        -1.14791          0.00000        -1.83860
  H        -1.81612         -0.94573        -0.57505
  H        -1.81612          0.94573        -0.57505
9
 step=         203     theta[rad]=           2.1258
  C        -0.01872         -0.00000         0.01889
  C         0.01906          0.00000         1.34947
  H         0.88987         -0.00000        -0.57262
  H         0.92177         -0.00000         1.93860
  H        -0.85182          0.00000         1.98854
  C        -1.27535         -0.00000        -0.77804
  H        -0.94446          0.00000        -1.82359
  H        -2.04073         -0.73668        -0.43778
  H        -2.04073          0.73668        -0.43778
9
 step=         204     theta[rad]=           2.1363
  C        -0.02185         -0.00000         0.03615
  C         0.02075          0.00000         1.34878
  H         0.90704         -0.00000        -0.51664
  H         0.96472         -0.00000         1.86720
  H        -0.89702          0.00000         1.91519
  C        -1.29739         -0.00000        -0.76095
  H        -1.16386          0.00000        -1.83978
  H        -1.79852         -0.96211        -0.58581
  H        -1.79852          0.96211        -0.58581
9
 step=         205     theta[rad]=           2.1468
  C        -0.02140         -0.00000         0.03366
  C         0.02050          0.00000         1.34888
  H         0.90456         -0.00000        -0.52474
  H         0.95851         -0.00000         1.87753
  H        -0.89048          0.00000         1.92581
  C        -1.29420         -0.00000        -0.76342
  H        -1.13212          0.00000        -1.83744
  H        -1.83356         -0.92950        -0.56439
  H        -1.83356          0.92950        -0.56439
9
 step=         206     theta[rad]=           2.1572
  C        -0.01876         -0.00000         0.01913
  C         0.01908          0.00000         1.34946
  H         0.89010         -0.00000        -0.57184
  H         0.92237         -0.00000         1.93760
  H        -0.85245          0.00000         1.98752
  C        -1.27565         -0.00000        -0.77780
  H        -0.94752          0.00000        -1.82382
  H        -2.03735         -0.73982        -0.43985
  H        -2.03735          0.73982        -0.43985
9
 step=         207     theta[rad]=           2.1677
  C        -0.02213         -0.00000         0.03769
  C         0.02090          0.00000         1.34872
  H         0.90857         -0.00000        -0.51166
  H         0.96854         -0.00000         1.86085
  H        -0.90104          0.00000         1.90866
  C        -1.29935         -0.00000        -0.75943
  H        -1.18339          0.00000        -1.84122
  H        -1.77695         -0.98218        -0.59899
  H        -1.77695          0.98218        -0.59899
9
 step=         208     theta[rad]=           2.1782
  C        -0.02098         -0.00000         0.03135
  C         0.02028          0.00000         1.34897
  H         0.90226         -0.00000        -0.53223
  H         0.95276         -0.00000         1.88709
  H        -0.88443          0.00000         1.93563
  C        -1.29125         -0.00000        -0.76571
  H        -1.10275          0.00000        -1.83527
  H        -1.86598         -0.89932        -0.54458
  H        -1.86598          0.89932        -0.54458
9
 step=         209     theta[rad]=           2.1886
  C        -0.01893         -0.00000         0.02006
  C         0.01918          0.00000         1.34943
  H         0.89102         -0.00000        -0.56885
  H         0.92467         -0.00000         1.93378
  H        -0.85487          0.00000         1.98359
  C        -1.27683         -0.00000        -0.77688
  H        -0.95927          0.00000        -1.82468
  H        -2.02438         -0.75189        -0.44777
  H        -2.02438          0.75189        -0.44777
9
 step=         210     theta[rad]=           2.1991
  C        -0.02245         -0.00000         0.03946
  C         0.02107          0.00000         1.34865
  H         0.91033         -0.00000        -0.50594
  H         0.97293         -0.00000         1.85355
  H        -0.90566          0.00000         1.90117
  C        -1.30160         -0.00000        -0.75768
  H        -1.20581          0.00000        -1.84288
  H        -1.75220         -1.00522        -0.61411
  H        -1.75220          1.00522        -0.61411
9
 step=         211     theta[rad]=           2.2096
  C        -0.02036         -0.00000         0.02794
  C         0.01994          0.00000         1.34911
  H         0.89887         -0.00000        -0.54328
  H         0.94428         -0.00000         1.90117
  H        -0.87551          0.00000         1.95010
  C        -1.28690         -0.00000        -0.76908
  H        -1.05946          0.00000        -1.83208
  H        -1.91377         -0.85485        -0.51538
  H        -1.91377          0.85485        -0.51538
9
 step=         212     theta[rad]=           2.2201
  C        -0.01934         -0.00000         0.02231
  C         0.01939          0.00000         1.34934
  H         0.89326         -0.00000        -0.56156
  H         0.93026         -0.00000         1.92448
  H        -0.86076          0.00000         1.97404
  C        -1.27970         -0.00000        -0.77466
  H        -0.98783          0.00000        -1.82679
  H        -1.99285         -0.78124        -0.46704
  H        -1.99285          0.78124        -0.46704
9
 step=         213     theta[rad]=           2.2305
  C        -0.02266         -0.00000         0.04059
  C         0.02118          0.00000         1.34860
  H         0.91146         -0.00000        -0.50225
  H         0.97576         -0.00000         1.84885
  H        -0.90864          0.00000         1.89633
  C        -1.30306         -0.00000        -0.75656
  H        -1.22027          0.00000        -1.84394
  H        -1.73623         -1.02008        -0.62387
  H        -1.73623          1.02008        -0.62387
9
 step=         214     theta[rad]=           2.2410
  C        -0.01961         -0.00000         0.02383
  C         0.01954          0.00000         1.34927
  H         0.89478         -0.00000        -0.55662
  H         0.93405         -0.00000         1.91818
  H        -0.86475          0.00000         1.96757
  C        -1.28165         -0.00000        -0.77315
  H        -1.00719          0.00000        -1.82822
  H        -1.97148         -0.80113        -0.48010
  H        -1.97148          0.80113        -0.48010
9
 step=         215     theta[rad]=           2.2515
  C        -0.02008         -0.00000         0.02639
  C         0.01979          0.00000         1.34917
  H         0.89733         -0.00000        -0.54830
  H         0.94043         -0.00000         1.90758
  H        -0.87146          0.00000         1.95668
  C        -1.28492         -0.00000        -0.77061
  H        -1.03979          0.00000        -1.83063
  H        -1.93549         -0.83462        -0.50210
  H        -1.93549          0.83462        -0.50210
9
 step=         216     theta[rad]=           2.2619
  C        -0.02253         -0.00000         0.03988
  C         0.02111          0.00000         1.34863
  H         0.91075         -0.00000        -0.50457
  H         0.97398         -0.00000         1.85181
  H        -0.90676          0.00000         1.89938
  C        -1.30214         -0.00000        -0.75727
  H        -1.21117          0.00000        -1.84327
  H        -1.74628         -1.01073        -0.61773
  H        -1.74628          1.01073        -0.61773
9
 step=         217     theta[rad]=           2.2724
  C        -0.01895         -0.00000         0.02016
  C         0.01919          0.00000         1.34942
  H         0.89113         -0.00000        -0.56850
  H         0.92493         -0.00000         1.93334
  H        -0.85515          0.00000         1.98315
  C        -1.27697         -0.00000        -0.77678
  H        -0.96061          0.00000        -1.82478
  H        -2.02290         -0.75327        -0.44868
  H        -2.02290          0.75327        -0.44868
9
 step=         218     theta[rad]=           2.2829
  C        -0.02112         -0.00000         0.03213
  C         0.02035          0.00000         1.34894
  H         0.90304         -0.00000        -0.52969
  H         0.95471         -0.00000         1.88384
  H        -0.88648          0.00000         1.93229
  C        -1.29225         -0.00000        -0.76493
  H        -1.11272          0.00000        -1.83601
  H        -1.85497         -0.90956        -0.55131
  H        -1.85497          0.90956        -0.55131
9
 step=         219     theta[rad]=           2.2934
  C        -0.02185         -0.00000         0.03615
  C         0.02075          0.00000         1.34878
  H         0.90704         -0.00000        -0.51664
  H         0.96472         -0.00000         1.86720
  H        -0.89702          0.00000         1.91519
  C        -1.29739         -0.00000        -0.76095
  H        -1.16386          0.00000        -1.83978
  H        -1.79852         -0.96211        -0.58581
  H        -1.79852          0.96211        -0.58581
9
 step=         220     theta[rad]=           2.3038
  C        -0.01872         -0.00000         0.01893
  C         0.01907          0.00000         1.34947
  H         0.88990         -0.00000        -0.57250
  H         0.92187         -0.00000         1.93844
  H        -0.85192          0.00000         1.98838
  C        -1.27539         -0.00000        -0.77800
  H        -0.94495          0.00000        -1.82363
  H        -2.04019         -0.73717        -0.43811
  H        -2.04019          0.73717        -0.43811
9
 step=         221     theta[rad]=           2.3143
  C        -0.02217         -0.00000         0.03792
  C         0.02092          0.00000         1.34871
  H         0.90880         -0.00000        -0.51091
  H         0.96912         -0.00000         1.85990
  H        -0.90164          0.00000         1.90769
  C        -1.29964         -0.00000        -0.75920
  H        -1.18631          0.00000        -1.84144
  H        -1.77372         -0.98519        -0.60096
  H        -1.77372          0.98519        -0.60096
9
 step=         222     theta[rad]=           2.3248
  C        -0.02063         -0.00000         0.02941
  C         0.02009          0.00000         1.34905
  H         0.90034         -0.00000        -0.53850
  H         0.94795         -0.00000         1.89508
  H        -0.87937          0.00000         1.94383
  C        -1.28878         -0.00000        -0.76762
  H        -1.07819          0.00000        -1.83346
  H        -1.89309         -0.87409        -0.52801
  H        -1.89309          0.87409        -0.52801
9
 step=         223     theta[rad]=           2.3353
  C        -0.01931         -0.00000         0.02214
  C         0.01938          0.00000         1.34934
  H         0.89310         -0.00000        -0.56209
  H         0.92985         -0.00000         1.92516
  H        -0.86033          0.00000         1.97474
  C        -1.27949         -0.00000        -0.77482
  H        -0.98574          0.00000        -1.82664
  H        -1.99516         -0.77909        -0.46563
  H        -1.99516          0.77909        -0.46563
9
 step=         224     theta[rad]=           2.3457
  C        -0.02267         -0.00000         0.04064
  C         0.02118          0.00000         1.34860
  H         0.91151         -0.00000        -0.50209
  H         0.97588         -0.00000         1.84865
  H        -0.90877          0.00000         1.89613
  C        -1.30312         -0.00000        -0.75651
  H        -1.22088          0.00000        -1.84399
  H        -1.73556         -1.02071        -0.62429
  H        -1.73556          1.02071        -0.62429
9
 step=         225     theta[rad]=           2.3562
  C        -0.01929         -0.00000         0.02206
  C         0.01937          0.00000         1.34934
  H         0.89302         -0.00000        -0.56235
  H         0.92965         -0.00000         1.92550
  H        -0.86011          0.00000         1.97509
  C        -1.27939         -0.00000        -0.77490
  H        -0.98471          0.00000        -1.82656
  H        -1.99629         -0.77803        -0.46494
  H        -1.99629          0.77803        -0.46494
9
 step=         226     theta[rad]=           2.3667
  C        -0.02071         -0.00000         0.02987
  C         0.02013          0.00000         1.34903
  H         0.90079         -0.00000        -0.53702
  H         0.94908         -0.00000         1.89319
  H        -0.88056          0.00000         1.94190
  C        -1.28936         -0.00000        -0.76717
  H        -1.08399          0.00000        -1.83389
  H        -1.88669         -0.88004        -0.53192
  H        -1.88669          0.88004        -0.53192
9
 step=         227     theta[rad]=           2.3771
  C        -0.02204         -0.00000         0.03721
  C         0.02085          0.00000         1.34874
  H         0.90809         -0.00000        -0.51323
  H         0.96734         -0.00000         1.86285
  H        -0.89978          0.00000         1.91072
  C        -1.29873         -0.00000        -0.75991
  H        -1.17724          0.00000        -1.84077
  H        -1.78374         -0.97587        -0.59484
  H        -1.78374          0.97587        -0.59484
9
 step=         228     theta[rad]=           2.3876
  C        -0.01872         -0.00000         0.01889
  C         0.01906          0.00000         1.34947
  H         0.88987         -0.00000        -0.57262
  H         0.92177         -0.00000         1.93860
  H        -0.85182          0.00000         1.98854
  C        -1.27535         -0.00000        -0.77804
  H        -0.94446          0.00000        -1.82359
  H        -2.04073         -0.73668        -0.43778
  H        -2.04073          0.73668        -0.43778
9
 step=         229     theta[rad]=           2.3981
  C        -0.02223         -0.00000         0.03822
  C         0.02095          0.00000         1.34870
  H         0.90910         -0.00000        -0.50996
  H         0.96985         -0.00000         1.85868
  H        -0.90241          0.00000         1.90644
  C        -1.30002         -0.00000        -0.75891
  H        -1.19005          0.00000        -1.84171
  H        -1.76959         -0.98903        -0.60349
  H        -1.76959          0.98903        -0.60349
9
 step=         230     theta[rad]=           2.4086
  C        -0.02038         -0.00000         0.02805
  C         0.01996          0.00000         1.34910
  H         0.89898         -0.00000        -0.54291
  H         0.94456         -0.00000         1.90071
  H        -0.87581          0.00000         1.94962
  C        -1.28704         -0.00000        -0.76897
  H        -1.06089          0.00000        -1.83218
  H        -1.91219         -0.85632        -0.51634
  H        -1.91219          0.85632        -0.51634
9
 step=         231     theta[rad]=           2.4190
  C        -0.01963         -0.00000         0.02392
  C         0.01955          0.00000         1.34927
  H         0.89487         -0.00000        -0.55631
  H         0.93429         -0.00000         1.91779
  H        -0.86500          0.00000         1.96717
  C        -1.28177         -0.00000        -0.77306
  H        -1.00841          0.00000        -1.82831
  H        -1.97013         -0.80238        -0.48093
  H        -1.97013          0.80238        -0.48093
9
 step=         232     theta[rad]=           2.4295
  C        -0.02258         -0.00000         0.04018
  C         0.02114          0.00000         1.34862
  H         0.91105         -0.00000        -0.50360
  H         0.97473         -0.00000         1.85057
  H        -0.90755          0.00000         1.89810
  C        -1.30253         -0.00000        -0.75697
  H        -1.21498          0.00000        -1.84355
  H        -1.74208         -1.01464        -0.62030
  H        -1.74208          1.01464        -0.62030
9
 step=         233     theta[rad]=           2.4400
  C        -0.01887         -0.00000         0.01977
  C         0.01915          0.00000         1.34944
  H         0.89074         -0.00000        -0.56979
  H         0.92394         -0.00000         1.93498
  H        -0.85411          0.00000         1.98483
  C        -1.27646         -0.00000        -0.77717
  H        -0.95557          0.00000        -1.82441
  H        -2.02847         -0.74809        -0.44527
  H        -2.02847          0.74809        -0.44527
9
 step=         234     theta[rad]=           2.4504
  C        -0.02159         -0.00000         0.03470
  C         0.02060          0.00000         1.34884
  H         0.90560         -0.00000        -0.52136
  H         0.96110         -0.00000         1.87323
  H        -0.89320          0.00000         1.92138
  C        -1.29553         -0.00000        -0.76239
  H        -1.14535          0.00000        -1.83842
  H        -1.81895         -0.94309        -0.57332
  H        -1.81895          0.94309        -0.57332
9
 step=         235     theta[rad]=           2.4609
  C        -0.02110         -0.00000         0.03202
  C         0.02034          0.00000         1.34894
  H         0.90293         -0.00000        -0.53005
  H         0.95443         -0.00000         1.88431
  H        -0.88619          0.00000         1.93277
  C        -1.29211         -0.00000        -0.76504
  H        -1.11130          0.00000        -1.83590
  H        -1.85654         -0.90811        -0.55035
  H        -1.85654          0.90811        -0.55035
9
 step=         236     theta[rad]=           2.4714
  C        -0.01917         -0.00000         0.02137
  C         0.01930          0.00000         1.34937
  H         0.89233         -0.00000        -0.56459
  H         0.92793         -0.00000         1.92835
  H        -0.85831          0.00000         1.97802
  C        -1.27851         -0.00000        -0.77559
  H        -0.97594          0.00000        -1.82591
  H        -2.00598         -0.76902        -0.45902
  H        -2.00598          0.76902        -0.45902
9
 step=         237     theta[rad]=           2.4819
  C        -0.02267         -0.00000         0.04064
  C         0.02118          0.00000         1.34860
  H         0.91150         -0.00000        -0.50211
  H         0.97587         -0.00000         1.84867
  H        -0.90875          0.00000         1.89615
  C        -1.30311         -0.00000        -0.75651
  H        -1.22082          0.00000        -1.84398
  H        -1.73563         -1.02064        -0.62424
  H        -1.73563          1.02064        -0.62424
9
 step=         238     theta[rad]=           2.4923
  C        -0.01908         -0.00000         0.02088
  C         0.01926          0.00000         1.34939
  H         0.89185         -0.00000        -0.56617
  H         0.92672         -0.00000         1.93036
  H        -0.85704          0.00000         1.98008
  C        -1.27789         -0.00000        -0.77607
  H        -0.96977          0.00000        -1.82546
  H        -2.01279         -0.76268        -0.45485
  H        -2.01279          0.76268        -0.45485
9
 step=         239     theta[rad]=           2.5028
  C        -0.02130         -0.00000         0.03312
  C         0.02045          0.00000         1.34890
  H         0.90402         -0.00000        -0.52648
  H         0.95717         -0.00000         1.87975
  H        -0.88907          0.00000         1.92809
  C        -1.29351         -0.00000        -0.76395
  H        -1.12529          0.00000        -1.83694
  H        -1.84110         -0.92248        -0.55979
  H        -1.84110          0.92248        -0.55979
9
 step=         240     theta[rad]=           2.5133
  C        -0.02130         -0.00000         0.03312
  C         0.02045          0.00000         1.34890
  H         0.90402         -0.00000        -0.52648
  H         0.95717         -0.00000         1.87975
  H        -0.88907          0.00000         1.92809
  C        -1.29351         -0.00000        -0.76395
  H        -1.12529          0.00000        -1.83694
  H        -1.84110         -0.92248        -0.55979
  H        -1.84110          0.92248        -0.55979
9
 step=         241     theta[rad]=           2.5237
  C        -0.01910         -0.00000         0.02102
  C         0.01927          0.00000         1.34939
  H         0.89198         -0.00000        -0.56573
  H         0.92706         -0.00000         1.92981
  H        -0.85739          0.00000         1.97952
  C        -1.27806         -0.00000        -0.77593
  H        -0.97147          0.00000        -1.82558
  H        -2.01091         -0.76443        -0.45600
  H        -2.01091          0.76443        -0.45600
9
 step=         242     theta[rad]=           2.5342
  C        -0.02267         -0.00000         0.04064
  C         0.02118          0.00000         1.34860
  H         0.91150         -0.00000        -0.50211
  H         0.97587         -0.00000         1.84867
  H        -0.90875          0.00000         1.89615
  C        -1.30311         -0.00000        -0.75651
  H        -1.22082          0.00000        -1.84398
  H        -1.73563         -1.02064        -0.62424
  H        -1.73563          1.02064        -0.62424
9
 step=         243     theta[rad]=           2.5447
  C        -0.01902         -0.00000         0.02057
  C         0.01922          0.00000         1.34940
  H         0.89153         -0.00000        -0.56720
  H         0.92593         -0.00000         1.93168
  H        -0.85620          0.00000         1.98144
  C        -1.27748         -0.00000        -0.77638
  H        -0.96573          0.00000        -1.82516
  H        -2.01725         -0.75853        -0.45213
  H        -2.01725          0.75853        -0.45213
9
 step=         244     theta[rad]=           2.5552
  C        -0.02149         -0.00000         0.03418
  C         0.02055          0.00000         1.34886
  H         0.90508         -0.00000        -0.52303
  H         0.95982         -0.00000         1.87535
  H        -0.89186          0.00000         1.92357
  C        -1.29487         -0.00000        -0.76290
  H        -1.13881          0.00000        -1.83793
  H        -1.82617         -0.93637        -0.56891
  H        -1.82617          0.93637        -0.56891
9
 step=         245     theta[rad]=           2.5656
  C        -0.02100         -0.00000         0.03146
  C         0.02029          0.00000         1.34897
  H         0.90237         -0.00000        -0.53187
  H         0.95304         -0.00000         1.88662
  H        -0.88472          0.00000         1.93515
  C        -1.29139         -0.00000        -0.76560
  H        -1.10418          0.00000        -1.83538
  H        -1.86440         -0.90079        -0.54554
  H        -1.86440          0.90079        -0.54554
9
 step=         246     theta[rad]=           2.5761
  C        -0.01938         -0.00000         0.02256
  C         0.01942          0.00000         1.34932
  H         0.89351         -0.00000        -0.56074
  H         0.93089         -0.00000         1.92344
  H        -0.86142          0.00000         1.97297
  C        -1.28003         -0.00000        -0.77441
  H        -0.99105          0.00000        -1.82703
  H        -1.98930         -0.78454        -0.46921
  H        -1.98930          0.78454        -0.46921
9
 step=         247     theta[rad]=           2.5866
  C        -0.02258         -0.00000         0.04018
  C         0.02114          0.00000         1.34862
  H         0.91105         -0.00000        -0.50360
  H         0.97473         -0.00000         1.85057
  H        -0.90755          0.00000         1.89810
  C        -1.30253         -0.00000        -0.75697
  H        -1.21498          0.00000        -1.84355
  H        -1.74208         -1.01464        -0.62030
  H        -1.74208          1.01464        -0.62030
9
 step=         248     theta[rad]=           2.5970
  C        -0.01877         -0.00000         0.01921
  C         0.01909          0.00000         1.34946
  H         0.89018         -0.00000        -0.57158
  H         0.92257         -0.00000         1.93727
  H        -0.85266          0.00000         1.98718
  C        -1.27575         -0.00000        -0.77772
  H        -0.94854          0.00000        -1.82389
  H        -2.03623         -0.74086        -0.44053
  H        -2.03623          0.74086        -0.44053
9
 step=         249     theta[rad]=           2.6075
  C        -0.02209         -0.00000         0.03745
  C         0.02087          0.00000         1.34873
  H         0.90834         -0.00000        -0.51243
  H         0.96795         -0.00000         1.86183
  H        -0.90042          0.00000         1.90968
  C        -1.29905         -0.00000        -0.75967
  H        -1.18036          0.00000        -1.84100
  H        -1.78029         -0.97907        -0.59695
  H        -1.78029          0.97907        -0.59695
9
 step=         250     theta[rad]=           2.6180
  C        -0.02018         -0.00000         0.02694
  C         0.01985          0.00000         1.34915
  H         0.89787         -0.00000        -0.54653
  H         0.94179         -0.00000         1.90532
  H        -0.87289          0.00000         1.95435
  C        -1.28562         -0.00000        -0.77007
  H        -1.04673          0.00000        -1.83114
  H        -1.92782         -0.84176        -0.50678
  H        -1.92782          0.84176        -0.50678
9
 step=         251     theta[rad]=           2.6285
  C        -0.02020         -0.00000         0.02705
  C         0.01986          0.00000         1.34914
  H         0.89798         -0.00000        -0.54617
  H         0.94207         -0.00000         1.90486
  H        -0.87318          0.00000         1.95388
  C        -1.28576         -0.00000        -0.76996
  H        -1.04813          0.00000        -1.83124
  H        -1.92628         -0.84320        -0.50773
  H        -1.92628          0.84320        -0.50773
9
 step=         252     theta[rad]=           2.6389
  C        -0.02204         -0.00000         0.03721
  C         0.02085          0.00000         1.34874
  H         0.90809         -0.00000        -0.51323
  H         0.96734         -0.00000         1.86285
  H        -0.89978          0.00000         1.91072
  C        -1.29873         -0.00000        -0.75991
  H        -1.17724          0.00000        -1.84077
  H        -1.78374         -0.97587        -0.59484
  H        -1.78374          0.97587        -0.59484
9
 step=         253     theta[rad]=           2.6494
  C        -0.01881         -0.00000         0.01944
  C         0.01911          0.00000         1.34945
  H         0.89041         -0.00000        -0.57085
  H         0.92313         -0.00000         1.93633
  H        -0.85326          0.00000         1.98622
  C        -1.27604         -0.00000        -0.77749
  H        -0.95142          0.00000        -1.82411
  H        -2.03305         -0.74382        -0.44247
  H        -2.03305          0.74382        -0.44247
9
 step=         254     theta[rad]=           2.6599
  C        -0.02264         -0.00000         0.04051
  C         0.02117          0.00000         1.34860
  H         0.91138         -0.00000        -0.50252
  H         0.97555         -0.00000         1.84920
  H        -0.90841          0.00000         1.89670
  C        -1.30295         -0.00000        -0.75664
  H        -1.21918          0.00000        -1.84386
  H        -1.73744         -1.01896        -0.62314
  H        -1.73744          1.01896        -0.62314
9
 step=         255     theta[rad]=           2.6704
  C        -0.01909         -0.00000         0.02095
  C         0.01926          0.00000         1.34939
  H         0.89191         -0.00000        -0.56595
  H         0.92689         -0.00000         1.93009
  H        -0.85721          0.00000         1.97980
  C        -1.27797         -0.00000        -0.77600
  H        -0.97061          0.00000        -1.82552
  H        -2.01186         -0.76355        -0.45542
  H        -2.01186          0.76355        -0.45542
9
 step=         256     theta[rad]=           2.6808
  C        -0.02161         -0.00000         0.03480
  C         0.02061          0.00000         1.34883
  H         0.90570         -0.00000        -0.52104
  H         0.96135         -0.00000         1.87281
  H        -0.89347          0.00000         1.92095
  C        -1.29566         -0.00000        -0.76229
  H        -1.14663          0.00000        -1.83851
  H        -1.81753         -0.94441        -0.57419
  H        -1.81753          0.94441        -0.57419
9
 step=         257     theta[rad]=           2.6913
  C        -0.02063         -0.00000         0.02941
  C         0.02009          0.00000         1.34905
  H         0.90034         -0.00000        -0.53850
  H         0.94795         -0.00000         1.89508
  H        -0.87937          0.00000         1.94383
  C        -1.28878         -0.00000        -0.76762
  H        -1.07819          0.00000        -1.83346
  H        -1.89309         -0.87409        -0.52801
  H        -1.89309          0.87409        -0.52801
9
 step=         258     theta[rad]=           2.7018
  C        -0.01990         -0.00000         0.02543
  C         0.01970          0.00000         1.34921
  H         0.89637         -0.00000        -0.55141
  H         0.93804         -0.00000         1.91154
  H        -0.86895          0.00000         1.96075
  C        -1.28370         -0.00000        -0.77156
  H        -1.02759          0.00000        -1.82973
  H        -1.94895         -0.82210        -0.49387
  H        -1.94895          0.82210        -0.49387
9
 step=         259     theta[rad]=           2.7122
  C        -0.02216         -0.00000         0.03785
  C         0.02091          0.00000         1.34871
  H         0.90873         -0.00000        -0.51116
  H         0.96893         -0.00000         1.86021
  H        -0.90145          0.00000         1.90801
  C        -1.29955         -0.00000        -0.75928
  H        -1.18535          0.00000        -1.84137
  H        -1.77479         -0.98420        -0.60031
  H        -1.77479          0.98420        -0.60031
9
 step=         260     theta[rad]=           2.7227
  C        -0.01881         -0.00000         0.01940
  C         0.01911          0.00000         1.34945
  H         0.89037         -0.00000        -0.57097
  H         0.92304         -0.00000         1.93648
  H        -0.85316          0.00000         1.98637
  C        -1.27600         -0.00000        -0.77753
  H        -0.95096          0.00000        -1.82407
  H        -2.03355         -0.74335        -0.44217
  H        -2.03355          0.74335        -0.44217
9
 step=         261     theta[rad]=           2.7332
  C        -0.02266         -0.00000         0.04059
  C         0.02118          0.00000         1.34860
  H         0.91146         -0.00000        -0.50225
  H         0.97576         -0.00000         1.84885
  H        -0.90864          0.00000         1.89633
  C        -1.30306         -0.00000        -0.75656
  H        -1.22027          0.00000        -1.84394
  H        -1.73623         -1.02008        -0.62387
  H        -1.73623          1.02008        -0.62387
9
 step=         262     theta[rad]=           2.7437
  C        -0.01895         -0.00000         0.02016
  C         0.01919          0.00000         1.34942
  H         0.89113         -0.00000        -0.56850
  H         0.92493         -0.00000         1.93334
  H        -0.85515          0.00000         1.98315
  C        -1.27697         -0.00000        -0.77678
  H        -0.96061          0.00000        -1.82478
  H        -2.02290         -0.75327        -0.44868
  H        -2.02290          0.75327        -0.44868
9
 step=         263     theta[rad]=           2.7541
  C        -0.02195         -0.00000         0.03669
  C         0.02080          0.00000         1.34876
  H         0.90758         -0.00000        -0.51489
  H         0.96606         -0.00000         1.86497
  H        -0.89843          0.00000         1.91290
  C        -1.29808         -0.00000        -0.76042
  H        -1.17072          0.00000        -1.84029
  H        -1.79094         -0.96917        -0.59044
  H        -1.79094          0.96917        -0.59044
9
 step=         264     theta[rad]=           2.7646
  C        -0.02008         -0.00000         0.02639
  C         0.01979          0.00000         1.34917
  H         0.89733         -0.00000        -0.54830
  H         0.94043         -0.00000         1.90758
  H        -0.87146          0.00000         1.95668
  C        -1.28492         -0.00000        -0.77061
  H        -1.03979          0.00000        -1.83063
  H        -1.93549         -0.83462        -0.50210
  H        -1.93549          0.83462        -0.50210
9
 step=         265     theta[rad]=           2.7751
  C        -0.02059         -0.00000         0.02919
  C         0.02007          0.00000         1.34906
  H         0.90011         -0.00000        -0.53924
  H         0.94738         -0.00000         1.89602
  H        -0.87877          0.00000         1.94480
  C        -1.28849         -0.00000        -0.76785
  H        -1.07530          0.00000        -1.83325
  H        -1.89629         -0.87111        -0.52606
  H        -1.89629          0.87111        -0.52606
9
 step=         266     theta[rad]=           2.7855
  C        -0.02147         -0.00000         0.03408
  C         0.02054          0.00000         1.34886
  H         0.90498         -0.00000        -0.52337
  H         0.95956         -0.00000         1.87579
  H        -0.89158          0.00000         1.92401
  C        -1.29474         -0.00000        -0.76300
  H        -1.13748          0.00000        -1.83783
  H        -1.82763         -0.93501        -0.56801
  H        -1.82763          0.93501        -0.56801
9
 step=         267     theta[rad]=           2.7960
  C        -0.01934         -0.00000         0.02231
  C         0.01939          0.00000         1.34934
  H         0.89326         -0.00000        -0.56156
  H         0.93026         -0.00000         1.92448
  H        -0.86076          0.00000         1.97404
  C        -1.27970         -0.00000        -0.77466
  H        -0.98783          0.00000        -1.82679
  H        -1.99285         -0.78124        -0.46704
  H        -1.99285          0.78124        -0.46704
9
 step=         268     theta[rad]=           2.8065
  C        -0.02244         -0.00000         0.03940
  C         0.02106          0.00000         1.34865
  H         0.91028         -0.00000        -0.50611
  H         0.97280         -0.00000         1.85377
  H        -0.90552          0.00000         1.90139
  C        -1.30154         -0.00000        -0.75774
  H        -1.20514          0.00000        -1.84283
  H        -1.75294         -1.00453        -0.61367
  H        -1.75294          1.00453        -0.61367
9
 step=         269     theta[rad]=           2.8170
  C        -0.01874         -0.00000         0.01901
  C         0.01907          0.00000         1.34947
  H         0.88998         -0.00000        -0.57226
  H         0.92205         -0.00000         1.93813
  H        -0.85212          0.00000         1.98807
  C        -1.27549         -0.00000        -0.77793
  H        -0.94589          0.00000        -1.82370
  H        -2.03915         -0.73815        -0.43875
  H        -2.03915          0.73815        -0.43875
9
 step=         270     theta[rad]=           2.8274
  C        -0.02264         -0.00000         0.04051
  C         0.02117          0.00000         1.34860
  H         0.91138         -0.00000        -0.50252
  H         0.97555         -0.00000         1.84920
  H        -0.90841          0.00000         1.89670
  C        -1.30295         -0.00000        -0.75664
  H        -1.21918          0.00000        -1.84386
  H        -1.73744         -1.01896        -0.62314
  H        -1.73744          1.01896        -0.62314
9
 step=         271     theta[rad]=           2.8379
  C        -0.01892         -0.00000         0.02001
  C         0.01917          0.00000         1.34943
  H         0.89097         -0.00000        -0.56901
  H         0.92454         -0.00000         1.93399
  H        -0.85474          0.00000         1.98381
  C        -1.27677         -0.00000        -0.77693
  H        -0.95862          0.00000        -1.82464
  H        -2.02510         -0.75122        -0.44733
  H        -2.02510          0.75122        -0.44733
9
 step=         272     theta[rad]=           2.8484
  C        -0.02213         -0.00000         0.03769
  C         0.02090          0.00000         1.34872
  H         0.90857         -0.00000        -0.51166
  H         0.96854         -0.00000         1.86085
  H        -0.90104          0.00000         1.90866
  C        -1.29935         -0.00000        -0.75943
  H        -1.18339          0.00000        -1.84122
  H        -1.77695         -0.98218        -0.59899
  H        -1.77695          0.98218        -0.59899
9
 step=         273     theta[rad]=           2.8588
  C        -0.01968         -0.00000         0.02422
  C         0.01958          0.00000         1.34926
  H         0.89516         -0.00000        -0.55536
  H         0.93501         -0.00000         1.91658
  H        -0.86576          0.00000         1.96593
  C        -1.28214         -0.00000        -0.77277
  H        -1.01211          0.00000        -1.82858
  H        -1.96604         -0.80619        -0.48343
  H        -1.96604          0.80619        -0.48343
9
 step=         274     theta[rad]=           2.8693
  C        -0.02120         -0.00000         0.03257
  C         0.02040          0.00000         1.34892
  H         0.90348         -0.00000        -0.52825
  H         0.95581         -0.00000         1.88201
  H        -0.88764          0.00000         1.93041
  C        -1.29282         -0.00000        -0.76450
  H        -1.11834          0.00000        -1.83642
  H        -1.84876         -0.91535        -0.55510
  H        -1.84876          0.91535        -0.55510
9
 step=         275     theta[rad]=           2.8798
  C        -0.02069         -0.00000         0.02976
  C         0.02012          0.00000         1.34904
  H         0.90068         -0.00000        -0.53739
  H         0.94880         -0.00000         1.89367
  H        -0.88027          0.00000         1.94238
  C        -1.28922         -0.00000        -0.76728
  H        -1.08254          0.00000        -1.83378
  H        -1.88829         -0.87855        -0.53094
  H        -1.88829          0.87855        -0.53094
9
 step=         276     theta[rad]=           2.8903
  C        -0.02020         -0.00000         0.02705
  C         0.01986          0.00000         1.34914
  H         0.89798         -0.00000        -0.54617
  H         0.94207         -0.00000         1.90486
  H        -0.87318          0.00000         1.95388
  C        -1.28576         -0.00000        -0.76996
  H        -1.04813          0.00000        -1.83124
  H        -1.92628         -0.84320        -0.50773
  H        -1.92628          0.84320        -0.50773
9
 step=         277     theta[rad]=           2.9007
  C        -0.02162         -0.00000         0.03490
  C         0.02062          0.00000         1.34883
  H         0.90580         -0.00000        -0.52071
  H         0.96160         -0.00000         1.87239
  H        -0.89373          0.00000         1.92052
  C        -1.29579         -0.00000        -0.76219
  H        -1.14791          0.00000        -1.83860
  H        -1.81612         -0.94573        -0.57505
  H        -1.81612          0.94573        -0.57505
9
 step=         278     theta[rad]=           2.9112
  C        -0.01938         -0.00000         0.02256
  C         0.01942          0.00000         1.34932
  H         0.89351         -0.00000        -0.56074
  H         0.93089         -0.00000         1.92344
  H        -0.86142          0.00000         1.97297
  C        -1.28003         -0.00000        -0.77441
  H        -0.99105          0.00000        -1.82703
  H        -1.98930         -0.78454        -0.46921
  H        -1.98930          0.78454        -0.46921
9
 step=         279     theta[rad]=           2.9217
  C        -0.02229         -0.00000         0.03856
  C         0.02098          0.00000         1.34868
  H         0.90944         -0.00000        -0.50883
  H         0.97071         -0.00000         1.85724
  H        -0.90332          0.00000         1.90496
  C        -1.30046         -0.00000        -0.75857
  H        -1.19446          0.00000        -1.84204
  H        -1.76473         -0.99356        -0.60646
  H        -1.76473          0.99356        -0.60646
9
 step=         280     theta[rad]=           2.9322
  C        -0.01888         -0.00000         0.01981
  C         0.01915          0.00000         1.34944
  H         0.89078         -0.00000        -0.56964
  H         0.92406         -0.00000         1.93479
  H        -0.85423          0.00000         1.98464
  C        -1.27652         -0.00000        -0.77713
  H        -0.95615          0.00000        -1.82445
  H        -2.02783         -0.74869        -0.44567
  H        -2.02783          0.74869        -0.44567
9
 step=         281     theta[rad]=           2.9426
  C        -0.02262         -0.00000         0.04038
  C         0.02116          0.00000         1.34861
  H         0.91125         -0.00000        -0.50294
  H         0.97523         -0.00000         1.84973
  H        -0.90808          0.00000         1.89724
  C        -1.30278         -0.00000        -0.75677
  H        -1.21755          0.00000        -1.84374
  H        -1.73923         -1.01729        -0.62204
  H        -1.73923          1.01729        -0.62204
9
 step=         282     theta[rad]=           2.9531
  C        -0.01871         -0.00000         0.01888
  C         0.01906          0.00000         1.34947
  H         0.88985         -0.00000        -0.57268
  H         0.92173         -0.00000         1.93866
  H        -0.85178          0.00000         1.98861
  C        -1.27533         -0.00000        -0.77805
  H        -0.94426          0.00000        -1.82358
  H        -2.04095         -0.73647        -0.43764
  H        -2.04095          0.73647        -0.43764
9
 step=         283     theta[rad]=           2.9636
  C        -0.02265         -0.00000         0.04052
  C         0.02117          0.00000         1.34860
  H         0.91139         -0.00000        -0.50247
  H         0.97559         -0.00000         1.84913
  H        -0.90846          0.00000         1.89662
  C        -1.30297         -0.00000        -0.75663
  H        -1.21940          0.00000        -1.84388
  H        -1.73720         -1.01919        -0.62329
  H        -1.73720          1.01919        -0.62329
9
 step=         284     theta[rad]=           2.9740
  C        -0.01881         -0.00000         0.01940
  C         0.01911          0.00000         1.34945
  H         0.89037         -0.00000        -0.57097
  H         0.92304         -0.00000         1.93648
  H        -0.85316          0.00000         1.98637
  C        -1.27600         -0.00000        -0.77753
  H        -0.95096          0.00000        -1.82407
  H        -2.03355         -0.74335        -0.44217
  H        -2.03355          0.74335        -0.44217
9
 step=         285     theta[rad]=           2.9845
  C        -0.02245         -0.00000         0.03946
  C         0.02107          0.00000         1.34865
  H         0.91033         -0.00000        -0.50594
  H         0.97293         -0.00000         1.85355
  H        -0.90566          0.00000         1.90117
  C        -1.30160         -0.00000        -0.75768
  H        -1.20581          0.00000        -1.84288
  H        -1.75220         -1.00522        -0.61411
  H        -1.75220          1.00522        -0.61411
9
 step=         286     theta[rad]=           2.9950
  C        -0.01908         -0.00000         0.02088
  C         0.01926          0.00000         1.34939
  H         0.89185         -0.00000        -0.56617
  H         0.92672         -0.00000         1.93036
  H        -0.85704          0.00000         1.98008
  C        -1.27789         -0.00000        -0.77607
  H        -0.96977          0.00000        -1.82546
  H        -2.01279         -0.76268        -0.45485
  H        -2.01279          0.76268        -0.45485
9
 step=         287     theta[rad]=           3.0055
  C        -0.02213         -0.00000         0.03769
  C         0.02090          0.00000         1.34872
  H         0.90857         -0.00000        -0.51166
  H         0.96854         -0.00000         1.86085
  H        -0.90104          0.00000         1.90866
  C        -1.29935         -0.00000        -0.75943
  H        -1.18339          0.00000        -1.84122
  H        -1.77695         -0.98218        -0.59899
  H        -1.77695          0.98218        -0.59899
9
 step=         288     theta[rad]=           3.0159
  C        -0.01943         -0.00000         0.02282
  C         0.01944          0.00000         1.34931
  H         0.89377         -0.00000        -0.55989
  H         0.93154         -0.00000         1.92236
  H        -0.86210          0.00000         1.97187
  C        -1.28036         -0.00000        -0.77415
  H        -0.99435          0.00000        -1.82727
  H        -1.98565         -0.78794        -0.47144
  H        -1.98565          0.78794        -0.47144
9
 step=         289     theta[rad]=           3.0264
  C        -0.02177         -0.00000         0.03569
  C         0.02070          0.00000         1.34880
  H         0.90658         -0.00000        -0.51816
  H         0.96355         -0.00000         1.86915
  H        -0.89579          0.00000         1.91719
  C        -1.29679         -0.00000        -0.76142
  H        -1.15789          0.00000        -1.83934
  H        -1.80511         -0.95598        -0.58178
  H        -1.80511          0.95598        -0.58178
9
 step=         290     theta[rad]=           3.0369
  C        -0.01979         -0.00000         0.02482
  C         0.01964          0.00000         1.34923
  H         0.89576         -0.00000        -0.55342
  H         0.93651         -0.00000         1.91410
  H        -0.86733          0.00000         1.96338
  C        -1.28291         -0.00000        -0.77217
  H        -1.01973          0.00000        -1.82915
  H        -1.95763         -0.81402        -0.48856
  H        -1.95763          0.81402        -0.48856
9
 step=         291     theta[rad]=           3.0473
  C        -0.02142         -0.00000         0.03376
  C         0.02051          0.00000         1.34887
  H         0.90466         -0.00000        -0.52440
  H         0.95877         -0.00000         1.87709
  H        -0.89076          0.00000         1.92536
  C        -1.29434         -0.00000        -0.76332
  H        -1.13347          0.00000        -1.83754
  H        -1.83207         -0.93089        -0.56531
  H        -1.83207          0.93089        -0.56531
9
 step=         292     theta[rad]=           3.0578
  C        -0.02012         -0.00000         0.02661
  C         0.01981          0.00000         1.34916
  H         0.89755         -0.00000        -0.54759
  H         0.94097         -0.00000         1.90668
  H        -0.87203          0.00000         1.95575
  C        -1.28520         -0.00000        -0.77040
  H        -1.04255          0.00000        -1.83083
  H        -1.93244         -0.83747        -0.50396
  H        -1.93244          0.83747        -0.50396
9
 step=         293     theta[rad]=           3.0683
  C        -0.02112         -0.00000         0.03213
  C         0.02035          0.00000         1.34894
  H         0.90304         -0.00000        -0.52969
  H         0.95471         -0.00000         1.88384
  H        -0.88648          0.00000         1.93229
  C        -1.29225         -0.00000        -0.76493
  H        -1.11272          0.00000        -1.83601
  H        -1.85497         -0.90956        -0.55131
  H        -1.85497          0.90956        -0.55131
9
 step=         294     theta[rad]=           3.0788
  C        -0.02038         -0.00000         0.02805
  C         0.01996          0.00000         1.34910
  H         0.89898         -0.00000        -0.54291
  H         0.94456         -0.00000         1.90071
  H        -0.87581          0.00000         1.94962
  C        -1.28704         -0.00000        -0.76897
  H        -1.06089          0.00000        -1.83218
  H        -1.91219         -0.85632        -0.51634
  H        -1.91219          0.85632        -0.51634
9
 step=         295     theta[rad]=           3.0892
  C        -0.02090         -0.00000         0.03089
  C         0.02023          0.00000         1.34899
  H         0.90181         -0.00000        -0.53370
  H         0.95163         -0.00000         1.88896
  H        -0.88325          0.00000         1.93755
  C        -1.29067         -0.00000        -0.76616
  H        -1.09700          0.00000        -1.83485
  H        -1.87233         -0.89341        -0.54070
  H        -1.87233          0.89341        -0.54070
9
 step=         296     theta[rad]=           3.0997
  C        -0.02057         -0.00000         0.02907
  C         0.02005          0.00000         1.34906
  H         0.90000         -0.00000        -0.53961
  H         0.94710         -0.00000         1.89649
  H        -0.87848          0.00000         1.94529
  C        -1.28835         -0.00000        -0.76796
  H        -1.07385          0.00000        -1.83314
  H        -1.89788         -0.86963        -0.52508
  H        -1.89788          0.86963        -0.52508
9
 step=         297     theta[rad]=           3.1102
  C        -0.02075         -0.00000         0.03010
  C         0.02015          0.00000         1.34902
  H         0.90102         -0.00000        -0.53628
  H         0.94965         -0.00000         1.89225
  H        -0.88116          0.00000         1.94093
  C        -1.28965         -0.00000        -0.76695
  H        -1.08688          0.00000        -1.83410
  H        -1.88350         -0.88302        -0.53387
  H        -1.88350          0.88302        -0.53387
9
 step=         298     theta[rad]=           3.1206
  C        -0.02067         -0.00000         0.02964
  C         0.02011          0.00000         1.34904
  H         0.90056         -0.00000        -0.53776
  H         0.94852         -0.00000         1.89414
  H        -0.87997          0.00000         1.94287
  C        -1.28907         -0.00000        -0.76740
  H        -1.08109          0.00000        -1.83367
  H        -1.88989         -0.87706        -0.52997
  H        -1.88989          0.87706        -0.52997
9
 step=         299     theta[rad]=           3.1311
  C        -0.02069         -0.00000         0.02976
  C         0.02012          0.00000         1.34904
  H         0.90068         -0.00000        -0.53739
  H         0.94880         -0.00000         1.89367
  H        -0.88027          0.00000         1.94238
  C        -1.28922         -0.00000        -0.76728
  H        -1.08254          0.00000        -1.83378
  H        -1.88829         -0.87855        -0.53094
  H        -1.88829          0.87855        -0.53094
9
 step=         300     theta[rad]=           3.1416
  C        -0.02069         -0.00000         0.02976
  C         0.02012          0.00000         1.34904
  H         0.90068         -0.00000        -0.53739
  H         0.94880         -0.00000         1.89367
  H        -0.88027          0.00000         1.94238
  C        -1.28922         -0.00000        -0.76728
  H        -1.08254          0.00000        -1.83378
  H        -1.88829         -0.87855        -0.53094
  H        -1.88829          0.87855        -0.53094
9
 step=         301     theta[rad]=           3.1521
  C        -0.02071         -0.00000         0.02987
  C         0.02013          0.00000         1.34903
  H         0.90079         -0.00000        -0.53702
  H         0.94908         -0.00000         1.89319
  H        -0.88056          0.00000         1.94190
  C        -1.28936         -0.00000        -0.76717
  H        -1.08399          0.00000        -1.83389
  H        -1.88669         -0.88004        -0.53192
  H        -1.88669          0.88004        -0.53192
9
 step=         302     theta[rad]=           3.1625
  C        -0.02063         -0.00000         0.02941
  C         0.02009          0.00000         1.34905
  H         0.90034         -0.00000        -0.53850
  H         0.94795         -0.00000         1.89508
  H        -0.87937          0.00000         1.94383
  C        -1.28878         -0.00000        -0.76762
  H        -1.07819          0.00000        -1.83346
  H        -1.89309         -0.87409        -0.52801
  H        -1.89309          0.87409        -0.52801
9
 step=         303     theta[rad]=           3.1730
  C        -0.02081         -0.00000         0.03044
  C         0.02019          0.00000         1.34901
  H         0.90136         -0.00000        -0.53517
  H         0.95050         -0.00000         1.89084
  H        -0.88206          0.00000         1.93948
  C        -1.29009         -0.00000        -0.76661
  H        -1.09122          0.00000        -1.83442
  H        -1.87870         -0.88748        -0.53680
  H        -1.87870          0.88748        -0.53680
9
 step=         304     theta[rad]=           3.1835
  C        -0.02048         -0.00000         0.02862
  C         0.02001          0.00000         1.34908
  H         0.89954         -0.00000        -0.54108
  H         0.94597         -0.00000         1.89837
  H        -0.87729          0.00000         1.94722
  C        -1.28777         -0.00000        -0.76841
  H        -1.06808          0.00000        -1.83271
  H        -1.90426         -0.86369        -0.52119
  H        -1.90426          0.86369        -0.52119
9
 step=         305     theta[rad]=           3.1940
  C        -0.02100         -0.00000         0.03146
  C         0.02029          0.00000         1.34897
  H         0.90237         -0.00000        -0.53187
  H         0.95304         -0.00000         1.88662
  H        -0.88472          0.00000         1.93515
  C        -1.29139         -0.00000        -0.76560
  H        -1.10418          0.00000        -1.83538
  H        -1.86440         -0.90079        -0.54554
  H        -1.86440          0.90079        -0.54554
9
 step=         306     theta[rad]=           3.2044
  C        -0.02026         -0.00000         0.02738
  C         0.01989          0.00000         1.34913
  H         0.89831         -0.00000        -0.54509
  H         0.94289         -0.00000         1.90349
  H        -0.87405          0.00000         1.95247
  C        -1.28619         -0.00000        -0.76963
  H        -1.05236          0.00000        -1.83155
  H        -1.92161         -0.84754        -0.51058
  H        -1.92161          0.84754        -0.51058
9
 step=         307     theta[rad]=           3.2149
  C        -0.02126         -0.00000         0.03290
  C         0.02043          0.00000         1.34891
  H         0.90381         -0.00000        -0.52719
  H         0.95663         -0.00000         1.88065
  H        -0.88850          0.00000         1.92901
  C        -1.29324         -0.00000        -0.76417
  H        -1.12252          0.00000        -1.83673
  H        -1.84415         -0.91964        -0.55792
  H        -1.84415          0.91964        -0.55792
9
 step=         308     theta[rad]=           3.2254
  C        -0.01996         -0.00000         0.02575
  C         0.01973          0.00000         1.34920
  H         0.89669         -0.00000        -0.55039
  H         0.93883         -0.00000         1.91024
  H        -0.86978          0.00000         1.95941
  C        -1.28410         -0.00000        -0.77125
  H        -1.03161          0.00000        -1.83002
  H        -1.94452         -0.82622        -0.49658
  H        -1.94452          0.82622        -0.49658
9
 step=         309     theta[rad]=           3.2358
  C        -0.02159         -0.00000         0.03470
  C         0.02060          0.00000         1.34884
  H         0.90560         -0.00000        -0.52136
  H         0.96110         -0.00000         1.87323
  H        -0.89320          0.00000         1.92138
  C        -1.29553         -0.00000        -0.76239
  H        -1.14535          0.00000        -1.83842
  H        -1.81895         -0.94309        -0.57332
  H        -1.81895          0.94309        -0.57332
9
 step=         310     theta[rad]=           3.2463
  C        -0.01961         -0.00000         0.02383
  C         0.01954          0.00000         1.34927
  H         0.89478         -0.00000        -0.55662
  H         0.93405         -0.00000         1.91818
  H        -0.86475          0.00000         1.96757
  C        -1.28165         -0.00000        -0.77315
  H        -1.00719          0.00000        -1.82822
  H        -1.97148         -0.80113        -0.48010
  H        -1.97148          0.80113        -0.48010
9
 step=         311     theta[rad]=           3.2568
  C        -0.02195         -0.00000         0.03669
  C         0.02080          0.00000         1.34876
  H         0.90758         -0.00000        -0.51489
  H         0.96606         -0.00000         1.86497
  H        -0.89843          0.00000         1.91290
  C        -1.29808         -0.00000        -0.76042
  H        -1.17072          0.00000        -1.84029
  H        -1.79094         -0.96917        -0.59044
  H        -1.79094          0.96917        -0.59044
9
 step=         312     theta[rad]=           3.2673
  C        -0.01925         -0.00000         0.02182
  C         0.01935          0.00000         1.34935
  H         0.89278         -0.00000        -0.56313
  H         0.92906         -0.00000         1.92648
  H        -0.85949          0.00000         1.97610
  C        -1.27909         -0.00000        -0.77514
  H        -0.98169          0.00000        -1.82634
  H        -1.99963         -0.77492        -0.46290
  H        -1.99963          0.77492        -0.46290
9
 step=         313     theta[rad]=           3.2777
  C        -0.02230         -0.00000         0.03863
  C         0.02099          0.00000         1.34868
  H         0.90951         -0.00000        -0.50862
  H         0.97088         -0.00000         1.85697
  H        -0.90350          0.00000         1.90468
  C        -1.30055         -0.00000        -0.75850
  H        -1.19531          0.00000        -1.84210
  H        -1.76379         -0.99443        -0.60703
  H        -1.76379          0.99443        -0.60703
9
 step=         314     theta[rad]=           3.2882
  C        -0.01893         -0.00000         0.02006
  C         0.01918          0.00000         1.34943
  H         0.89102         -0.00000        -0.56885
  H         0.92467         -0.00000         1.93378
  H        -0.85487          0.00000         1.98359
  C        -1.27683         -0.00000        -0.77688
  H        -0.95927          0.00000        -1.82468
  H        -2.02438         -0.75189        -0.44777
  H        -2.02438          0.75189        -0.44777
9
 step=         315     theta[rad]=           3.2987
  C        -0.02257         -0.00000         0.04011
  C         0.02113          0.00000         1.34862
  H         0.91098         -0.00000        -0.50382
  H         0.97456         -0.00000         1.85085
  H        -0.90737          0.00000         1.89839
  C        -1.30244         -0.00000        -0.75704
  H        -1.21411          0.00000        -1.84349
  H        -1.74303         -1.01375        -0.61972
  H        -1.74303          1.01375        -0.61972
9
 step=         316     theta[rad]=           3.3091
  C        -0.01873         -0.00000         0.01899
  C         0.01907          0.00000         1.34947
  H         0.88996         -0.00000        -0.57231
  H         0.92201         -0.00000         1.93820
  H        -0.85207          0.00000         1.98814
  C        -1.27547         -0.00000        -0.77794
  H        -0.94567          0.00000        -1.82368
  H        -2.03939         -0.73792        -0.43860
  H        -2.03939          0.73792        -0.43860
9
 step=         317     theta[rad]=           3.3196
  C        -0.02267         -0.00000         0.04064
  C         0.02118          0.00000         1.34860
  H         0.91150         -0.00000        -0.50211
  H         0.97587         -0.00000         1.84867
  H        -0.90875          0.00000         1.89615
  C        -1.30311         -0.00000        -0.75651
  H        -1.22082          0.00000        -1.84398
  H        -1.73563         -1.02064        -0.62424
  H        -1.73563          1.02064        -0.62424
9
 step=         318     theta[rad]=           3.3301
  C        -0.01876         -0.00000         0.01913
  C         0.01908          0.00000         1.34946
  H         0.89010         -0.00000        -0.57184
  H         0.92237         -0.00000         1.93760
  H        -0.85245          0.00000         1.98752
  C        -1.27565         -0.00000        -0.77780
  H        -0.94752          0.00000        -1.82382
  H        -2.03735         -0.73982        -0.43985
  H        -2.03735          0.73982        -0.43985
9
 step=         319     theta[rad]=           3.3406
  C        -0.02250         -0.00000         0.03970
  C         0.02109          0.00000         1.34864
  H         0.91057         -0.00000        -0.50514
  H         0.97354         -0.00000         1.85254
  H        -0.90630          0.00000         1.90013
  C        -1.30192         -0.00000        -0.75744
  H        -1.20892          0.00000        -1.84311
  H        -1.74876         -1.00842        -0.61622
  H        -1.74876          1.00842        -0.61622
9
 step=         320     theta[rad]=           3.3510
  C        -0.01909         -0.00000         0.02095
  C         0.01926          0.00000         1.34939
  H         0.89191         -0.00000        -0.56595
  H         0.92689         -0.00000         1.93009
  H        -0.85721          0.00000         1.97980
  C        -1.27797         -0.00000        -0.77600
  H        -0.97061          0.00000        -1.82552
  H        -2.01186         -0.76355        -0.45542
  H        -2.01186          0.76355        -0.45542
9
 step=         321     theta[rad]=           3.3615
  C        -0.02200         -0.00000         0.03695
  C         0.02082          0.00000         1.34875
  H         0.90784         -0.00000        -0.51405
  H         0.96671         -0.00000         1.86389
  H        -0.89911          0.00000         1.91179
  C        -1.29841         -0.00000        -0.76016
  H        -1.17403          0.00000        -1.84053
  H        -1.78729         -0.97256        -0.59267
  H        -1.78729          0.97256        -0.59267
9
 step=         322     theta[rad]=           3.3720
  C        -0.01975         -0.00000         0.02461
  C         0.01962          0.00000         1.34924
  H         0.89556         -0.00000        -0.55407
  H         0.93600         -0.00000         1.91494
  H        -0.86680          0.00000         1.96424
  C        -1.28265         -0.00000        -0.77237
  H        -1.01716          0.00000        -1.82896
  H        -1.96047         -0.81138        -0.48683
  H        -1.96047          0.81138        -0.48683
9
 step=         323     theta[rad]=           3.3824
  C        -0.02118         -0.00000         0.03246
  C         0.02039          0.00000         1.34893
  H         0.90337         -0.00000        -0.52861
  H         0.95554         -0.00000         1.88247
  H        -0.88735          0.00000         1.93088
  C        -1.29268         -0.00000        -0.76460
  H        -1.11694          0.00000        -1.83632
  H        -1.85031         -0.91391        -0.55416
  H        -1.85031          0.91391        -0.55416
9
 step=         324     theta[rad]=           3.3929
  C        -0.02069         -0.00000         0.02976
  C         0.02012          0.00000         1.34904
  H         0.90068         -0.00000        -0.53739
  H         0.94880         -0.00000         1.89367
  H        -0.88027          0.00000         1.94238
  C        -1.28922         -0.00000        -0.76728
  H        -1.08254          0.00000        -1.83378
  H        -1.88829         -0.87855        -0.53094
  H        -1.88829          0.87855        -0.53094
9
 step=         325     theta[rad]=           3.4034
  C        -0.02018         -0.00000         0.02694
  C         0.01985          0.00000         1.34915
  H         0.89787         -0.00000        -0.54653
  H         0.94179         -0.00000         1.90532
  H        -0.87289          0.00000         1.95435
  C        -1.28562         -0.00000        -0.77007
  H        -1.04673          0.00000        -1.83114
  H        -1.92782         -0.84176        -0.50678
  H        -1.92782          0.84176        -0.50678
9
 step=         326     theta[rad]=           3.4139
  C        -0.02170         -0.00000         0.03530
  C         0.02066          0.00000         1.34881
  H         0.90619         -0.00000        -0.51942
  H         0.96259         -0.00000         1.87075
  H        -0.89477          0.00000         1.91884
  C        -1.29629         -0.00000        -0.76180
  H        -1.15296          0.00000        -1.83898
  H        -1.81054         -0.95092        -0.57846
  H        -1.81054          0.95092        -0.57846
9
 step=         327     theta[rad]=           3.4243
  C        -0.01925         -0.00000         0.02182
  C         0.01935          0.00000         1.34935
  H         0.89278         -0.00000        -0.56313
  H         0.92906         -0.00000         1.92648
  H        -0.85949          0.00000         1.97610
  C        -1.27909         -0.00000        -0.77514
  H        -0.98169          0.00000        -1.82634
  H        -1.99963         -0.77492        -0.46290
  H        -1.99963          0.77492        -0.46290
9
 step=         328     theta[rad]=           3.4348
  C        -0.02246         -0.00000         0.03951
  C         0.02107          0.00000         1.34864
  H         0.91038         -0.00000        -0.50577
  H         0.97306         -0.00000         1.85334
  H        -0.90579          0.00000         1.90095
  C        -1.30167         -0.00000        -0.75763
  H        -1.20646          0.00000        -1.84292
  H        -1.75149         -1.00589        -0.61455
  H        -1.75149          1.00589        -0.61455
9
 step=         329     theta[rad]=           3.4453
  C        -0.01874         -0.00000         0.01901
  C         0.01907          0.00000         1.34947
  H         0.88998         -0.00000        -0.57226
  H         0.92205         -0.00000         1.93813
  H        -0.85212          0.00000         1.98807
  C        -1.27549         -0.00000        -0.77793
  H        -0.94589          0.00000        -1.82370
  H        -2.03915         -0.73815        -0.43875
  H        -2.03915          0.73815        -0.43875
9
 step=         330     theta[rad]=           3.4558
  C        -0.02264         -0.00000         0.04051
  C         0.02117          0.00000         1.34860
  H         0.91138         -0.00000        -0.50252
  H         0.97555         -0.00000         1.84920
  H        -0.90841          0.00000         1.89670
  C        -1.30295         -0.00000        -0.75664
  H        -1.21918          0.00000        -1.84386
  H        -1.73744         -1.01896        -0.62314
  H        -1.73744          1.01896        -0.62314
9
 step=         331     theta[rad]=           3.4662
  C        -0.01894         -0.00000         0.02011
  C         0.01918          0.00000         1.34942
  H         0.89108         -0.00000        -0.56868
  H         0.92480         -0.00000         1.93356
  H        -0.85501          0.00000         1.98337
  C        -1.27690         -0.00000        -0.77683
  H        -0.95993          0.00000        -1.82473
  H        -2.02365         -0.75257        -0.44822
  H        -2.02365          0.75257        -0.44822
9
 step=         332     theta[rad]=           3.4767
  C        -0.02204         -0.00000         0.03721
  C         0.02085          0.00000         1.34874
  H         0.90809         -0.00000        -0.51323
  H         0.96734         -0.00000         1.86285
  H        -0.89978          0.00000         1.91072
  C        -1.29873         -0.00000        -0.75991
  H        -1.17724          0.00000        -1.84077
  H        -1.78374         -0.97587        -0.59484
  H        -1.78374          0.97587        -0.59484
9
 step=         333     theta[rad]=           3.4872
  C        -0.01990         -0.00000         0.02543
  C         0.01970          0.00000         1.34921
  H         0.89637         -0.00000        -0.55141
  H         0.93804         -0.00000         1.91154
  H        -0.86895          0.00000         1.96075
  C        -1.28370         -0.00000        -0.77156
  H        -1.02759          0.00000        -1.82973
  H        -1.94895         -0.82210        -0.49387
  H        -1.94895          0.82210        -0.49387
9
 step=         334     theta[rad]=           3.4976
  C        -0.02079         -0.00000         0.03033
  C         0.02018          0.00000         1.34901
  H         0.90124         -0.00000        -0.53554
  H         0.95022         -0.00000         1.89131
  H        -0.88176          0.00000         1.93996
  C        -1.28995         -0.00000        -0.76672
  H        -1.08978          0.00000        -1.83431
  H        -1.88030         -0.88599        -0.53583
  H        -1.88030          0.88599        -0.53583
9
 step=         335     theta[rad]=           3.5081
  C        -0.02130         -0.00000         0.03312
  C         0.02045          0.00000         1.34890
  H         0.90402         -0.00000        -0.52648
  H         0.95717         -0.00000         1.87975
  H        -0.88907          0.00000         1.92809
  C        -1.29351         -0.00000        -0.76395
  H        -1.12529          0.00000        -1.83694
  H        -1.84110         -0.92248        -0.55979
  H        -1.84110          0.92248        -0.55979
9
 step=         336     theta[rad]=           3.5186
  C        -0.01943         -0.00000         0.02282
  C         0.01944          0.00000         1.34931
  H         0.89377         -0.00000        -0.55989
  H         0.93154         -0.00000         1.92236
  H        -0.86210          0.00000         1.97187
  C        -1.28036         -0.00000        -0.77415
  H        -0.99435          0.00000        -1.82727
  H        -1.98565         -0.78794        -0.47144
  H        -1.98565          0.78794        -0.47144
9
 step=         337     theta[rad]=           3.5291
  C        -0.02243         -0.00000         0.03935
  C         0.02106          0.00000         1.34865
  H         0.91022         -0.00000        -0.50628
  H         0.97267         -0.00000         1.85399
  H        -0.90538          0.00000         1.90162
  C        -1.30147         -0.00000        -0.75779
  H        -1.20446          0.00000        -1.84278
  H        -1.75369         -1.00384        -0.61321
  H        -1.75369          1.00384        -0.61321
9
 step=         338     theta[rad]=           3.5395
  C        -0.01872         -0.00000         0.01892
  C         0.01906          0.00000         1.34947
  H         0.88989         -0.00000        -0.57254
  H         0.92184         -0.00000         1.93848
  H        -0.85189          0.00000         1.98843
  C        -1.27538         -0.00000        -0.77801
  H        -0.94480          0.00000        -1.82362
  H        -2.04035         -0.73703        -0.43801
  H        -2.04035          0.73703        -0.43801
9
 step=         339     theta[rad]=           3.5500
  C        -0.02257         -0.00000         0.04011
  C         0.02113          0.00000         1.34862
  H         0.91098         -0.00000        -0.50382
  H         0.97456         -0.00000         1.85085
  H        -0.90737          0.00000         1.89839
  C        -1.30244         -0.00000        -0.75704
  H        -1.21411          0.00000        -1.84349
  H        -1.74303         -1.01375        -0.61972
  H        -1.74303          1.01375        -0.61972
9
 step=         340     theta[rad]=           3.5605
  C        -0.01922         -0.00000         0.02167
  C         0.01933          0.00000         1.34936
  H         0.89263         -0.00000        -0.56363
  H         0.92867         -0.00000         1.92712
  H        -0.85909          0.00000         1.97676
  C        -1.27889         -0.00000        -0.77529
  H        -0.97972          0.00000        -1.82619
  H        -2.00180         -0.77291        -0.46157
  H        -2.00180          0.77291        -0.46157
9
 step=         341     theta[rad]=           3.5709
  C        -0.02147         -0.00000         0.03408
  C         0.02054          0.00000         1.34886
  H         0.90498         -0.00000        -0.52337
  H         0.95956         -0.00000         1.87579
  H        -0.89158          0.00000         1.92401
  C        -1.29474         -0.00000        -0.76300
  H        -1.13748          0.00000        -1.83783
  H        -1.82763         -0.93501        -0.56801
  H        -1.82763          0.93501        -0.56801
9
 step=         342     theta[rad]=           3.5814
  C        -0.02075         -0.00000         0.03010
  C         0.02015          0.00000         1.34902
  H         0.90102         -0.00000        -0.53628
  H         0.94965         -0.00000         1.89225
  H        -0.88116          0.00000         1.94093
  C        -1.28965         -0.00000        -0.76695
  H        -1.08688          0.00000        -1.83410
  H        -1.88350         -0.88302        -0.53387
  H        -1.88350          0.88302        -0.53387
9
 step=         343     theta[rad]=           3.5919
  C        -0.01977         -0.00000         0.02471
  C         0.01963          0.00000         1.34924
  H         0.89566         -0.00000        -0.55375
  H         0.93625         -0.00000         1.91452
  H        -0.86706          0.00000         1.96381
  C        -1.28278         -0.00000        -0.77228
  H        -1.01844          0.00000        -1.82905
  H        -1.95906         -0.81269        -0.48770
  H        -1.95906          0.81269        -0.48770
9
 step=         344     theta[rad]=           3.6024
  C        -0.02229         -0.00000         0.03856
  C         0.02098          0.00000         1.34868
  H         0.90944         -0.00000        -0.50883
  H         0.97071         -0.00000         1.85724
  H        -0.90332          0.00000         1.90496
  C        -1.30046         -0.00000        -0.75857
  H        -1.19446          0.00000        -1.84204
  H        -1.76473         -0.99356        -0.60646
  H        -1.76473          0.99356        -0.60646
9
 step=         345     theta[rad]=           3.6128
  C        -0.01874         -0.00000         0.01901
  C         0.01907          0.00000         1.34947
  H         0.88998         -0.00000        -0.57226
  H         0.92205         -0.00000         1.93813
  H        -0.85212          0.00000         1.98807
  C        -1.27549         -0.00000        -0.77793
  H        -0.94589          0.00000        -1.82370
  H        -2.03915         -0.73815        -0.43875
  H        -2.03915          0.73815        -0.43875
9
 step=         346     theta[rad]=           3.6233
  C        -0.02256         -0.00000         0.04007
  C         0.02113          0.00000         1.34862
  H         0.91094         -0.00000        -0.50393
  H         0.97447         -0.00000         1.85100
  H        -0.90728          0.00000         1.89854
  C        -1.30239         -0.00000        -0.75707
  H        -1.21366          0.00000        -1.84346
  H        -1.74353         -1.01329        -0.61941
  H        -1.74353          1.01329        -0.61941
9
 step=         347     theta[rad]=           3.6338
  C        -0.01934         -0.00000         0.02231
  C         0.01939          0.00000         1.34934
  H         0.89326         -0.00000        -0.56156
  H         0.93026         -0.00000         1.92448
  H        -0.86076          0.00000         1.97404
  C        -1.27970         -0.00000        -0.77466
  H        -0.98783          0.00000        -1.82679
  H        -1.99285         -0.78124        -0.46704
  H        -1.99285          0.78124        -0.46704
9
 step=         348     theta[rad]=           3.6442
  C        -0.02118         -0.00000         0.03246
  C         0.02039          0.00000         1.34893
  H         0.90337         -0.00000        -0.52861
  H         0.95554         -0.00000         1.88247
  H        -0.88735          0.00000         1.93088
  C        -1.29268         -0.00000        -0.76460
  H        -1.11694          0.00000        -1.83632
  H        -1.85031         -0.91391        -0.55416
  H        -1.85031          0.91391        -0.55416
9
 step=         349     theta[rad]=           3.6547
  C        -0.02120         -0.00000         0.03257
  C         0.02040          0.00000         1.34892
  H         0.90348         -0.00000        -0.52825
  H         0.95581         -0.00000         1.88201
  H        -0.88764          0.00000         1.93041
  C        -1.29282         -0.00000        -0.76450
  H        -1.11834          0.00000        -1.83642
  H        -1.84876         -0.91535        -0.55510
  H        -1.84876          0.91535        -0.55510
9
 step=         350     theta[rad]=           3.6652
  C        -0.01929         -0.00000         0.02206
  C         0.01937          0.00000         1.34934
  H         0.89302         -0.00000        -0.56235
  H         0.92965         -0.00000         1.92550
  H        -0.86011          0.00000         1.97509
  C        -1.27939         -0.00000        -0.77490
  H        -0.98471          0.00000        -1.82656
  H        -1.99629         -0.77803        -0.46494
  H        -1.99629          0.77803        -0.46494
9
 step=         351     theta[rad]=           3.6757
  C        -0.02261         -0.00000         0.04030
  C         0.02115          0.00000         1.34861
  H         0.91117         -0.00000        -0.50320
  H         0.97503         -0.00000         1.85006
  H        -0.90787          0.00000         1.89758
  C        -1.30268         -0.00000        -0.75685
  H        -1.21654          0.00000        -1.84367
  H        -1.74036         -1.01625        -0.62135
  H        -1.74036          1.01625        -0.62135
9
 step=         352     theta[rad]=           3.6861
  C        -0.01880         -0.00000         0.01934
  C         0.01910          0.00000         1.34945
  H         0.89031         -0.00000        -0.57119
  H         0.92287         -0.00000         1.93676
  H        -0.85298          0.00000         1.98666
  C        -1.27591         -0.00000        -0.77760
  H        -0.95009          0.00000        -1.82401
  H        -2.03451         -0.74246        -0.44158
  H        -2.03451          0.74246        -0.44158
9
 step=         353     theta[rad]=           3.6966
  C        -0.02200         -0.00000         0.03695
  C         0.02082          0.00000         1.34875
  H         0.90784         -0.00000        -0.51405
  H         0.96671         -0.00000         1.86389
  H        -0.89911          0.00000         1.91179
  C        -1.29841         -0.00000        -0.76016
  H        -1.17403          0.00000        -1.84053
  H        -1.78729         -0.97256        -0.59267
  H        -1.78729          0.97256        -0.59267
9
 step=         354     theta[rad]=           3.7071
  C        -0.02038         -0.00000         0.02805
  C         0.01996          0.00000         1.34910
  H         0.89898         -0.00000        -0.54291
  H         0.94456         -0.00000         1.90071
  H        -0.87581          0.00000         1.94962
  C        -1.28704         -0.00000        -0.76897
  H        -1.06089          0.00000        -1.83218
  H        -1.91219         -0.85632        -0.51634
  H        -1.91219          0.85632        -0.51634
9
 step=         355     theta[rad]=           3.7176
  C        -0.01988         -0.00000         0.02533
  C         0.01969          0.00000         1.34921
  H         0.89627         -0.00000        -0.55175
  H         0.93778         -0.00000         1.91198
  H        -0.86868          0.00000         1.96120
  C        -1.28356         -0.00000        -0.77167
  H        -1.02627          0.00000        -1.82963
  H        -1.95042         -0.82073        -0.49298
  H        -1.95042          0.82073        -0.49298
9
 step=         356     theta[rad]=           3.7280
  C        -0.02236         -0.00000         0.03895
  C         0.02102          0.00000         1.34867
  H         0.90982         -0.00000        -0.50759
  H         0.97167         -0.00000         1.85565
  H        -0.90433          0.00000         1.90333
  C        -1.30095         -0.00000        -0.75819
  H        -1.19935          0.00000        -1.84240
  H        -1.75933         -0.99858        -0.60976
  H        -1.75933          0.99858        -0.60976
9
 step=         357     theta[rad]=           3.7385
  C        -0.01871         -0.00000         0.01888
  C         0.01906          0.00000         1.34947
  H         0.88985         -0.00000        -0.57268
  H         0.92173         -0.00000         1.93866
  H        -0.85178          0.00000         1.98861
  C        -1.27533         -0.00000        -0.77805
  H        -0.94426          0.00000        -1.82358
  H        -2.04095         -0.73647        -0.43764
  H        -2.04095          0.73647        -0.43764
9
 step=         358     theta[rad]=           3.7490
  C        -0.02228         -0.00000         0.03850
  C         0.02097          0.00000         1.34868
  H         0.90937         -0.00000        -0.50905
  H         0.97054         -0.00000         1.85752
  H        -0.90315          0.00000         1.90525
  C        -1.30038         -0.00000        -0.75863
  H        -1.19360          0.00000        -1.84198
  H        -1.76567         -0.99268        -0.60588
  H        -1.76567          0.99268        -0.60588
9
 step=         359     theta[rad]=           3.7594
  C        -0.02008         -0.00000         0.02639
  C         0.01979          0.00000         1.34917
  H         0.89733         -0.00000        -0.54830
  H         0.94043         -0.00000         1.90758
  H        -0.87146          0.00000         1.95668
  C        -1.28492         -0.00000        -0.77061
  H        -1.03979          0.00000        -1.83063
  H        -1.93549         -0.83462        -0.50210
  H        -1.93549          0.83462        -0.50210
9
 step=         360     theta[rad]=           3.7699
  C        -0.02008         -0.00000         0.02639
  C         0.01979          0.00000         1.34917
  H         0.89733         -0.00000        -0.54830
  H         0.94043         -0.00000         1.90758
  H        -0.87146          0.00000         1.95668
  C        -1.28492         -0.00000        -0.77061
  H        -1.03979          0.00000        -1.83063
  H        -1.93549         -0.83462        -0.50210
  H        -1.93549          0.83462        -0.50210
9
 step=         361     theta[rad]=           3.7804
  C        -0.02230         -0.00000         0.03863
  C         0.02099          0.00000         1.34868
  H         0.90951         -0.00000        -0.50862
  H         0.97088         -0.00000         1.85697
  H        -0.90350          0.00000         1.90468
  C        -1.30055         -0.00000        -0.75850
  H        -1.19531          0.00000        -1.84210
  H        -1.76379         -0.99443        -0.60703
  H        -1.76379          0.99443        -0.60703
9
 step=         362     theta[rad]=           3.7909
  C        -0.01871         -0.00000         0.01888
  C         0.01906          0.00000         1.34947
  H         0.88985         -0.00000        -0.57268
  H         0.92173         -0.00000         1.93866
  H        -0.85178          0.00000         1.98861
  C        -1.27533         -0.00000        -0.77805
  H        -0.94426          0.00000        -1.82358
  H        -2.04095         -0.73647        -0.43764
  H        -2.04095          0.73647        -0.43764
9
 step=         363     theta[rad]=           3.8013
  C        -0.02221         -0.00000         0.03814
  C         0.02094          0.00000         1.34870
  H         0.90902         -0.00000        -0.51019
  H         0.96967         -0.00000         1.85898
  H        -0.90223          0.00000         1.90674
  C        -1.29993         -0.00000        -0.75898
  H        -1.18914          0.00000        -1.84165
  H        -1.77061         -0.98809        -0.60287
  H        -1.77061          0.98809        -0.60287
9
 step=         364     theta[rad]=           3.8118
  C        -0.02028         -0.00000         0.02749
  C         0.01990          0.00000         1.34913
  H         0.89842         -0.00000        -0.54473
  H         0.94317         -0.00000         1.90303
  H        -0.87434          0.00000         1.95200
  C        -1.28633         -0.00000        -0.76952
  H        -1.05377          0.00000        -1.83166
  H        -1.92005         -0.84900        -0.51154
  H        -1.92005          0.84900        -0.51154
9
 step=         365     theta[rad]=           3.8223
  C        -0.01979         -0.00000         0.02482
  C         0.01964          0.00000         1.34923
  H         0.89576         -0.00000        -0.55342
  H         0.93651         -0.00000         1.91410
  H        -0.86733          0.00000         1.96338
  C        -1.28291         -0.00000        -0.77217
  H        -1.01973          0.00000        -1.82915
  H        -1.95763         -0.81402        -0.48856
  H        -1.95763          0.81402        -0.48856
9
 step=         366     theta[rad]=           3.8327
  C        -0.02250         -0.00000         0.03975
  C         0.02110          0.00000         1.34863
  H         0.91062         -0.00000        -0.50499
  H         0.97366         -0.00000         1.85235
  H        -0.90642          0.00000         1.89993
  C        -1.30198         -0.00000        -0.75740
  H        -1.20951          0.00000        -1.84315
  H        -1.74812         -1.00902        -0.61661
  H        -1.74812          1.00902        -0.61661
9
 step=         367     theta[rad]=           3.8432
  C        -0.01880         -0.00000         0.01934
  C         0.01910          0.00000         1.34945
  H         0.89031         -0.00000        -0.57119
  H         0.92287         -0.00000         1.93676
  H        -0.85298          0.00000         1.98666
  C        -1.27591         -0.00000        -0.77760
  H        -0.95009          0.00000        -1.82401
  H        -2.03451         -0.74246        -0.44158
  H        -2.03451          0.74246        -0.44158
9
 step=         368     theta[rad]=           3.8537
  C        -0.02175         -0.00000         0.03559
  C         0.02069          0.00000         1.34880
  H         0.90648         -0.00000        -0.51848
  H         0.96331         -0.00000         1.86954
  H        -0.89554          0.00000         1.91760
  C        -1.29667         -0.00000        -0.76151
  H        -1.15667          0.00000        -1.83925
  H        -1.80645         -0.95473        -0.58096
  H        -1.80645          0.95473        -0.58096
9
 step=         369     theta[rad]=           3.8642
  C        -0.02100         -0.00000         0.03146
  C         0.02029          0.00000         1.34897
  H         0.90237         -0.00000        -0.53187
  H         0.95304         -0.00000         1.88662
  H        -0.88472          0.00000         1.93515
  C        -1.29139         -0.00000        -0.76560
  H        -1.10418          0.00000        -1.83538
  H        -1.86440         -0.90079        -0.54554
  H        -1.86440          0.90079        -0.54554
9
 step=         370     theta[rad]=           3.8746
  C        -0.01915         -0.00000         0.02130
  C         0.01930          0.00000         1.34938
  H         0.89226         -0.00000        -0.56483
  H         0.92775         -0.00000         1.92865
  H        -0.85812          0.00000         1.97833
  C        -1.27842         -0.00000        -0.77566
  H        -0.97502          0.00000        -1.82585
  H        -2.00699         -0.76808        -0.45840
  H        -2.00699          0.76808        -0.45840
9
 step=         371     theta[rad]=           3.8851
  C        -0.02266         -0.00000         0.04062
  C         0.02118          0.00000         1.34860
  H         0.91149         -0.00000        -0.50216
  H         0.97583         -0.00000         1.84873
  H        -0.90871          0.00000         1.89622
  C        -1.30309         -0.00000        -0.75653
  H        -1.22061          0.00000        -1.84397
  H        -1.73586         -1.02043        -0.62410
  H        -1.73586          1.02043        -0.62410
9
 step=         372     theta[rad]=           3.8956
  C        -0.01934         -0.00000         0.02231
  C         0.01939          0.00000         1.34934
  H         0.89326         -0.00000        -0.56156
  H         0.93026         -0.00000         1.92448
  H        -0.86076          0.00000         1.97404
  C        -1.27970         -0.00000        -0.77466
  H        -0.98783          0.00000        -1.82679
  H        -1.99285         -0.78124        -0.46704
  H        -1.99285          0.78124        -0.46704
9
 step=         373     theta[rad]=           3.9060
  C        -0.02067         -0.00000         0.02964
  C         0.02011          0.00000         1.34904
  H         0.90056         -0.00000        -0.53776
  H         0.94852         -0.00000         1.89414
  H        -0.87997          0.00000         1.94287
  C        -1.28907         -0.00000        -0.76740
  H        -1.08109          0.00000        -1.83367
  H        -1.88989         -0.87706        -0.52997
  H        -1.88989          0.87706        -0.52997
9
 step=         374     theta[rad]=           3.9165
  C        -0.02209         -0.00000         0.03745
  C         0.02087          0.00000         1.34873
  H         0.90834         -0.00000        -0.51243
  H         0.96795         -0.00000         1.86183
  H        -0.90042          0.00000         1.90968
  C        -1.29905         -0.00000        -0.75967
  H        -1.18036          0.00000        -1.84100
  H        -1.78029         -0.97907        -0.59695
  H        -1.78029          0.97907        -0.59695
9
 step=         375     theta[rad]=           3.9270
  C        -0.01871         -0.00000         0.01887
  C         0.01906          0.00000         1.34947
  H         0.88984         -0.00000        -0.57269
  H         0.92172         -0.00000         1.93868
  H        -0.85177          0.00000         1.98864
  C        -1.27532         -0.00000        -0.77806
  H        -0.94419          0.00000        -1.82357
  H        -2.04103         -0.73640        -0.43760
  H        -2.04103          0.73640        -0.43760
9
 step=         376     theta[rad]=           3.9375
  C        -0.02207         -0.00000         0.03737
  C         0.02086          0.00000         1.34873
  H         0.90826         -0.00000        -0.51269
  H         0.96775         -0.00000         1.86217
  H        -0.90021          0.00000         1.91002
  C        -1.29894         -0.00000        -0.75975
  H        -1.17933          0.00000        -1.84092
  H        -1.78143         -0.97802        -0.59625
  H        -1.78143          0.97802        -0.59625
9
 step=         377     theta[rad]=           3.9479
  C        -0.02075         -0.00000         0.03010
  C         0.02015          0.00000         1.34902
  H         0.90102         -0.00000        -0.53628
  H         0.94965         -0.00000         1.89225
  H        -0.88116          0.00000         1.94093
  C        -1.28965         -0.00000        -0.76695
  H        -1.08688          0.00000        -1.83410
  H        -1.88350         -0.88302        -0.53387
  H        -1.88350          0.88302        -0.53387
9
 step=         378     theta[rad]=           3.9584
  C        -0.01921         -0.00000         0.02159
  C         0.01932          0.00000         1.34936
  H         0.89255         -0.00000        -0.56387
  H         0.92849         -0.00000         1.92743
  H        -0.85889          0.00000         1.97708
  C        -1.27879         -0.00000        -0.77537
  H        -0.97876          0.00000        -1.82612
  H        -2.00286         -0.77192        -0.46092
  H        -2.00286          0.77192        -0.46092
9
 step=         379     theta[rad]=           3.9689
  C        -0.02266         -0.00000         0.04058
  C         0.02118          0.00000         1.34860
  H         0.91145         -0.00000        -0.50228
  H         0.97574         -0.00000         1.84889
  H        -0.90861          0.00000         1.89638
  C        -1.30304         -0.00000        -0.75657
  H        -1.22013          0.00000        -1.84393
  H        -1.73639         -1.01993        -0.62378
  H        -1.73639          1.01993        -0.62378
9
 step=         380     theta[rad]=           3.9794
  C        -0.01953         -0.00000         0.02336
  C         0.01950          0.00000         1.34929
  H         0.89431         -0.00000        -0.55814
  H         0.93288         -0.00000         1.92013
  H        -0.86352          0.00000         1.96957
  C        -1.28105         -0.00000        -0.77362
  H        -1.00122          0.00000        -1.82778
  H        -1.97807         -0.79500        -0.47608
  H        -1.97807          0.79499        -0.47608
9
 step=         381     theta[rad]=           3.9898
  C        -0.02026         -0.00000         0.02738
  C         0.01989          0.00000         1.34913
  H         0.89831         -0.00000        -0.54509
  H         0.94289         -0.00000         1.90349
  H        -0.87405          0.00000         1.95247
  C        -1.28619         -0.00000        -0.76963
  H        -1.05236          0.00000        -1.83155
  H        -1.92161         -0.84754        -0.51058
  H        -1.92161          0.84754        -0.51058
9
 step=         382     theta[rad]=           4.0003
  C        -0.02243         -0.00000         0.03935
  C         0.02106          0.00000         1.34865
  H         0.91022         -0.00000        -0.50628
  H         0.97267         -0.00000         1.85399
  H        -0.90538          0.00000         1.90162
  C        -1.30147         -0.00000        -0.75779
  H        -1.20446          0.00000        -1.84278
  H        -1.75369         -1.00384        -0.61321
  H        -1.75369          1.00384        -0.61321
9
 step=         383     theta[rad]=           4.0108
  C        -0.01885         -0.00000         0.01964
  C         0.01913          0.00000         1.34944
  H         0.89060         -0.00000        -0.57021
  H         0.92362         -0.00000         1.93552
  H        -0.85377          0.00000         1.98539
  C        -1.27629         -0.00000        -0.77730
  H        -0.95390          0.00000        -1.82429
  H        -2.03030         -0.74638        -0.44415
  H        -2.03030          0.74638        -0.44415
9
 step=         384     theta[rad]=           4.0212
  C        -0.02130         -0.00000         0.03312
  C         0.02045          0.00000         1.34890
  H         0.90402         -0.00000        -0.52648
  H         0.95717         -0.00000         1.87975
  H        -0.88907          0.00000         1.92809
  C        -1.29351         -0.00000        -0.76395
  H        -1.12529          0.00000        -1.83694
  H        -1.84110         -0.92248        -0.55979
  H        -1.84110          0.92248        -0.55979
9
 step=         385     theta[rad]=           4.0317
  C        -0.02177         -0.00000         0.03569
  C         0.02070          0.00000         1.34880
  H         0.90658         -0.00000        -0.51816
  H         0.96355         -0.00000         1.86915
  H        -0.89579          0.00000         1.91719
  C        -1.29679         -0.00000        -0.76142
  H        -1.15789          0.00000        -1.83934
  H        -1.80511         -0.95598        -0.58178
  H        -1.80511          0.95598        -0.58178
9
 step=         386     theta[rad]=           4.0422
  C        -0.01872         -0.00000         0.01892
  C         0.01906          0.00000         1.34947
  H         0.88989         -0.00000        -0.57254
  H         0.92184         -0.00000         1.93848
  H        -0.85189          0.00000         1.98843
  C        -1.27538         -0.00000        -0.77801
  H        -0.94480          0.00000        -1.82362
  H        -2.04035         -0.73703        -0.43801
  H        -2.04035          0.73703        -0.43801
9
 step=         387     theta[rad]=           4.0527
  C        -0.02204         -0.00000         0.03721
  C         0.02085          0.00000         1.34874
  H         0.90809         -0.00000        -0.51323
  H         0.96734         -0.00000         1.86285
  H        -0.89978          0.00000         1.91072
  C        -1.29873         -0.00000        -0.75991
  H        -1.17724          0.00000        -1.84077
  H        -1.78374         -0.97587        -0.59484
  H        -1.78374          0.97587        -0.59484
9
 step=         388     theta[rad]=           4.0631
  C        -0.02102         -0.00000         0.03157
  C         0.02030          0.00000         1.34896
  H         0.90248         -0.00000        -0.53150
  H         0.95332         -0.00000         1.88616
  H        -0.88502          0.00000         1.93467
  C        -1.29154         -0.00000        -0.76549
  H        -1.10561          0.00000        -1.83548
  H        -1.86282         -0.90226        -0.54651
  H        -1.86282          0.90226        -0.54651
9
 step=         389     theta[rad]=           4.0736
  C        -0.01893         -0.00000         0.02006
  C         0.01918          0.00000         1.34943
  H         0.89102         -0.00000        -0.56885
  H         0.92467         -0.00000         1.93378
  H        -0.85487          0.00000         1.98359
  C        -1.27683         -0.00000        -0.77688
  H        -0.95927          0.00000        -1.82468
  H        -2.02438         -0.75189        -0.44777
  H        -2.02438          0.75189        -0.44777
9
 step=         390     theta[rad]=           4.0841
  C        -0.02245         -0.00000         0.03946
  C         0.02107          0.00000         1.34865
  H         0.91033         -0.00000        -0.50594
  H         0.97293         -0.00000         1.85355
  H        -0.90566          0.00000         1.90117
  C        -1.30160         -0.00000        -0.75768
  H        -1.20581          0.00000        -1.84288
  H        -1.75220         -1.00522        -0.61411
  H        -1.75220          1.00522        -0.61411
9
 step=         391     theta[rad]=           4.0945
  C        -0.02040         -0.00000         0.02817
  C         0.01997          0.00000         1.34910
  H         0.89909         -0.00000        -0.54255
  H         0.94484         -0.00000         1.90024
  H        -0.87610          0.00000         1.94914
  C        -1.28719         -0.00000        -0.76886
  H        -1.06233          0.00000        -1.83229
  H        -1.91061         -0.85779        -0.51731
  H        -1.91061          0.85779        -0.51731
9
 step=         392     theta[rad]=           4.1050
  C        -0.01925         -0.00000         0.02182
  C         0.01935          0.00000         1.34935
  H         0.89278         -0.00000        -0.56313
  H         0.92906         -0.00000         1.92648
  H        -0.85949          0.00000         1.97610
  C        -1.27909         -0.00000        -0.77514
  H        -0.98169          0.00000        -1.82634
  H        -1.99963         -0.77492        -0.46290
  H        -1.99963          0.77492        -0.46290
9
 step=         393     theta[rad]=           4.1155
  C        -0.02262         -0.00000         0.04038
  C         0.02116          0.00000         1.34861
  H         0.91125         -0.00000        -0.50294
  H         0.97523         -0.00000         1.84973
  H        -0.90808          0.00000         1.89724
  C        -1.30278         -0.00000        -0.75677
  H        -1.21755          0.00000        -1.84374
  H        -1.73923         -1.01729        -0.62204
  H        -1.73923          1.01729        -0.62204
9
 step=         394     theta[rad]=           4.1260
  C        -0.01998         -0.00000         0.02586
  C         0.01974          0.00000         1.34919
  H         0.89679         -0.00000        -0.55004
  H         0.93909         -0.00000         1.90980
  H        -0.87005          0.00000         1.95896
  C        -1.28424         -0.00000        -0.77114
  H        -1.03296          0.00000        -1.83012
  H        -1.94303         -0.82761        -0.49749
  H        -1.94303          0.82761        -0.49749
9
 step=         395     theta[rad]=           4.1364
  C        -0.01953         -0.00000         0.02336
  C         0.01950          0.00000         1.34929
  H         0.89431         -0.00000        -0.55814
  H         0.93288         -0.00000         1.92013
  H        -0.86352          0.00000         1.96957
  C        -1.28105         -0.00000        -0.77362
  H        -1.00122          0.00000        -1.82778
  H        -1.97807         -0.79500        -0.47608
  H        -1.97807          0.79499        -0.47608
9
 step=         396     theta[rad]=           4.1469
  C        -0.02266         -0.00000         0.04062
  C         0.02118          0.00000         1.34860
  H         0.91149         -0.00000        -0.50216
  H         0.97583         -0.00000         1.84873
  H        -0.90871          0.00000         1.89622
  C        -1.30309         -0.00000        -0.75653
  H        -1.22061          0.00000        -1.84397
  H        -1.73586         -1.02043        -0.62410
  H        -1.73586          1.02043        -0.62410
9
 step=         397     theta[rad]=           4.1574
  C        -0.01975         -0.00000         0.02461
  C         0.01962          0.00000         1.34924
  H         0.89556         -0.00000        -0.55407
  H         0.93600         -0.00000         1.91494
  H        -0.86680          0.00000         1.96424
  C        -1.28265         -0.00000        -0.77237
  H        -1.01716          0.00000        -1.82896
  H        -1.96047         -0.81138        -0.48683
  H        -1.96047          0.81138        -0.48683
9
 step=         398     theta[rad]=           4.1678
  C        -0.01968         -0.00000         0.02422
  C         0.01958          0.00000         1.34926
  H         0.89516         -0.00000        -0.55536
  H         0.93501         -0.00000         1.91658
  H        -0.86576          0.00000         1.96593
  C        -1.28214         -0.00000        -0.77277
  H        -1.01211          0.00000        -1.82858
  H        -1.96604         -0.80619        -0.48343
  H        -1.96604          0.80619        -0.48343
9
 step=         399     theta[rad]=           4.1783
  C        -0.02267         -0.00000         0.04064
  C         0.02118          0.00000         1.34860
  H         0.91151         -0.00000        -0.50209
  H         0.97588         -0.00000         1.84865
  H        -0.90877          0.00000         1.89613
  C        -1.30312         -0.00000        -0.75651
  H        -1.22088          0.00000        -1.84399
  H        -1.73556         -1.02071        -0.62429
  H        -1.73556          1.02071        -0.62429
9
 step=         400     theta[rad]=           4.1888
  C        -0.01970         -0.00000         0.02431
  C         0.01959          0.00000         1.34925
  H         0.89526         -0.00000        -0.55504
  H         0.93526         -0.00000         1.91617
  H        -0.86602          0.00000         1.96551
  C        -1.28227         -0.00000        -0.77267
  H        -1.01336          0.00000        -1.82868
  H        -1.96466         -0.80747        -0.48427
  H        -1.96466          0.80747        -0.48427
9
 step=         401     theta[rad]=           4.1993
  C        -0.01968         -0.00000         0.02422
  C         0.01958          0.00000         1.34926
  H         0.89516         -0.00000        -0.55536
  H         0.93501         -0.00000         1.91658
  H        -0.86576          0.00000         1.96593
  C        -1.28214         -0.00000        -0.77277
  H        -1.01211          0.00000        -1.82858
  H        -1.96604         -0.80619        -0.48343
  H        -1.96604          0.80619        -0.48343
9
 step=         402     theta[rad]=           4.2097
  C        -0.02267         -0.00000         0.04064
  C         0.02118          0.00000         1.34860
  H         0.91150         -0.00000        -0.50211
  H         0.97587         -0.00000         1.84867
  H        -0.90875          0.00000         1.89615
  C        -1.30311         -0.00000        -0.75651
  H        -1.22082          0.00000        -1.84398
  H        -1.73563         -1.02064        -0.62424
  H        -1.73563          1.02064        -0.62424
9
 step=         403     theta[rad]=           4.2202
  C        -0.01981         -0.00000         0.02492
  C         0.01965          0.00000         1.34923
  H         0.89586         -0.00000        -0.55309
  H         0.93676         -0.00000         1.91368
  H        -0.86759          0.00000         1.96295
  C        -1.28304         -0.00000        -0.77207
  H        -1.02102          0.00000        -1.82924
  H        -1.95621         -0.81534        -0.48944
  H        -1.95621          0.81534        -0.48944
9
 step=         404     theta[rad]=           4.2307
  C        -0.01953         -0.00000         0.02336
  C         0.01950          0.00000         1.34929
  H         0.89431         -0.00000        -0.55814
  H         0.93288         -0.00000         1.92013
  H        -0.86352          0.00000         1.96957
  C        -1.28105         -0.00000        -0.77362
  H        -1.00122          0.00000        -1.82778
  H        -1.97807         -0.79500        -0.47608
  H        -1.97807          0.79499        -0.47608
9
 step=         405     theta[rad]=           4.2412
  C        -0.02264         -0.00000         0.04051
  C         0.02117          0.00000         1.34860
  H         0.91138         -0.00000        -0.50252
  H         0.97555         -0.00000         1.84920
  H        -0.90841          0.00000         1.89670
  C        -1.30295         -0.00000        -0.75664
  H        -1.21918          0.00000        -1.84386
  H        -1.73744         -1.01896        -0.62314
  H        -1.73744          1.01896        -0.62314
9
 step=         406     theta[rad]=           4.2516
  C        -0.02010         -0.00000         0.02650
  C         0.01980          0.00000         1.34917
  H         0.89744         -0.00000        -0.54795
  H         0.94070         -0.00000         1.90713
  H        -0.87174          0.00000         1.95621
  C        -1.28506         -0.00000        -0.77051
  H        -1.04117          0.00000        -1.83073
  H        -1.93397         -0.83604        -0.50303
  H        -1.93397          0.83604        -0.50303
9
 step=         407     theta[rad]=           4.2621
  C        -0.01925         -0.00000         0.02182
  C         0.01935          0.00000         1.34935
  H         0.89278         -0.00000        -0.56313
  H         0.92906         -0.00000         1.92648
  H        -0.85949          0.00000         1.97610
  C        -1.27909         -0.00000        -0.77514
  H        -0.98169          0.00000        -1.82634
  H        -1.99963         -0.77492        -0.46290
  H        -1.99963          0.77492        -0.46290
9
 step=         408     theta[rad]=           4.2726
  C        -0.02253         -0.00000         0.03988
  C         0.02111          0.00000         1.34863
  H         0.91075         -0.00000        -0.50457
  H         0.97398         -0.00000         1.85181
  H        -0.90676          0.00000         1.89938
  C        -1.30214         -0.00000        -0.75727
  H        -1.21117          0.00000        -1.84327
  H        -1.74628         -1.01073        -0.61773
  H        -1.74628          1.01073        -0.61773
9
 step=         409     theta[rad]=           4.2830
  C        -0.02059         -0.00000         0.02919
  C         0.02007          0.00000         1.34906
  H         0.90011         -0.00000        -0.53924
  H         0.94738         -0.00000         1.89602
  H        -0.87877          0.00000         1.94480
  C        -1.28849         -0.00000        -0.76785
  H        -1.07530          0.00000        -1.83325
  H        -1.89629         -0.87111        -0.52606
  H        -1.89629          0.87111        -0.52606
9
 step=         410     theta[rad]=           4.2935
  C        -0.01893         -0.00000         0.02006
  C         0.01918          0.00000         1.34943
  H         0.89102         -0.00000        -0.56885
  H         0.92467         -0.00000         1.93378
  H        -0.85487          0.00000         1.98359
  C        -1.27683         -0.00000        -0.77688
  H        -0.95927          0.00000        -1.82468
  H        -2.02438         -0.75189        -0.44777
  H        -2.02438          0.75189        -0.44777
9
 step=         411     theta[rad]=           4.3040
  C        -0.02221         -0.00000         0.03814
  C         0.02094          0.00000         1.34870
  H         0.90902         -0.00000        -0.51019
  H         0.96967         -0.00000         1.85898
  H        -0.90223          0.00000         1.90674
  C        -1.29993         -0.00000        -0.75898
  H        -1.18914          0.00000        -1.84165
  H        -1.77061         -0.98809        -0.60287
  H        -1.77061          0.98809        -0.60287
9
 step=         412     theta[rad]=           4.3145
  C        -0.02126         -0.00000         0.03290
  C         0.02043          0.00000         1.34891
  H         0.90381         -0.00000        -0.52719
  H         0.95663         -0.00000         1.88065
  H        -0.88850          0.00000         1.92901
  C        -1.29324         -0.00000        -0.76417
  H        -1.12252          0.00000        -1.83673
  H        -1.84415         -0.91964        -0.55792
  H        -1.84415          0.91964        -0.55792
9
 step=         413     theta[rad]=           4.3249
  C        -0.01872         -0.00000         0.01892
  C         0.01906          0.00000         1.34947
  H         0.88989         -0.00000        -0.57254
  H         0.92184         -0.00000         1.93848
  H        -0.85189          0.00000         1.98843
  C        -1.27538         -0.00000        -0.77801
  H        -0.94480          0.00000        -1.82362
  H        -2.04035         -0.73703        -0.43801
  H        -2.04035          0.73703        -0.43801
9
 step=         414     theta[rad]=           4.3354
  C        -0.02159         -0.00000         0.03470
  C         0.02060          0.00000         1.34884
  H         0.90560         -0.00000        -0.52136
  H         0.96110         -0.00000         1.87323
  H        -0.89320          0.00000         1.92138
  C        -1.29553         -0.00000        -0.76239
  H        -1.14535          0.00000        -1.83842
  H        -1.81895         -0.94309        -0.57332
  H        -1.81895          0.94309        -0.57332
9
 step=         415     theta[rad]=           4.3459
  C        -0.02201         -0.00000         0.03704
  C         0.02083          0.00000         1.34874
  H         0.90793         -0.00000        -0.51377
  H         0.96692         -0.00000         1.86354
  H        -0.89934          0.00000         1.91143
  C        -1.29852         -0.00000        -0.76007
  H        -1.17511          0.00000        -1.84061
  H        -1.78609         -0.97368        -0.59340
  H        -1.78609          0.97368        -0.59340
9
 step=         416     theta[rad]=           4.3563
  C        -0.01885         -0.00000         0.01964
  C         0.01913          0.00000         1.34944
  H         0.89060         -0.00000        -0.57021
  H         0.92362         -0.00000         1.93552
  H        -0.85377          0.00000         1.98539
  C        -1.27629         -0.00000        -0.77730
  H        -0.95390          0.00000        -1.82429
  H        -2.03030         -0.74638        -0.44415
  H        -2.03030          0.74638        -0.44415
9
 step=         417     theta[rad]=           4.3668
  C        -0.02063         -0.00000         0.02941
  C         0.02009          0.00000         1.34905
  H         0.90034         -0.00000        -0.53850
  H         0.94795         -0.00000         1.89508
  H        -0.87937          0.00000         1.94383
  C        -1.28878         -0.00000        -0.76762
  H        -1.07819          0.00000        -1.83346
  H        -1.89309         -0.87409        -0.52801
  H        -1.89309          0.87409        -0.52801
9
 step=         418     theta[rad]=           4.3773
  C        -0.02258         -0.00000         0.04014
  C         0.02113          0.00000         1.34862
  H         0.91101         -0.00000        -0.50371
  H         0.97464         -0.00000         1.85071
  H        -0.90746          0.00000         1.89825
  C        -1.30248         -0.00000        -0.75700
  H        -1.21455          0.00000        -1.84352
  H        -1.74255         -1.01421        -0.62002
  H        -1.74255          1.01421        -0.62002
9
 step=         419     theta[rad]=           4.3878
  C        -0.01953         -0.00000         0.02336
  C         0.01950          0.00000         1.34929
  H         0.89431         -0.00000        -0.55814
  H         0.93288         -0.00000         1.92013
  H        -0.86352          0.00000         1.96957
  C        -1.28105         -0.00000        -0.77362
  H        -1.00122          0.00000        -1.82778
  H        -1.97807         -0.79500        -0.47608
  H        -1.97807          0.79499        -0.47608
9
 step=         420     theta[rad]=           4.3982
  C        -0.01953         -0.00000         0.02336
  C         0.01950          0.00000         1.34929
  H         0.89431         -0.00000        -0.55814
  H         0.93288         -0.00000         1.92013
  H        -0.86352          0.00000         1.96957
  C        -1.28105         -0.00000        -0.77362
  H        -1.00122          0.00000        -1.82778
  H        -1.97807         -0.79500        -0.47608
  H        -1.97807          0.79499        -0.47608
9
 step=         421     theta[rad]=           4.4087
  C        -0.02256         -0.00000         0.04007
  C         0.02113          0.00000         1.34862
  H         0.91094         -0.00000        -0.50393
  H         0.97447         -0.00000         1.85100
  H        -0.90728          0.00000         1.89854
  C        -1.30239         -0.00000        -0.75707
  H        -1.21366          0.00000        -1.84346
  H        -1.74353         -1.01329        -0.61941
  H        -1.74353          1.01329        -0.61941
9
 step=         422     theta[rad]=           4.4192
  C        -0.02075         -0.00000         0.03010
  C         0.02015          0.00000         1.34902
  H         0.90102         -0.00000        -0.53628
  H         0.94965         -0.00000         1.89225
  H        -0.88116          0.00000         1.94093
  C        -1.28965         -0.00000        -0.76695
  H        -1.08688          0.00000        -1.83410
  H        -1.88350         -0.88302        -0.53387
  H        -1.88350          0.88302        -0.53387
9
 step=         423     theta[rad]=           4.4296
  C        -0.01877         -0.00000         0.01921
  C         0.01909          0.00000         1.34946
  H         0.89018         -0.00000        -0.57158
  H         0.92257         -0.00000         1.93727
  H        -0.85266          0.00000         1.98718
  C        -1.27575         -0.00000        -0.77772
  H        -0.94854          0.00000        -1.82389
  H        -2.03623         -0.74086        -0.44053
  H        -2.03623          0.74086        -0.44053
9
 step=         424     theta[rad]=           4.4401
  C        -0.02168         -0.00000         0.03520
  C         0.02065          0.00000         1.34882
  H         0.90609         -0.00000        -0.51974
  H         0.96234         -0.00000         1.87116
  H        -0.89452          0.00000         1.91926
  C        -1.29617         -0.00000        -0.76190
  H        -1.15171          0.00000        -1.83888
  H        -1.81192         -0.94963        -0.57762
  H        -1.81192          0.94963        -0.57762
9
 step=         425     theta[rad]=           4.4506
  C        -0.02209         -0.00000         0.03745
  C         0.02087          0.00000         1.34873
  H         0.90834         -0.00000        -0.51243
  H         0.96795         -0.00000         1.86183
  H        -0.90042          0.00000         1.90968
  C        -1.29905         -0.00000        -0.75967
  H        -1.18036          0.00000        -1.84100
  H        -1.78029         -0.97907        -0.59695
  H        -1.78029          0.97907        -0.59695
9
 step=         426     theta[rad]=           4.4611
  C        -0.01899         -0.00000         0.02039
  C         0.01921          0.00000         1.34941
  H         0.89135         -0.00000        -0.56778
  H         0.92549         -0.00000         1.93242
  H        -0.85574          0.00000         1.98219
  C        -1.27725         -0.00000        -0.77656
  H        -0.96346          0.00000        -1.82499
  H        -2.01976         -0.75619        -0.45060
  H        -2.01976          0.75619        -0.45060
9
 step=         427     theta[rad]=           4.4715
  C        -0.02012         -0.00000         0.02661
  C         0.01981          0.00000         1.34916
  H         0.89755         -0.00000        -0.54759
  H         0.94097         -0.00000         1.90668
  H        -0.87203          0.00000         1.95575
  C        -1.28520         -0.00000        -0.77040
  H        -1.04255          0.00000        -1.83083
  H        -1.93244         -0.83747        -0.50396
  H        -1.93244          0.83747        -0.50396
9
 step=         428     theta[rad]=           4.4820
  C        -0.02266         -0.00000         0.04062
  C         0.02118          0.00000         1.34860
  H         0.91149         -0.00000        -0.50216
  H         0.97583         -0.00000         1.84873
  H        -0.90871          0.00000         1.89622
  C        -1.30309         -0.00000        -0.75653
  H        -1.22061          0.00000        -1.84397
  H        -1.73586         -1.02043        -0.62410
  H        -1.73586          1.02043        -0.62410
9
 step=         429     theta[rad]=           4.4925
  C        -0.02038         -0.00000         0.02805
  C         0.01996          0.00000         1.34910
  H         0.89898         -0.00000        -0.54291
  H         0.94456         -0.00000         1.90071
  H        -0.87581          0.00000         1.94962
  C        -1.28704         -0.00000        -0.76897
  H        -1.06089          0.00000        -1.83218
  H        -1.91219         -0.85632        -0.51634
  H        -1.91219          0.85632        -0.51634
9
 step=         430     theta[rad]=           4.5029
  C        -0.01884         -0.00000         0.01960
  C         0.01913          0.00000         1.34944
  H         0.89056         -0.00000        -0.57035
  H         0.92352         -0.00000         1.93569
  H        -0.85366          0.00000         1.98556
  C        -1.27624         -0.00000        -0.77734
  H        -0.95338          0.00000        -1.82425
  H        -2.03089         -0.74584        -0.44380
  H        -2.03089          0.74584        -0.44380
9
 step=         431     theta[rad]=           4.5134
  C        -0.02175         -0.00000         0.03559
  C         0.02069          0.00000         1.34880
  H         0.90648         -0.00000        -0.51848
  H         0.96331         -0.00000         1.86954
  H        -0.89554          0.00000         1.91760
  C        -1.29667         -0.00000        -0.76151
  H        -1.15667          0.00000        -1.83925
  H        -1.80645         -0.95473        -0.58096
  H        -1.80645          0.95473        -0.58096
9
 step=         432     theta[rad]=           4.5239
  C        -0.02213         -0.00000         0.03769
  C         0.02090          0.00000         1.34872
  H         0.90857         -0.00000        -0.51166
  H         0.96854         -0.00000         1.86085
  H        -0.90104          0.00000         1.90866
  C        -1.29935         -0.00000        -0.75943
  H        -1.18339          0.00000        -1.84122
  H        -1.77695         -0.98218        -0.59899
  H        -1.77695          0.98218        -0.59899
9
 step=         433     theta[rad]=           4.5344
  C        -0.01910         -0.00000         0.02102
  C         0.01927          0.00000         1.34939
  H         0.89198         -0.00000        -0.56573
  H         0.92706         -0.00000         1.92981
  H        -0.85739          0.00000         1.97952
  C        -1.27806         -0.00000        -0.77593
  H        -0.97147          0.00000        -1.82558
  H        -2.01091         -0.76443        -0.45600
  H        -2.01091          0.76443        -0.45600
9
 step=         434     theta[rad]=           4.5448
  C        -0.01979         -0.00000         0.02482
  C         0.01964          0.00000         1.34923
  H         0.89576         -0.00000        -0.55342
  H         0.93651         -0.00000         1.91410
  H        -0.86733          0.00000         1.96338
  C        -1.28291         -0.00000        -0.77217
  H        -1.01973          0.00000        -1.82915
  H        -1.95763         -0.81402        -0.48856
  H        -1.95763          0.81402        -0.48856
9
 step=         435     theta[rad]=           4.5553
  C        -0.02257         -0.00000         0.04011
  C         0.02113          0.00000         1.34862
  H         0.91098         -0.00000        -0.50382
  H         0.97456         -0.00000         1.85085
  H        -0.90737          0.00000         1.89839
  C        -1.30244         -0.00000        -0.75704
  H        -1.21411          0.00000        -1.84349
  H        -1.74303         -1.01375        -0.61972
  H        -1.74303          1.01375        -0.61972
9
 step=         436     theta[rad]=           4.5658
  C        -0.02102         -0.00000         0.03157
  C         0.02030          0.00000         1.34896
  H         0.90248         -0.00000        -0.53150
  H         0.95332         -0.00000         1.88616
  H        -0.88502          0.00000         1.93467
  C        -1.29154         -0.00000        -0.76549
  H        -1.10561          0.00000        -1.83548
  H        -1.86282         -0.90226        -0.54651
  H        -1.86282          0.90226        -0.54651
9
 step=         437     theta[rad]=           4.5763
  C        -0.01871         -0.00000         0.01888
  C         0.01906          0.00000         1.34947
  H         0.88985         -0.00000        -0.57268
  H         0.92173         -0.00000         1.93866
  H        -0.85178          0.00000         1.98861
  C        -1.27533         -0.00000        -0.77805
  H        -0.94426          0.00000        -1.82358
  H        -2.04095         -0.73647        -0.43764
  H        -2.04095          0.73647        -0.43764
9
 step=         438     theta[rad]=           4.5867
  C        -0.02088         -0.00000         0.03078
  C         0.02022          0.00000         1.34899
  H         0.90170         -0.00000        -0.53407
  H         0.95135         -0.00000         1.88943
  H        -0.88295          0.00000         1.93803
  C        -1.29053         -0.00000        -0.76627
  H        -1.09556          0.00000        -1.83474
  H        -1.87392         -0.89193        -0.53973
  H        -1.87392          0.89193        -0.53973
9
 step=         439     theta[rad]=           4.5972
  C        -0.02262         -0.00000         0.04040
  C         0.02116          0.00000         1.34861
  H         0.91127         -0.00000        -0.50286
  H         0.97529         -0.00000         1.84963
  H        -0.90814          0.00000         1.89714
  C        -1.30281         -0.00000        -0.75674
  H        -1.21786          0.00000        -1.84377
  H        -1.73889         -1.01761        -0.62225
  H        -1.73889          1.01761        -0.62225
9
 step=         440     theta[rad]=           4.6077
  C        -0.02008         -0.00000         0.02639
  C         0.01979          0.00000         1.34917
  H         0.89733         -0.00000        -0.54830
  H         0.94043         -0.00000         1.90758
  H        -0.87146          0.00000         1.95668
  C        -1.28492         -0.00000        -0.77061
  H        -1.03979          0.00000        -1.83063
  H        -1.93549         -0.83462        -0.50210
  H        -1.93549          0.83462        -0.50210
9
 step=         441     theta[rad]=           4.6181
  C        -0.01887         -0.00000         0.01977
  C         0.01915          0.00000         1.34944
  H         0.89074         -0.00000        -0.56979
  H         0.92394         -0.00000         1.93498
  H        -0.85411          0.00000         1.98483
  C        -1.27646         -0.00000        -0.77717
  H        -0.95557          0.00000        -1.82441
  H        -2.02847         -0.74809        -0.44527
  H        -2.02847          0.74809        -0.44527
9
 step=         442     theta[rad]=           4.6286
  C        -0.02162         -0.00000         0.03490
  C         0.02062          0.00000         1.34883
  H         0.90580         -0.00000        -0.52071
  H         0.96160         -0.00000         1.87239
  H        -0.89373          0.00000         1.92052
  C        -1.29579         -0.00000        -0.76219
  H        -1.14791          0.00000        -1.83860
  H        -1.81612         -0.94573        -0.57505
  H        -1.81612          0.94573        -0.57505
9
 step=         443     theta[rad]=           4.6391
  C        -0.02236         -0.00000         0.03895
  C         0.02102          0.00000         1.34867
  H         0.90982         -0.00000        -0.50759
  H         0.97167         -0.00000         1.85565
  H        -0.90433          0.00000         1.90333
  C        -1.30095         -0.00000        -0.75819
  H        -1.19935          0.00000        -1.84240
  H        -1.75933         -0.99858        -0.60976
  H        -1.75933          0.99858        -0.60976
9
 step=         444     theta[rad]=           4.6496
  C        -0.01953         -0.00000         0.02336
  C         0.01950          0.00000         1.34929
  H         0.89431         -0.00000        -0.55814
  H         0.93288         -0.00000         1.92013
  H        -0.86352          0.00000         1.96957
  C        -1.28105         -0.00000        -0.77362
  H        -1.00122          0.00000        -1.82778
  H        -1.97807         -0.79500        -0.47608
  H        -1.97807          0.79499        -0.47608
9
 step=         445     theta[rad]=           4.6600
  C        -0.01915         -0.00000         0.02130
  C         0.01930          0.00000         1.34938
  H         0.89226         -0.00000        -0.56483
  H         0.92775         -0.00000         1.92865
  H        -0.85812          0.00000         1.97833
  C        -1.27842         -0.00000        -0.77566
  H        -0.97502          0.00000        -1.82585
  H        -2.00699         -0.76808        -0.45840
  H        -2.00699          0.76808        -0.45840
9
 step=         446     theta[rad]=           4.6705
  C        -0.02200         -0.00000         0.03695
  C         0.02082          0.00000         1.34875
  H         0.90784         -0.00000        -0.51405
  H         0.96671         -0.00000         1.86389
  H        -0.89911          0.00000         1.91179
  C        -1.29841         -0.00000        -0.76016
  H        -1.17403          0.00000        -1.84053
  H        -1.78729         -0.97256        -0.59267
  H        -1.78729          0.97256        -0.59267
9
 step=         447     theta[rad]=           4.6810
  C        -0.02213         -0.00000         0.03769
  C         0.02090          0.00000         1.34872
  H         0.90857         -0.00000        -0.51166
  H         0.96854         -0.00000         1.86085
  H        -0.90104          0.00000         1.90866
  C        -1.29935         -0.00000        -0.75943
  H        -1.18339          0.00000        -1.84122
  H        -1.77695         -0.98218        -0.59899
  H        -1.77695          0.98218        -0.59899
9
 step=         448     theta[rad]=           4.6914
  C        -0.01931         -0.00000         0.02214
  C         0.01938          0.00000         1.34934
  H         0.89310         -0.00000        -0.56209
  H         0.92985         -0.00000         1.92516
  H        -0.86033          0.00000         1.97474
  C        -1.27949         -0.00000        -0.77482
  H        -0.98574          0.00000        -1.82664
  H        -1.99516         -0.77909        -0.46563
  H        -1.99516          0.77909        -0.46563
9
 step=         449     theta[rad]=           4.7019
  C        -0.01929         -0.00000         0.02206
  C         0.01937          0.00000         1.34934
  H         0.89302         -0.00000        -0.56235
  H         0.92965         -0.00000         1.92550
  H        -0.86011          0.00000         1.97509
  C        -1.27939         -0.00000        -0.77490
  H        -0.98471          0.00000        -1.82656
  H        -1.99629         -0.77803        -0.46494
  H        -1.99629          0.77803        -0.46494
9
 step=         450     theta[rad]=           4.7124
  C        -0.02209         -0.00000         0.03745
  C         0.02087          0.00000         1.34873
  H         0.90834         -0.00000        -0.51243
  H         0.96795         -0.00000         1.86183
  H        -0.90042          0.00000         1.90968
  C        -1.29905         -0.00000        -0.75967
  H        -1.18036          0.00000        -1.84100
  H        -1.78029         -0.97907        -0.59695
  H        -1.78029          0.97907        -0.59695
9
 step=         451     theta[rad]=           4.7229
  C        -0.02210         -0.00000         0.03753
  C         0.02088          0.00000         1.34872
  H         0.90842         -0.00000        -0.51217
  H         0.96815         -0.00000         1.86150
  H        -0.90063          0.00000         1.90934
  C        -1.29915         -0.00000        -0.75959
  H        -1.18138          0.00000        -1.84107
  H        -1.77917         -0.98012        -0.59764
  H        -1.77917          0.98012        -0.59763
9
 step=         452     theta[rad]=           4.7333
  C        -0.01934         -0.00000         0.02231
  C         0.01939          0.00000         1.34934
  H         0.89326         -0.00000        -0.56156
  H         0.93026         -0.00000         1.92448
  H        -0.86076          0.00000         1.97404
  C        -1.27970         -0.00000        -0.77466
  H        -0.98783          0.00000        -1.82679
  H        -1.99285         -0.78124        -0.46704
  H        -1.99285          0.78124        -0.46704
9
 step=         453     theta[rad]=           4.7438
  C        -0.01921         -0.00000         0.02159
  C         0.01932          0.00000         1.34936
  H         0.89255         -0.00000        -0.56387
  H         0.92849         -0.00000         1.92743
  H        -0.85889          0.00000         1.97708
  C        -1.27879         -0.00000        -0.77537
  H        -0.97876          0.00000        -1.82612
  H        -2.00286         -0.77192        -0.46092
  H        -2.00286          0.77192        -0.46092
9
 step=         454     theta[rad]=           4.7543
  C        -0.02193         -0.00000         0.03661
  C         0.02079          0.00000         1.34876
  H         0.90749         -0.00000        -0.51518
  H         0.96584         -0.00000         1.86533
  H        -0.89820          0.00000         1.91327
  C        -1.29797         -0.00000        -0.76050
  H        -1.16960          0.00000        -1.84021
  H        -1.79217         -0.96802        -0.58969
  H        -1.79217          0.96802        -0.58969
9
 step=         455     theta[rad]=           4.7647
  C        -0.02229         -0.00000         0.03856
  C         0.02098          0.00000         1.34868
  H         0.90944         -0.00000        -0.50883
  H         0.97071         -0.00000         1.85724
  H        -0.90332          0.00000         1.90496
  C        -1.30046         -0.00000        -0.75857
  H        -1.19446          0.00000        -1.84204
  H        -1.76473         -0.99356        -0.60646
  H        -1.76473          0.99356        -0.60646
9
 step=         456     theta[rad]=           4.7752
  C        -0.01963         -0.00000         0.02392
  C         0.01955          0.00000         1.34927
  H         0.89487         -0.00000        -0.55631
  H         0.93429         -0.00000         1.91779
  H        -0.86500          0.00000         1.96717
  C        -1.28177         -0.00000        -0.77306
  H        -1.00841          0.00000        -1.82831
  H        -1.97013         -0.80238        -0.48093
  H        -1.97013          0.80238        -0.48093
9
 step=         457     theta[rad]=           4.7857
  C        -0.01895         -0.00000         0.02016
  C         0.01919          0.00000         1.34942
  H         0.89113         -0.00000        -0.56850
  H         0.92493         -0.00000         1.93334
  H        -0.85515          0.00000         1.98315
  C        -1.27697         -0.00000        -0.77678
  H        -0.96061          0.00000        -1.82478
  H        -2.02290         -0.75327        -0.44868
  H        -2.02290          0.75327        -0.44868
9
 step=         458     theta[rad]=           4.7962
  C        -0.02147         -0.00000         0.03408
  C         0.02054          0.00000         1.34886
  H         0.90498         -0.00000        -0.52337
  H         0.95956         -0.00000         1.87579
  H        -0.89158          0.00000         1.92401
  C        -1.29474         -0.00000        -0.76300
  H        -1.13748          0.00000        -1.83783
  H        -1.82763         -0.93501        -0.56801
  H        -1.82763          0.93501        -0.56801
9
 step=         459     theta[rad]=           4.8066
  C        -0.02257         -0.00000         0.04011
  C         0.02113          0.00000         1.34862
  H         0.91098         -0.00000        -0.50382
  H         0.97456         -0.00000         1.85085
  H        -0.90737          0.00000         1.89839
  C        -1.30244         -0.00000        -0.75704
  H        -1.21411          0.00000        -1.84349
  H        -1.74303         -1.01375        -0.61972
  H        -1.74303          1.01375        -0.61972
9
 step=         460     theta[rad]=           4.8171
  C        -0.02028         -0.00000         0.02749
  C         0.01990          0.00000         1.34913
  H         0.89842         -0.00000        -0.54473
  H         0.94317         -0.00000         1.90303
  H        -0.87434          0.00000         1.95200
  C        -1.28633         -0.00000        -0.76952
  H        -1.05377          0.00000        -1.83166
  H        -1.92005         -0.84900        -0.51154
  H        -1.92005          0.84900        -0.51154
9
 step=         461     theta[rad]=           4.8276
  C        -0.01872         -0.00000         0.01892
  C         0.01906          0.00000         1.34947
  H         0.88989         -0.00000        -0.57254
  H         0.92184         -0.00000         1.93848
  H        -0.85189          0.00000         1.98843
  C        -1.27538         -0.00000        -0.77801
  H        -0.94480          0.00000        -1.82362
  H        -2.04035         -0.73703        -0.43801
  H        -2.04035          0.73703        -0.43801
9
 step=         462     theta[rad]=           4.8381
  C        -0.02063         -0.00000         0.02941
  C         0.02009          0.00000         1.34905
  H         0.90034         -0.00000        -0.53850
  H         0.94795         -0.00000         1.89508
  H        -0.87937          0.00000         1.94383
  C        -1.28878         -0.00000        -0.76762
  H        -1.07819          0.00000        -1.83346
  H        -1.89309         -0.87409        -0.52801
  H        -1.89309          0.87409        -0.52801
9
 step=         463     theta[rad]=           4.8485
  C        -0.02264         -0.00000         0.04049
  C         0.02117          0.00000         1.34860
  H         0.91136         -0.00000        -0.50258
  H         0.97550         -0.00000         1.84928
  H        -0.90837          0.00000         1.89678
  C        -1.30292         -0.00000        -0.75666
  H        -1.21895          0.00000        -1.84385
  H        -1.73770         -1.01872        -0.62298
  H        -1.73770          1.01872        -0.62298
9
 step=         464     theta[rad]=           4.8590
  C        -0.02130         -0.00000         0.03312
  C         0.02045          0.00000         1.34890
  H         0.90402         -0.00000        -0.52648
  H         0.95717         -0.00000         1.87975
  H        -0.88907          0.00000         1.92809
  C        -1.29351         -0.00000        -0.76395
  H        -1.12529          0.00000        -1.83694
  H        -1.84110         -0.92248        -0.55979
  H        -1.84110          0.92248        -0.55979
9
 step=         465     theta[rad]=           4.8695
  C        -0.01893         -0.00000         0.02006
  C         0.01918          0.00000         1.34943
  H         0.89102         -0.00000        -0.56885
  H         0.92467         -0.00000         1.93378
  H        -0.85487          0.00000         1.98359
  C        -1.27683         -0.00000        -0.77688
  H        -0.95927          0.00000        -1.82468
  H        -2.02438         -0.75189        -0.44777
  H        -2.02438          0.75189        -0.44777
9
 step=         466     theta[rad]=           4.8799
  C        -0.01951         -0.00000         0.02327
  C         0.01949          0.00000         1.34930
  H         0.89422         -0.00000        -0.55844
  H         0.93265         -0.00000         1.92051
  H        -0.86327          0.00000         1.96996
  C        -1.28093         -0.00000        -0.77371
  H        -1.00005          0.00000        -1.82769
  H        -1.97936         -0.79380        -0.47529
  H        -1.97936          0.79380        -0.47529
9
 step=         467     theta[rad]=           4.8904
  C        -0.02204         -0.00000         0.03721
  C         0.02085          0.00000         1.34874
  H         0.90809         -0.00000        -0.51323
  H         0.96734         -0.00000         1.86285
  H        -0.89978          0.00000         1.91072
  C        -1.29873         -0.00000        -0.75991
  H        -1.17724          0.00000        -1.84077
  H        -1.78374         -0.97587        -0.59484
  H        -1.78374          0.97587        -0.59484
9
 step=         468     theta[rad]=           4.9009
  C        -0.02236         -0.00000         0.03895
  C         0.02102          0.00000         1.34867
  H         0.90982         -0.00000        -0.50759
  H         0.97167         -0.00000         1.85565
  H        -0.90433          0.00000         1.90333
  C        -1.30095         -0.00000        -0.75819
  H        -1.19935          0.00000        -1.84240
  H        -1.75933         -0.99858        -0.60976
  H        -1.75933          0.99858        -0.60976
9
 step=         469     theta[rad]=           4.9114
  C        -0.01998         -0.00000         0.02586
  C         0.01974          0.00000         1.34919
  H         0.89679         -0.00000        -0.55004
  H         0.93909         -0.00000         1.90980
  H        -0.87005          0.00000         1.95896
  C        -1.28424         -0.00000        -0.77114
  H        -1.03296          0.00000        -1.83012
  H        -1.94303         -0.82761        -0.49749
  H        -1.94303          0.82761        -0.49749
9
 step=         470     theta[rad]=           4.9218
  C        -0.01874         -0.00000         0.01901
  C         0.01907          0.00000         1.34947
  H         0.88998         -0.00000        -0.57226
  H         0.92205         -0.00000         1.93813
  H        -0.85212          0.00000         1.98807
  C        -1.27549         -0.00000        -0.77793
  H        -0.94589          0.00000        -1.82370
  H        -2.03915         -0.73815        -0.43875
  H        -2.03915          0.73815        -0.43875
9
 step=         471     theta[rad]=           4.9323
  C        -0.02057         -0.00000         0.02907
  C         0.02005          0.00000         1.34906
  H         0.90000         -0.00000        -0.53961
  H         0.94710         -0.00000         1.89649
  H        -0.87848          0.00000         1.94529
  C        -1.28835         -0.00000        -0.76796
  H        -1.07385          0.00000        -1.83314
  H        -1.89788         -0.86963        -0.52508
  H        -1.89788          0.86963        -0.52508
9
 step=         472     theta[rad]=           4.9428
  C        -0.02258         -0.00000         0.04018
  C         0.02114          0.00000         1.34862
  H         0.91105         -0.00000        -0.50360
  H         0.97473         -0.00000         1.85057
  H        -0.90755          0.00000         1.89810
  C        -1.30253         -0.00000        -0.75697
  H        -1.21498          0.00000        -1.84355
  H        -1.74208         -1.01464        -0.62030
  H        -1.74208          1.01464        -0.62030
9
 step=         473     theta[rad]=           4.9532
  C        -0.02170         -0.00000         0.03530
  C         0.02066          0.00000         1.34881
  H         0.90619         -0.00000        -0.51942
  H         0.96259         -0.00000         1.87075
  H        -0.89477          0.00000         1.91884
  C        -1.29629         -0.00000        -0.76180
  H        -1.15296          0.00000        -1.83898
  H        -1.81054         -0.95092        -0.57846
  H        -1.81054          0.95092        -0.57846
9
 step=         474     theta[rad]=           4.9637
  C        -0.01929         -0.00000         0.02206
  C         0.01937          0.00000         1.34934
  H         0.89302         -0.00000        -0.56235
  H         0.92965         -0.00000         1.92550
  H        -0.86011          0.00000         1.97509
  C        -1.27939         -0.00000        -0.77490
  H        -0.98471          0.00000        -1.82656
  H        -1.99629         -0.77803        -0.46494
  H        -1.99629          0.77803        -0.46494
9
 step=         475     theta[rad]=           4.9742
  C        -0.01898         -0.00000         0.02033
  C         0.01920          0.00000         1.34941
  H         0.89130         -0.00000        -0.56796
  H         0.92535         -0.00000         1.93265
  H        -0.85559          0.00000         1.98244
  C        -1.27718         -0.00000        -0.77661
  H        -0.96272          0.00000        -1.82494
  H        -2.02057         -0.75544        -0.45010
  H        -2.02057          0.75544        -0.45010
9
 step=         476     theta[rad]=           4.9847
  C        -0.02118         -0.00000         0.03246
  C         0.02039          0.00000         1.34893
  H         0.90337         -0.00000        -0.52861
  H         0.95554         -0.00000         1.88247
  H        -0.88735          0.00000         1.93088
  C        -1.29268         -0.00000        -0.76460
  H        -1.11694          0.00000        -1.83632
  H        -1.85031         -0.91391        -0.55416
  H        -1.85031          0.91391        -0.55416
9
 step=         477     theta[rad]=           4.9951
  C        -0.02267         -0.00000         0.04064
  C         0.02118          0.00000         1.34860
  H         0.91150         -0.00000        -0.50211
  H         0.97587         -0.00000         1.84867
  H        -0.90875          0.00000         1.89615
  C        -1.30311         -0.00000        -0.75651
  H        -1.22082          0.00000        -1.84398
  H        -1.73563         -1.02064        -0.62424
  H        -1.73563          1.02064        -0.62424
9
 step=         478     theta[rad]=           5.0056
  C        -0.02132         -0.00000         0.03323
  C         0.02046          0.00000         1.34890
  H         0.90413         -0.00000        -0.52613
  H         0.95744         -0.00000         1.87931
  H        -0.88936          0.00000         1.92763
  C        -1.29365         -0.00000        -0.76385
  H        -1.12666          0.00000        -1.83704
  H        -1.83958         -0.92390        -0.56072
  H        -1.83958          0.92390        -0.56072
9
 step=         479     theta[rad]=           5.0161
  C        -0.01909         -0.00000         0.02095
  C         0.01926          0.00000         1.34939
  H         0.89191         -0.00000        -0.56595
  H         0.92689         -0.00000         1.93009
  H        -0.85721          0.00000         1.97980
  C        -1.27797         -0.00000        -0.77600
  H        -0.97061          0.00000        -1.82552
  H        -2.01186         -0.76355        -0.45542
  H        -2.01186          0.76355        -0.45542
9
 step=         480     theta[rad]=           5.0265
  C        -0.01909         -0.00000         0.02095
  C         0.01926          0.00000         1.34939
  H         0.89191         -0.00000        -0.56595
  H         0.92689         -0.00000         1.93009
  H        -0.85721          0.00000         1.97980
  C        -1.27797         -0.00000        -0.77600
  H        -0.97061          0.00000        -1.82552
  H        -2.01186         -0.76355        -0.45542
  H        -2.01186          0.76355        -0.45542
9
 step=         481     theta[rad]=           5.0370
  C        -0.02128         -0.00000         0.03301
  C         0.02044          0.00000         1.34891
  H         0.90392         -0.00000        -0.52683
  H         0.95690         -0.00000         1.88020
  H        -0.88879          0.00000         1.92855
  C        -1.29337         -0.00000        -0.76406
  H        -1.12391          0.00000        -1.83683
  H        -1.84262         -0.92106        -0.55886
  H        -1.84262          0.92106        -0.55886
9
 step=         482     theta[rad]=           5.0475
  C        -0.02267         -0.00000         0.04064
  C         0.02118          0.00000         1.34860
  H         0.91150         -0.00000        -0.50211
  H         0.97587         -0.00000         1.84867
  H        -0.90875          0.00000         1.89615
  C        -1.30311         -0.00000        -0.75651
  H        -1.22082          0.00000        -1.84398
  H        -1.73563         -1.02064        -0.62424
  H        -1.73563          1.02064        -0.62424
9
 step=         483     theta[rad]=           5.0580
  C        -0.02142         -0.00000         0.03376
  C         0.02051          0.00000         1.34887
  H         0.90466         -0.00000        -0.52440
  H         0.95877         -0.00000         1.87709
  H        -0.89076          0.00000         1.92536
  C        -1.29434         -0.00000        -0.76332
  H        -1.13347          0.00000        -1.83754
  H        -1.83207         -0.93089        -0.56531
  H        -1.83207          0.93089        -0.56531
9
 step=         484     theta[rad]=           5.0684
  C        -0.01922         -0.00000         0.02167
  C         0.01933          0.00000         1.34936
  H         0.89263         -0.00000        -0.56363
  H         0.92867         -0.00000         1.92712
  H        -0.85909          0.00000         1.97676
  C        -1.27889         -0.00000        -0.77529
  H        -0.97972          0.00000        -1.82619
  H        -2.00180         -0.77291        -0.46157
  H        -2.00180          0.77291        -0.46157
9
 step=         485     theta[rad]=           5.0789
  C        -0.01893         -0.00000         0.02006
  C         0.01918          0.00000         1.34943
  H         0.89102         -0.00000        -0.56885
  H         0.92467         -0.00000         1.93378
  H        -0.85487          0.00000         1.98359
  C        -1.27683         -0.00000        -0.77688
  H        -0.95927          0.00000        -1.82468
  H        -2.02438         -0.75189        -0.44777
  H        -2.02438          0.75189        -0.44777
9
 step=         486     theta[rad]=           5.0894
  C        -0.02088         -0.00000         0.03078
  C         0.02022          0.00000         1.34899
  H         0.90170         -0.00000        -0.53407
  H         0.95135         -0.00000         1.88943
  H        -0.88295          0.00000         1.93803
  C        -1.29053         -0.00000        -0.76627
  H        -1.09556          0.00000        -1.83474
  H        -1.87392         -0.89193        -0.53973
  H        -1.87392          0.89193        -0.53973
9
 step=         487     theta[rad]=           5.0999
  C        -0.02258         -0.00000         0.04018
  C         0.02114          0.00000         1.34862
  H         0.91105         -0.00000        -0.50360
  H         0.97473         -0.00000         1.85057
  H        -0.90755          0.00000         1.89810
  C        -1.30253         -0.00000        -0.75697
  H        -1.21498          0.00000        -1.84355
  H        -1.74208         -1.01464        -0.62030
  H        -1.74208          1.01464        -0.62030
9
 step=         488     theta[rad]=           5.1103
  C        -0.02195         -0.00000         0.03669
  C         0.02080          0.00000         1.34876
  H         0.90758         -0.00000        -0.51489
  H         0.96606         -0.00000         1.86497
  H        -0.89843          0.00000         1.91290
  C        -1.29808         -0.00000        -0.76042
  H        -1.17072          0.00000        -1.84029
  H        -1.79094         -0.96917        -0.59044
  H        -1.79094          0.96917        -0.59044
9
 step=         489     theta[rad]=           5.1208
  C        -0.01979         -0.00000         0.02482
  C         0.01964          0.00000         1.34923
  H         0.89576         -0.00000        -0.55342
  H         0.93651         -0.00000         1.91410
  H        -0.86733          0.00000         1.96338
  C        -1.28291         -0.00000        -0.77217
  H        -1.01973          0.00000        -1.82915
  H        -1.95763         -0.81402        -0.48856
  H        -1.95763          0.81402        -0.48856
9
 step=         490     theta[rad]=           5.1313
  C        -0.01871         -0.00000         0.01889
  C         0.01906          0.00000         1.34947
  H         0.88986         -0.00000        -0.57264
  H         0.92175         -0.00000         1.93862
  H        -0.85181          0.00000         1.98857
  C        -1.27534         -0.00000        -0.77804
  H        -0.94438          0.00000        -1.82359
  H        -2.04082         -0.73659        -0.43773
  H        -2.04082          0.73659        -0.43773
9
 step=         491     theta[rad]=           5.1417
  C        -0.01996         -0.00000         0.02575
  C         0.01973          0.00000         1.34920
  H         0.89669         -0.00000        -0.55039
  H         0.93883         -0.00000         1.91024
  H        -0.86978          0.00000         1.95941
  C        -1.28410         -0.00000        -0.77125
  H        -1.03161          0.00000        -1.83002
  H        -1.94452         -0.82622        -0.49658
  H        -1.94452          0.82622        -0.49658
9
 step=         492     theta[rad]=           5.1522
  C        -0.02204         -0.00000         0.03721
  C         0.02085          0.00000         1.34874
  H         0.90809         -0.00000        -0.51323
  H         0.96734         -0.00000         1.86285
  H        -0.89978          0.00000         1.91072
  C        -1.29873         -0.00000        -0.75991
  H        -1.17724          0.00000        -1.84077
  H        -1.78374         -0.97587        -0.59484
  H        -1.78374          0.97587        -0.59484
9
 step=         493     theta[rad]=           5.1627
  C        -0.02258         -0.00000         0.04014
  C         0.02113          0.00000         1.34862
  H         0.91101         -0.00000        -0.50371
  H         0.97464         -0.00000         1.85071
  H        -0.90746          0.00000         1.89825
  C        -1.30248         -0.00000        -0.75700
  H        -1.21455          0.00000        -1.84352
  H        -1.74255         -1.01421        -0.62002
  H        -1.74255          1.01421        -0.62002
9
 step=         494     theta[rad]=           5.1732
  C        -0.02100         -0.00000         0.03146
  C         0.02029          0.00000         1.34897
  H         0.90237         -0.00000        -0.53187
  H         0.95304         -0.00000         1.88662
  H        -0.88472          0.00000         1.93515
  C        -1.29139         -0.00000        -0.76560
  H        -1.10418          0.00000        -1.83538
  H        -1.86440         -0.90079        -0.54554
  H        -1.86440          0.90079        -0.54554
9
 step=         495     theta[rad]=           5.1836
  C        -0.01909         -0.00000         0.02095
  C         0.01926          0.00000         1.34939
  H         0.89191         -0.00000        -0.56595
  H         0.92689         -0.00000         1.93009
  H        -0.85721          0.00000         1.97980
  C        -1.27797         -0.00000        -0.77600
  H        -0.97061          0.00000        -1.82552
  H        -2.01186         -0.76355        -0.45542
  H        -2.01186          0.76355        -0.45542
9
 step=         496     theta[rad]=           5.1941
  C        -0.01892         -0.00000         0.02001
  C         0.01917          0.00000         1.34943
  H         0.89097         -0.00000        -0.56901
  H         0.92454         -0.00000         1.93399
  H        -0.85474          0.00000         1.98381
  C        -1.27677         -0.00000        -0.77693
  H        -0.95862          0.00000        -1.82464
  H        -2.02510         -0.75122        -0.44733
  H        -2.02510          0.75122        -0.44733
9
 step=         497     theta[rad]=           5.2046
  C        -0.02063         -0.00000         0.02941
  C         0.02009          0.00000         1.34905
  H         0.90034         -0.00000        -0.53850
  H         0.94795         -0.00000         1.89508
  H        -0.87937          0.00000         1.94383
  C        -1.28878         -0.00000        -0.76762
  H        -1.07819          0.00000        -1.83346
  H        -1.89309         -0.87409        -0.52801
  H        -1.89309          0.87409        -0.52801
9
 step=         498     theta[rad]=           5.2150
  C        -0.02239         -0.00000         0.03913
  C         0.02104          0.00000         1.34866
  H         0.91000         -0.00000        -0.50701
  H         0.97211         -0.00000         1.85492
  H        -0.90480          0.00000         1.90257
  C        -1.30118         -0.00000        -0.75801
  H        -1.20162          0.00000        -1.84257
  H        -1.75683         -1.00092        -0.61129
  H        -1.75683          1.00092        -0.61129
9
 step=         499     theta[rad]=           5.2255
  C        -0.02240         -0.00000         0.03918
  C         0.02104          0.00000         1.34866
  H         0.91006         -0.00000        -0.50682
  H         0.97226         -0.00000         1.85468
  H        -0.90495          0.00000         1.90233
  C        -1.30126         -0.00000        -0.75795
  H        -1.20235          0.00000        -1.84262
  H        -1.75602         -1.00167        -0.61178
  H        -1.75602          1.00167        -0.61178
9
 step=         500     theta[rad]=           5.2360
  C        -0.02069         -0.00000         0.02976
  C         0.02012          0.00000         1.34904
  H         0.90068         -0.00000        -0.53739
  H         0.94880         -0.00000         1.89367
  H        -0.88027          0.00000         1.94238
  C        -1.28922         -0.00000        -0.76728
  H        -1.08254          0.00000        -1.83378
  H        -1.88829         -0.87855        -0.53094
  H        -1.88829          0.87855        -0.53094
9
 step=         501     theta[rad]=           5.2465
  C        -0.01899         -0.00000         0.02039
  C         0.01921          0.00000         1.34941
  H         0.89135         -0.00000        -0.56778
  H         0.92549         -0.00000         1.93242
  H        -0.85574          0.00000         1.98219
  C        -1.27725         -0.00000        -0.77656
  H        -0.96346          0.00000        -1.82499
  H        -2.01976         -0.75619        -0.45060
  H        -2.01976          0.75619        -0.45060
9
 step=         502     theta[rad]=           5.2569
  C        -0.01895         -0.00000         0.02016
  C         0.01919          0.00000         1.34942
  H         0.89113         -0.00000        -0.56850
  H         0.92493         -0.00000         1.93334
  H        -0.85515          0.00000         1.98315
  C        -1.27697         -0.00000        -0.77678
  H        -0.96061          0.00000        -1.82478
  H        -2.02290         -0.75327        -0.44868
  H        -2.02290          0.75327        -0.44868
9
 step=         503     theta[rad]=           5.2674
  C        -0.02057         -0.00000         0.02907
  C         0.02005          0.00000         1.34906
  H         0.90000         -0.00000        -0.53961
  H         0.94710         -0.00000         1.89649
  H        -0.87848          0.00000         1.94529
  C        -1.28835         -0.00000        -0.76796
  H        -1.07385          0.00000        -1.83314
  H        -1.89788         -0.86963        -0.52508
  H        -1.89788          0.86963        -0.52508
9
 step=         504     theta[rad]=           5.2779
  C        -0.02229         -0.00000         0.03856
  C         0.02098          0.00000         1.34868
  H         0.90944         -0.00000        -0.50883
  H         0.97071         -0.00000         1.85724
  H        -0.90332          0.00000         1.90496
  C        -1.30046         -0.00000        -0.75857
  H        -1.19446          0.00000        -1.84204
  H        -1.76473         -0.99356        -0.60646
  H        -1.76473          0.99356        -0.60646
9
 step=         505     theta[rad]=           5.2883
  C        -0.02254         -0.00000         0.03992
  C         0.02111          0.00000         1.34863
  H         0.91079         -0.00000        -0.50443
  H         0.97409         -0.00000         1.85164
  H        -0.90687          0.00000         1.89920
  C        -1.30220         -0.00000        -0.75723
  H        -1.21170          0.00000        -1.84331
  H        -1.74570         -1.01127        -0.61809
  H        -1.74570          1.01127        -0.61809
9
 step=         506     theta[rad]=           5.2988
  C        -0.02112         -0.00000         0.03213
  C         0.02035          0.00000         1.34894
  H         0.90304         -0.00000        -0.52969
  H         0.95471         -0.00000         1.88384
  H        -0.88648          0.00000         1.93229
  C        -1.29225         -0.00000        -0.76493
  H        -1.11272          0.00000        -1.83601
  H        -1.85497         -0.90956        -0.55131
  H        -1.85497          0.90956        -0.55131
9
 step=         507     theta[rad]=           5.3093
  C        -0.01934         -0.00000         0.02231
  C         0.01939          0.00000         1.34934
  H         0.89326         -0.00000        -0.56156
  H         0.93026         -0.00000         1.92448
  H        -0.86076          0.00000         1.97404
  C        -1.27970         -0.00000        -0.77466
  H        -0.98783          0.00000        -1.82679
  H        -1.99285         -0.78124        -0.46704
  H        -1.99285          0.78124        -0.46704
9
 step=         508     theta[rad]=           5.3198
  C        -0.01873         -0.00000         0.01899
  C         0.01907          0.00000         1.34947
  H         0.88996         -0.00000        -0.57231
  H         0.92201         -0.00000         1.93820
  H        -0.85207          0.00000         1.98814
  C        -1.27547         -0.00000        -0.77794
  H        -0.94567          0.00000        -1.82368
  H        -2.03939         -0.73792        -0.43860
  H        -2.03939          0.73792        -0.43860
9
 step=         509     theta[rad]=           5.3302
  C        -0.01979         -0.00000         0.02482
  C         0.01964          0.00000         1.34923
  H         0.89576         -0.00000        -0.55342
  H         0.93651         -0.00000         1.91410
  H        -0.86733          0.00000         1.96338
  C        -1.28291         -0.00000        -0.77217
  H        -1.01973          0.00000        -1.82915
  H        -1.95763         -0.81402        -0.48856
  H        -1.95763          0.81402        -0.48856
9
 step=         510     theta[rad]=           5.3407
  C        -0.02159         -0.00000         0.03470
  C         0.02060          0.00000         1.34884
  H         0.90560         -0.00000        -0.52136
  H         0.96110         -0.00000         1.87323
  H        -0.89320          0.00000         1.92138
  C        -1.29553         -0.00000        -0.76239
  H        -1.14535          0.00000        -1.83842
  H        -1.81895         -0.94309        -0.57332
  H        -1.81895          0.94309        -0.57332
9
 step=         511     theta[rad]=           5.3512
  C        -0.02264         -0.00000         0.04049
  C         0.02117          0.00000         1.34860
  H         0.91136         -0.00000        -0.50258
  H         0.97550         -0.00000         1.84928
  H        -0.90837          0.00000         1.89678
  C        -1.30292         -0.00000        -0.75666
  H        -1.21895          0.00000        -1.84385
  H        -1.73770         -1.01872        -0.62298
  H        -1.73770          1.01872        -0.62298
9
 step=         512     theta[rad]=           5.3617
  C        -0.02213         -0.00000         0.03769
  C         0.02090          0.00000         1.34872
  H         0.90857         -0.00000        -0.51166
  H         0.96854         -0.00000         1.86085
  H        -0.90104          0.00000         1.90866
  C        -1.29935         -0.00000        -0.75943
  H        -1.18339          0.00000        -1.84122
  H        -1.77695         -0.98218        -0.59899
  H        -1.77695          0.98218        -0.59899
9
 step=         513     theta[rad]=           5.3721
  C        -0.02050         -0.00000         0.02873
  C         0.02002          0.00000         1.34908
  H         0.89966         -0.00000        -0.54071
  H         0.94625         -0.00000         1.89790
  H        -0.87758          0.00000         1.94673
  C        -1.28791         -0.00000        -0.76830
  H        -1.06952          0.00000        -1.83282
  H        -1.90267         -0.86518        -0.52216
  H        -1.90267          0.86518        -0.52216
9
 step=         514     theta[rad]=           5.3826
  C        -0.01903         -0.00000         0.02063
  C         0.01923          0.00000         1.34940
  H         0.89159         -0.00000        -0.56700
  H         0.92609         -0.00000         1.93142
  H        -0.85637          0.00000         1.98117
  C        -1.27756         -0.00000        -0.77632
  H        -0.96651          0.00000        -1.82522
  H        -2.01639         -0.75933        -0.45266
  H        -2.01639          0.75933        -0.45266
9
 step=         515     theta[rad]=           5.3931
  C        -0.01881         -0.00000         0.01940
  C         0.01911          0.00000         1.34945
  H         0.89037         -0.00000        -0.57097
  H         0.92304         -0.00000         1.93648
  H        -0.85316          0.00000         1.98637
  C        -1.27600         -0.00000        -0.77753
  H        -0.95096          0.00000        -1.82407
  H        -2.03355         -0.74335        -0.44217
  H        -2.03355          0.74335        -0.44217
9
 step=         516     theta[rad]=           5.4035
  C        -0.01996         -0.00000         0.02575
  C         0.01973          0.00000         1.34920
  H         0.89669         -0.00000        -0.55039
  H         0.93883         -0.00000         1.91024
  H        -0.86978          0.00000         1.95941
  C        -1.28410         -0.00000        -0.77125
  H        -1.03161          0.00000        -1.83002
  H        -1.94452         -0.82622        -0.49658
  H        -1.94452          0.82622        -0.49658
9
 step=         517     theta[rad]=           5.4140
  C        -0.02162         -0.00000         0.03490
  C         0.02062          0.00000         1.34883
  H         0.90580         -0.00000        -0.52071
  H         0.96160         -0.00000         1.87239
  H        -0.89373          0.00000         1.92052
  C        -1.29579         -0.00000        -0.76219
  H        -1.14791          0.00000        -1.83860
  H        -1.81612         -0.94573        -0.57505
  H        -1.81612          0.94573        -0.57505
9
 step=         518     theta[rad]=           5.4245
  C        -0.02262         -0.00000         0.04038
  C         0.02116          0.00000         1.34861
  H         0.91125         -0.00000        -0.50294
  H         0.97523         -0.00000         1.84973
  H        -0.90808          0.00000         1.89724
  C        -1.30278         -0.00000        -0.75677
  H        -1.21755          0.00000        -1.84374
  H        -1.73923         -1.01729        -0.62204
  H        -1.73923          1.01729        -0.62204
9
 step=         519     theta[rad]=           5.4350
  C        -0.02229         -0.00000         0.03856
  C         0.02098          0.00000         1.34868
  H         0.90944         -0.00000        -0.50883
  H         0.97071         -0.00000         1.85724
  H        -0.90332          0.00000         1.90496
  C        -1.30046         -0.00000        -0.75857
  H        -1.19446          0.00000        -1.84204
  H        -1.76473         -0.99356        -0.60646
  H        -1.76473          0.99356        -0.60646
9
 step=         520     theta[rad]=           5.4454
  C        -0.02090         -0.00000         0.03089
  C         0.02023          0.00000         1.34899
  H         0.90181         -0.00000        -0.53370
  H         0.95163         -0.00000         1.88896
  H        -0.88325          0.00000         1.93755
  C        -1.29067         -0.00000        -0.76616
  H        -1.09700          0.00000        -1.83485
  H        -1.87233         -0.89341        -0.54070
  H        -1.87233          0.89341        -0.54070
9
 step=         521     theta[rad]=           5.4559
  C        -0.01938         -0.00000         0.02256
  C         0.01942          0.00000         1.34932
  H         0.89351         -0.00000        -0.56074
  H         0.93089         -0.00000         1.92344
  H        -0.86142          0.00000         1.97297
  C        -1.28003         -0.00000        -0.77441
  H        -0.99105          0.00000        -1.82703
  H        -1.98930         -0.78454        -0.46921
  H        -1.98930          0.78454        -0.46921
9
 step=         522     theta[rad]=           5.4664
  C        -0.01871         -0.00000         0.01888
  C         0.01906          0.00000         1.34947
  H         0.88985         -0.00000        -0.57268
  H         0.92173         -0.00000         1.93866
  H        -0.85178          0.00000         1.98861
  C        -1.27533         -0.00000        -0.77805
  H        -0.94426          0.00000        -1.82358
  H        -2.04095         -0.73647        -0.43764
  H        -2.04095          0.73647        -0.43764
9
 step=         523     theta[rad]=           5.4768
  C        -0.01928         -0.00000         0.02198
  C         0.01936          0.00000         1.34935
  H         0.89294         -0.00000        -0.56261
  H         0.92945         -0.00000         1.92583
  H        -0.85990          0.00000         1.97543
  C        -1.27929         -0.00000        -0.77498
  H        -0.98369          0.00000        -1.82649
  H        -1.99742         -0.77699        -0.46425
  H        -1.99742          0.77699        -0.46425
9
 step=         524     theta[rad]=           5.4873
  C        -0.02069         -0.00000         0.02976
  C         0.02012          0.00000         1.34904
  H         0.90068         -0.00000        -0.53739
  H         0.94880         -0.00000         1.89367
  H        -0.88027          0.00000         1.94238
  C        -1.28922         -0.00000        -0.76728
  H        -1.08254          0.00000        -1.83378
  H        -1.88829         -0.87855        -0.53094
  H        -1.88829          0.87855        -0.53094
9
 step=         525     theta[rad]=           5.4978
  C        -0.02209         -0.00000         0.03745
  C         0.02087          0.00000         1.34873
  H         0.90834         -0.00000        -0.51243
  H         0.96795         -0.00000         1.86183
  H        -0.90042          0.00000         1.90968
  C        -1.29905         -0.00000        -0.75967
  H        -1.18036          0.00000        -1.84100
  H        -1.78029         -0.97907        -0.59695
  H        -1.78029          0.97907        -0.59695
9
 step=         526     theta[rad]=           5.5083
  C        -0.02267         -0.00000         0.04064
  C         0.02118          0.00000         1.34860
  H         0.91151         -0.00000        -0.50209
  H         0.97588         -0.00000         1.84865
  H        -0.90876          0.00000         1.89613
  C        -1.30312         -0.00000        -0.75651
  H        -1.22088          0.00000        -1.84399
  H        -1.73556         -1.02070        -0.62428
  H        -1.73556          1.02070        -0.62428
9
 step=         527     theta[rad]=           5.5187
  C        -0.02213         -0.00000         0.03769
  C         0.02090          0.00000         1.34872
  H         0.90857         -0.00000        -0.51166
  H         0.96854         -0.00000         1.86085
  H        -0.90104          0.00000         1.90866
  C        -1.29935         -0.00000        -0.75943
  H        -1.18339          0.00000        -1.84122
  H        -1.77695         -0.98218        -0.59899
  H        -1.77695          0.98218        -0.59899
9
 step=         528     theta[rad]=           5.5292
  C        -0.02081         -0.00000         0.03044
  C         0.02019          0.00000         1.34901
  H         0.90136         -0.00000        -0.53517
  H         0.95050         -0.00000         1.89084
  H        -0.88206          0.00000         1.93948
  C        -1.29009         -0.00000        -0.76661
  H        -1.09122          0.00000        -1.83442
  H        -1.87870         -0.88748        -0.53680
  H        -1.87870          0.88748        -0.53680
9
 step=         529     theta[rad]=           5.5397
  C        -0.01944         -0.00000         0.02291
  C         0.01945          0.00000         1.34931
  H         0.89386         -0.00000        -0.55961
  H         0.93176         -0.00000         1.92200
  H        -0.86233          0.00000         1.97149
  C        -1.28047         -0.00000        -0.77406
  H        -0.99547          0.00000        -1.82736
  H        -1.98441         -0.78909        -0.47220
  H        -1.98441          0.78909        -0.47220
9
 step=         530     theta[rad]=           5.5501
  C        -0.01874         -0.00000         0.01901
  C         0.01907          0.00000         1.34947
  H         0.88998         -0.00000        -0.57226
  H         0.92205         -0.00000         1.93813
  H        -0.85212          0.00000         1.98807
  C        -1.27549         -0.00000        -0.77793
  H        -0.94589          0.00000        -1.82370
  H        -2.03915         -0.73815        -0.43875
  H        -2.03915          0.73815        -0.43875
9
 step=         531     theta[rad]=           5.5606
  C        -0.01902         -0.00000         0.02057
  C         0.01922          0.00000         1.34940
  H         0.89153         -0.00000        -0.56720
  H         0.92593         -0.00000         1.93168
  H        -0.85620          0.00000         1.98144
  C        -1.27748         -0.00000        -0.77638
  H        -0.96573          0.00000        -1.82516
  H        -2.01725         -0.75853        -0.45213
  H        -2.01725          0.75853        -0.45213
9
 step=         532     theta[rad]=           5.5711
  C        -0.02012         -0.00000         0.02661
  C         0.01981          0.00000         1.34916
  H         0.89755         -0.00000        -0.54759
  H         0.94097         -0.00000         1.90668
  H        -0.87203          0.00000         1.95575
  C        -1.28520         -0.00000        -0.77040
  H        -1.04255          0.00000        -1.83083
  H        -1.93244         -0.83747        -0.50396
  H        -1.93244          0.83747        -0.50396
9
 step=         533     theta[rad]=           5.5816
  C        -0.02147         -0.00000         0.03408
  C         0.02054          0.00000         1.34886
  H         0.90498         -0.00000        -0.52337
  H         0.95956         -0.00000         1.87579
  H        -0.89158          0.00000         1.92401
  C        -1.29474         -0.00000        -0.76300
  H        -1.13748          0.00000        -1.83783
  H        -1.82763         -0.93501        -0.56801
  H        -1.82763          0.93501        -0.56801
9
 step=         534     theta[rad]=           5.5920
  C        -0.02245         -0.00000         0.03946
  C         0.02107          0.00000         1.34865
  H         0.91033         -0.00000        -0.50594
  H         0.97293         -0.00000         1.85355
  H        -0.90566          0.00000         1.90117
  C        -1.30160         -0.00000        -0.75768
  H        -1.20581          0.00000        -1.84288
  H        -1.75220         -1.00522        -0.61411
  H        -1.75220          1.00522        -0.61411
9
 step=         535     theta[rad]=           5.6025
  C        -0.02262         -0.00000         0.04040
  C         0.02116          0.00000         1.34861
  H         0.91127         -0.00000        -0.50286
  H         0.97529         -0.00000         1.84963
  H        -0.90814          0.00000         1.89714
  C        -1.30281         -0.00000        -0.75674
  H        -1.21786          0.00000        -1.84377
  H        -1.73889         -1.01761        -0.62225
  H        -1.73889          1.01761        -0.62225
9
 step=         536     theta[rad]=           5.6130
  C        -0.02195         -0.00000         0.03669
  C         0.02080          0.00000         1.34876
  H         0.90758         -0.00000        -0.51489
  H         0.96606         -0.00000         1.86497
  H        -0.89843          0.00000         1.91290
  C        -1.29808         -0.00000        -0.76042
  H        -1.17072          0.00000        -1.84029
  H        -1.79094         -0.96917        -0.59044
  H        -1.79094          0.96917        -0.59044
9
 step=         537     theta[rad]=           5.6235
  C        -0.02075         -0.00000         0.03010
  C         0.02015          0.00000         1.34902
  H         0.90102         -0.00000        -0.53628
  H         0.94965         -0.00000         1.89225
  H        -0.88116          0.00000         1.94093
  C        -1.28965         -0.00000        -0.76695
  H        -1.08688          0.00000        -1.83410
  H        -1.88350         -0.88302        -0.53387
  H        -1.88350          0.88302        -0.53387
9
 step=         538     theta[rad]=           5.6339
  C        -0.01954         -0.00000         0.02345
  C         0.01951          0.00000         1.34929
  H         0.89440         -0.00000        -0.55784
  H         0.93311         -0.00000         1.91974
  H        -0.86376          0.00000         1.96918
  C        -1.28117         -0.00000        -0.77352
  H        -1.00239          0.00000        -1.82787
  H        -1.97677         -0.79620        -0.47687
  H        -1.97677          0.79620        -0.47687
9
 step=         539     theta[rad]=           5.6444
  C        -0.01881         -0.00000         0.01940
  C         0.01911          0.00000         1.34945
  H         0.89037         -0.00000        -0.57097
  H         0.92304         -0.00000         1.93648
  H        -0.85316          0.00000         1.98637
  C        -1.27600         -0.00000        -0.77753
  H        -0.95096          0.00000        -1.82407
  H        -2.03355         -0.74335        -0.44217
  H        -2.03355          0.74335        -0.44217
9
 step=         540     theta[rad]=           5.6549
  C        -0.01881         -0.00000         0.01940
  C         0.01911          0.00000         1.34945
  H         0.89037         -0.00000        -0.57097
  H         0.92304         -0.00000         1.93648
  H        -0.85316          0.00000         1.98637
  C        -1.27600         -0.00000        -0.77753
  H        -0.95096          0.00000        -1.82407
  H        -2.03355         -0.74335        -0.44217
  H        -2.03355          0.74335        -0.44217
9
 step=         541     theta[rad]=           5.6653
  C        -0.01951         -0.00000         0.02327
  C         0.01949          0.00000         1.34930
  H         0.89422         -0.00000        -0.55844
  H         0.93265         -0.00000         1.92051
  H        -0.86327          0.00000         1.96996
  C        -1.28093         -0.00000        -0.77371
  H        -1.00005          0.00000        -1.82769
  H        -1.97936         -0.79380        -0.47529
  H        -1.97936          0.79380        -0.47529
9
 step=         542     theta[rad]=           5.6758
  C        -0.02063         -0.00000         0.02941
  C         0.02009          0.00000         1.34905
  H         0.90034         -0.00000        -0.53850
  H         0.94795         -0.00000         1.89508
  H        -0.87937          0.00000         1.94383
  C        -1.28878         -0.00000        -0.76762
  H        -1.07819          0.00000        -1.83346
  H        -1.89309         -0.87409        -0.52801
  H        -1.89309          0.87409        -0.52801
9
 step=         543     theta[rad]=           5.6863
  C        -0.02175         -0.00000         0.03559
  C         0.02069          0.00000         1.34880
  H         0.90648         -0.00000        -0.51848
  H         0.96331         -0.00000         1.86954
  H        -0.89554          0.00000         1.91760
  C        -1.29667         -0.00000        -0.76151
  H        -1.15667          0.00000        -1.83925
  H        -1.80645         -0.95473        -0.58096
  H        -1.80645          0.95473        -0.58096
9
 step=         544     theta[rad]=           5.6968
  C        -0.02250         -0.00000         0.03970
  C         0.02109          0.00000         1.34864
  H         0.91057         -0.00000        -0.50514
  H         0.97354         -0.00000         1.85254
  H        -0.90630          0.00000         1.90013
  C        -1.30192         -0.00000        -0.75744
  H        -1.20892          0.00000        -1.84311
  H        -1.74876         -1.00842        -0.61622
  H        -1.74876          1.00842        -0.61622
9
 step=         545     theta[rad]=           5.7072
  C        -0.02264         -0.00000         0.04051
  C         0.02117          0.00000         1.34860
  H         0.91138         -0.00000        -0.50252
  H         0.97555         -0.00000         1.84920
  H        -0.90841          0.00000         1.89670
  C        -1.30295         -0.00000        -0.75664
  H        -1.21918          0.00000        -1.84386
  H        -1.73744         -1.01896        -0.62314
  H        -1.73744          1.01896        -0.62314
9
 step=         546     theta[rad]=           5.7177
  C        -0.02217         -0.00000         0.03792
  C         0.02092          0.00000         1.34871
  H         0.90880         -0.00000        -0.51091
  H         0.96912         -0.00000         1.85990
  H        -0.90164          0.00000         1.90769
  C        -1.29964         -0.00000        -0.75920
  H        -1.18631          0.00000        -1.84144
  H        -1.77372         -0.98519        -0.60096
  H        -1.77372          0.98519        -0.60096
9
 step=         547     theta[rad]=           5.7282
  C        -0.02126         -0.00000         0.03290
  C         0.02043          0.00000         1.34891
  H         0.90381         -0.00000        -0.52719
  H         0.95663         -0.00000         1.88065
  H        -0.88850          0.00000         1.92901
  C        -1.29324         -0.00000        -0.76417
  H        -1.12252          0.00000        -1.83673
  H        -1.84415         -0.91964        -0.55792
  H        -1.84415          0.91964        -0.55792
9
 step=         548     theta[rad]=           5.7386
  C        -0.02020         -0.00000         0.02705
  C         0.01986          0.00000         1.34914
  H         0.89798         -0.00000        -0.54617
  H         0.94207         -0.00000         1.90486
  H        -0.87318          0.00000         1.95388
  C        -1.28576         -0.00000        -0.76996
  H        -1.04813          0.00000        -1.83124
  H        -1.92628         -0.84320        -0.50773
  H        -1.92628          0.84320        -0.50773
9
 step=         549     theta[rad]=           5.7491
  C        -0.01929         -0.00000         0.02206
  C         0.01937          0.00000         1.34934
  H         0.89302         -0.00000        -0.56235
  H         0.92965         -0.00000         1.92550
  H        -0.86011          0.00000         1.97509
  C        -1.27939         -0.00000        -0.77490
  H        -0.98471          0.00000        -1.82656
  H        -1.99629         -0.77803        -0.46494
  H        -1.99629          0.77803        -0.46494
9
 step=         550     theta[rad]=           5.7596
  C        -0.01878         -0.00000         0.01924
  C         0.01910          0.00000         1.34946
  H         0.89021         -0.00000        -0.57149
  H         0.92264         -0.00000         1.93715
  H        -0.85274          0.00000         1.98706
  C        -1.27579         -0.00000        -0.77769
  H        -0.94890          0.00000        -1.82392
  H        -2.03583         -0.74124        -0.44078
  H        -2.03583          0.74124        -0.44078
9
 step=         551     theta[rad]=           5.7701
  C        -0.01877         -0.00000         0.01921
  C         0.01909          0.00000         1.34946
  H         0.89018         -0.00000        -0.57158
  H         0.92257         -0.00000         1.93727
  H        -0.85266          0.00000         1.98718
  C        -1.27575         -0.00000        -0.77772
  H        -0.94854          0.00000        -1.82389
  H        -2.03623         -0.74086        -0.44053
  H        -2.03623          0.74086        -0.44053
9
 step=         552     theta[rad]=           5.7805
  C        -0.01925         -0.00000         0.02182
  C         0.01935          0.00000         1.34935
  H         0.89278         -0.00000        -0.56313
  H         0.92906         -0.00000         1.92648
  H        -0.85949          0.00000         1.97610
  C        -1.27909         -0.00000        -0.77514
  H        -0.98169          0.00000        -1.82634
  H        -1.99963         -0.77492        -0.46290
  H        -1.99963          0.77492        -0.46290
9
 step=         553     theta[rad]=           5.7910
  C        -0.02006         -0.00000         0.02629
  C         0.01978          0.00000         1.34918
  H         0.89722         -0.00000        -0.54865
  H         0.94016         -0.00000         1.90802
  H        -0.87118          0.00000         1.95714
  C        -1.28478         -0.00000        -0.77072
  H        -1.03841          0.00000        -1.83052
  H        -1.93701         -0.83321        -0.50117
  H        -1.93701          0.83321        -0.50117
9
 step=         554     theta[rad]=           5.8015
  C        -0.02100         -0.00000         0.03146
  C         0.02029          0.00000         1.34897
  H         0.90237         -0.00000        -0.53187
  H         0.95304         -0.00000         1.88662
  H        -0.88472          0.00000         1.93515
  C        -1.29139         -0.00000        -0.76560
  H        -1.10418          0.00000        -1.83538
  H        -1.86440         -0.90079        -0.54554
  H        -1.86440          0.90079        -0.54554
9
 step=         555     theta[rad]=           5.8119
  C        -0.02185         -0.00000         0.03615
  C         0.02075          0.00000         1.34878
  H         0.90704         -0.00000        -0.51664
  H         0.96472         -0.00000         1.86720
  H        -0.89702          0.00000         1.91519
  C        -1.29739         -0.00000        -0.76095
  H        -1.16386          0.00000        -1.83978
  H        -1.79852         -0.96211        -0.58581
  H        -1.79852          0.96211        -0.58581
9
 step=         556     theta[rad]=           5.8224
  C        -0.02244         -0.00000         0.03940
  C         0.02106          0.00000         1.34865
  H         0.91028         -0.00000        -0.50611
  H         0.97280         -0.00000         1.85377
  H        -0.90552          0.00000         1.90139
  C        -1.30154         -0.00000        -0.75774
  H        -1.20514          0.00000        -1.84283
  H        -1.75294         -1.00453        -0.61367
  H        -1.75294          1.00453        -0.61367
9
 step=         557     theta[rad]=           5.8329
  C        -0.02267         -0.00000         0.04064
  C         0.02118          0.00000         1.34860
  H         0.91150         -0.00000        -0.50211
  H         0.97587         -0.00000         1.84867
  H        -0.90875          0.00000         1.89615
  C        -1.30311         -0.00000        -0.75651
  H        -1.22082          0.00000        -1.84398
  H        -1.73563         -1.02064        -0.62424
  H        -1.73563          1.02064        -0.62424
9
 step=         558     theta[rad]=           5.8434
  C        -0.02250         -0.00000         0.03975
  C         0.02110          0.00000         1.34863
  H         0.91062         -0.00000        -0.50499
  H         0.97366         -0.00000         1.85235
  H        -0.90642          0.00000         1.89993
  C        -1.30198         -0.00000        -0.75740
  H        -1.20951          0.00000        -1.84315
  H        -1.74812         -1.00902        -0.61661
  H        -1.74812          1.00902        -0.61661
9
 step=         559     theta[rad]=           5.8538
  C        -0.02201         -0.00000         0.03704
  C         0.02083          0.00000         1.34874
  H         0.90793         -0.00000        -0.51377
  H         0.96692         -0.00000         1.86354
  H        -0.89934          0.00000         1.91143
  C        -1.29852         -0.00000        -0.76007
  H        -1.17511          0.00000        -1.84061
  H        -1.78609         -0.97368        -0.59340
  H        -1.78609          0.97368        -0.59340
9
 step=         560     theta[rad]=           5.8643
  C        -0.02130         -0.00000         0.03312
  C         0.02045          0.00000         1.34890
  H         0.90402         -0.00000        -0.52648
  H         0.95717         -0.00000         1.87975
  H        -0.88907          0.00000         1.92809
  C        -1.29351         -0.00000        -0.76395
  H        -1.12529          0.00000        -1.83694
  H        -1.84110         -0.92248        -0.55979
  H        -1.84110          0.92248        -0.55979
9
 step=         561     theta[rad]=           5.8748
  C        -0.02050         -0.00000         0.02873
  C         0.02002          0.00000         1.34908
  H         0.89966         -0.00000        -0.54071
  H         0.94625         -0.00000         1.89790
  H        -0.87758          0.00000         1.94673
  C        -1.28791         -0.00000        -0.76830
  H        -1.06952          0.00000        -1.83282
  H        -1.90267         -0.86518        -0.52216
  H        -1.90267          0.86518        -0.52216
9
 step=         562     theta[rad]=           5.8853
  C        -0.01975         -0.00000         0.02461
  C         0.01962          0.00000         1.34924
  H         0.89556         -0.00000        -0.55407
  H         0.93600         -0.00000         1.91494
  H        -0.86680          0.00000         1.96424
  C        -1.28265         -0.00000        -0.77237
  H        -1.01716          0.00000        -1.82896
  H        -1.96047         -0.81138        -0.48683
  H        -1.96047          0.81138        -0.48683
9
 step=         563     theta[rad]=           5.8957
  C        -0.01917         -0.00000         0.02137
  C         0.01930          0.00000         1.34937
  H         0.89233         -0.00000        -0.56459
  H         0.92793         -0.00000         1.92835
  H        -0.85831          0.00000         1.97802
  C        -1.27851         -0.00000        -0.77559
  H        -0.97594          0.00000        -1.82591
  H        -2.00598         -0.76902        -0.45902
  H        -2.00598          0.76902        -0.45902
9
 step=         564     theta[rad]=           5.9062
  C        -0.01881         -0.00000         0.01940
  C         0.01911          0.00000         1.34945
  H         0.89037         -0.00000        -0.57097
  H         0.92304         -0.00000         1.93648
  H        -0.85316          0.00000         1.98637
  C        -1.27600         -0.00000        -0.77753
  H        -0.95096          0.00000        -1.82407
  H        -2.03355         -0.74335        -0.44217
  H        -2.03355          0.74335        -0.44217
9
 step=         565     theta[rad]=           5.9167
  C        -0.01871         -0.00000         0.01889
  C         0.01906          0.00000         1.34947
  H         0.88986         -0.00000        -0.57264
  H         0.92175         -0.00000         1.93862
  H        -0.85181          0.00000         1.98857
  C        -1.27534         -0.00000        -0.77804
  H        -0.94438          0.00000        -1.82359
  H        -2.04082         -0.73659        -0.43773
  H        -2.04082          0.73659        -0.43773
9
 step=         566     theta[rad]=           5.9271
  C        -0.01887         -0.00000         0.01977
  C         0.01915          0.00000         1.34944
  H         0.89074         -0.00000        -0.56979
  H         0.92394         -0.00000         1.93498
  H        -0.85411          0.00000         1.98483
  C        -1.27646         -0.00000        -0.77717
  H        -0.95557          0.00000        -1.82441
  H        -2.02847         -0.74809        -0.44527
  H        -2.02847          0.74809        -0.44527
9
 step=         567     theta[rad]=           5.9376
  C        -0.01925         -0.00000         0.02182
  C         0.01935          0.00000         1.34935
  H         0.89278         -0.00000        -0.56313
  H         0.92906         -0.00000         1.92648
  H        -0.85949          0.00000         1.97610
  C        -1.27909         -0.00000        -0.77514
  H        -0.98169          0.00000        -1.82634
  H        -1.99963         -0.77492        -0.46290
  H        -1.99963          0.77492        -0.46290
9
 step=         568     theta[rad]=           5.9481
  C        -0.01977         -0.00000         0.02471
  C         0.01963          0.00000         1.34924
  H         0.89566         -0.00000        -0.55375
  H         0.93625         -0.00000         1.91452
  H        -0.86706          0.00000         1.96381
  C        -1.28278         -0.00000        -0.77228
  H        -1.01844          0.00000        -1.82905
  H        -1.95906         -0.81269        -0.48770
  H        -1.95906          0.81269        -0.48770
9
 step=         569     theta[rad]=           5.9586
  C        -0.02038         -0.00000         0.02805
  C         0.01996          0.00000         1.34910
  H         0.89898         -0.00000        -0.54291
  H         0.94456         -0.00000         1.90071
  H        -0.87581          0.00000         1.94962
  C        -1.28704         -0.00000        -0.76897
  H        -1.06089          0.00000        -1.83218
  H        -1.91219         -0.85632        -0.51634
  H        -1.91219          0.85632        -0.51634
9
 step=         570     theta[rad]=           5.9690
  C        -0.02100         -0.00000         0.03146
  C         0.02029          0.00000         1.34897
  H         0.90237         -0.00000        -0.53187
  H         0.95304         -0.00000         1.88662
  H        -0.88472          0.00000         1.93515
  C        -1.29139         -0.00000        -0.76560
  H        -1.10418          0.00000        -1.83538
  H        -1.86440         -0.90079        -0.54554
  H        -1.86440          0.90079        -0.54554
9
 step=         571     theta[rad]=           5.9795
  C        -0.02157         -0.00000         0.03460
  C         0.02059          0.00000         1.34884
  H         0.90549         -0.00000        -0.52170
  H         0.96084         -0.00000         1.87365
  H        -0.89294          0.00000         1.92182
  C        -1.29540         -0.00000        -0.76249
  H        -1.14405          0.00000        -1.83832
  H        -1.82038         -0.94176        -0.57245
  H        -1.82038          0.94176        -0.57245
9
 step=         572     theta[rad]=           5.9900
  C        -0.02204         -0.00000         0.03721
  C         0.02085          0.00000         1.34874
  H         0.90809         -0.00000        -0.51323
  H         0.96734         -0.00000         1.86285
  H        -0.89978          0.00000         1.91072
  C        -1.29873         -0.00000        -0.75991
  H        -1.17724          0.00000        -1.84077
  H        -1.78374         -0.97587        -0.59484
  H        -1.78374          0.97587        -0.59484
9
 step=         573     theta[rad]=           6.0004
  C        -0.02239         -0.00000         0.03913
  C         0.02104          0.00000         1.34866
  H         0.91000         -0.00000        -0.50701
  H         0.97211         -0.00000         1.85492
  H        -0.90480          0.00000         1.90257
  C        -1.30118         -0.00000        -0.75801
  H        -1.20162          0.00000        -1.84257
  H        -1.75683         -1.00092        -0.61129
  H        -1.75683          1.00092        -0.61129
9
 step=         574     theta[rad]=           6.0109
  C        -0.02260         -0.00000         0.04027
  C         0.02115          0.00000         1.34861
  H         0.91114         -0.00000        -0.50329
  H         0.97496         -0.00000         1.85018
  H        -0.90779          0.00000         1.89770
  C        -1.30264         -0.00000        -0.75688
  H        -1.21617          0.00000        -1.84364
  H        -1.74076         -1.01587        -0.62111
  H        -1.74076          1.01587        -0.62111
9
 step=         575     theta[rad]=           6.0214
  C        -0.02267         -0.00000         0.04064
  C         0.02118          0.00000         1.34860
  H         0.91151         -0.00000        -0.50209
  H         0.97588         -0.00000         1.84865
  H        -0.90877          0.00000         1.89613
  C        -1.30312         -0.00000        -0.75651
  H        -1.22088          0.00000        -1.84399
  H        -1.73556         -1.02071        -0.62429
  H        -1.73556          1.02071        -0.62429
9
 step=         576     theta[rad]=           6.0319
  C        -0.02261         -0.00000         0.04030
  C         0.02115          0.00000         1.34861
  H         0.91117         -0.00000        -0.50320
  H         0.97503         -0.00000         1.85006
  H        -0.90787          0.00000         1.89758
  C        -1.30268         -0.00000        -0.75685
  H        -1.21654          0.00000        -1.84367
  H        -1.74036         -1.01625        -0.62135
  H        -1.74036          1.01625        -0.62135
9
 step=         577     theta[rad]=           6.0423
  C        -0.02243         -0.00000         0.03935
  C         0.02106          0.00000         1.34865
  H         0.91022         -0.00000        -0.50628
  H         0.97267         -0.00000         1.85399
  H        -0.90538          0.00000         1.90162
  C        -1.30147         -0.00000        -0.75779
  H        -1.20446          0.00000        -1.84278
  H        -1.75369         -1.00384        -0.61321
  H        -1.75369          1.00384        -0.61321
9
 step=         578     theta[rad]=           6.0528
  C        -0.02217         -0.00000         0.03792
  C         0.02092          0.00000         1.34871
  H         0.90880         -0.00000        -0.51091
  H         0.96912         -0.00000         1.85990
  H        -0.90164          0.00000         1.90769
  C        -1.29964         -0.00000        -0.75920
  H        -1.18631          0.00000        -1.84144
  H        -1.77372         -0.98519        -0.60096
  H        -1.77372          0.98519        -0.60096
9
 step=         579     theta[rad]=           6.0633
  C        -0.02185         -0.00000         0.03615
  C         0.02075          0.00000         1.34878
  H         0.90704         -0.00000        -0.51664
  H         0.96472         -0.00000         1.86720
  H        -0.89702          0.00000         1.91519
  C        -1.29739         -0.00000        -0.76095
  H        -1.16386          0.00000        -1.83978
  H        -1.79852         -0.96211        -0.58581
  H        -1.79852          0.96211        -0.58581
9
 step=         580     theta[rad]=           6.0737
  C        -0.02149         -0.00000         0.03418
  C         0.02055          0.00000         1.34886
  H         0.90508         -0.00000        -0.52303
  H         0.95982         -0.00000         1.87535
  H        -0.89186          0.00000         1.92357
  C        -1.29487         -0.00000        -0.76290
  H        -1.13881          0.00000        -1.83793
  H        -1.82617         -0.93637        -0.56891
  H        -1.82617          0.93637        -0.56891
9
 step=         581     theta[rad]=           6.0842
  C        -0.02112         -0.00000         0.03213
  C         0.02035          0.00000         1.34894
  H         0.90304         -0.00000        -0.52969
  H         0.95471         -0.00000         1.88384
  H        -0.88648          0.00000         1.93229
  C        -1.29225         -0.00000        -0.76493
  H        -1.11272          0.00000        -1.83601
  H        -1.85497         -0.90956        -0.55131
  H        -1.85497          0.90956        -0.55131
9
 step=         582     theta[rad]=           6.0947
  C        -0.02075         -0.00000         0.03010
  C         0.02015          0.00000         1.34902
  H         0.90102         -0.00000        -0.53628
  H         0.94965         -0.00000         1.89225
  H        -0.88116          0.00000         1.94093
  C        -1.28965         -0.00000        -0.76695
  H        -1.08688          0.00000        -1.83410
  H        -1.88350         -0.88302        -0.53387
  H        -1.88350          0.88302        -0.53387
9
 step=         583     theta[rad]=           6.1052
  C        -0.02040         -0.00000         0.02817
  C         0.01997          0.00000         1.34910
  H         0.89909         -0.00000        -0.54255
  H         0.94484         -0.00000         1.90024
  H        -0.87610          0.00000         1.94914
  C        -1.28719         -0.00000        -0.76886
  H        -1.06233          0.00000        -1.83229
  H        -1.91061         -0.85779        -0.51731
  H        -1.91061          0.85779        -0.51731
9
 step=         584     theta[rad]=           6.1156
  C        -0.02008         -0.00000         0.02639
  C         0.01979          0.00000         1.34917
  H         0.89733         -0.00000        -0.54830
  H         0.94043         -0.00000         1.90758
  H        -0.87146          0.00000         1.95668
  C        -1.28492         -0.00000        -0.77061
  H        -1.03979          0.00000        -1.83063
  H        -1.93549         -0.83462        -0.50210
  H        -1.93549          0.83462        -0.50210
9
 step=         585     theta[rad]=           6.1261
  C        -0.01979         -0.00000         0.02482
  C         0.01964          0.00000         1.34923
  H         0.89576         -0.00000        -0.55342
  H         0.93651         -0.00000         1.91410
  H        -0.86733          0.00000         1.96338
  C        -1.28291         -0.00000        -0.77217
  H        -1.01973          0.00000        -1.82915
  H        -1.95763         -0.81402        -0.48856
  H        -1.95763          0.81402        -0.48856
9
 step=         586     theta[rad]=           6.1366
  C        -0.01954         -0.00000         0.02345
  C         0.01951          0.00000         1.34929
  H         0.89440         -0.00000        -0.55784
  H         0.93311         -0.00000         1.91974
  H        -0.86376          0.00000         1.96918
  C        -1.28117         -0.00000        -0.77352
  H        -1.00239          0.00000        -1.82787
  H        -1.97677         -0.79620        -0.47687
  H        -1.97677          0.79620        -0.47687
9
 step=         587     theta[rad]=           6.1470
  C        -0.01934         -0.00000         0.02231
  C         0.01939          0.00000         1.34934
  H         0.89326         -0.00000        -0.56156
  H         0.93026         -0.00000         1.92448
  H        -0.86076          0.00000         1.97404
  C        -1.27970         -0.00000        -0.77466
  H        -0.98783          0.00000        -1.82679
  H        -1.99285         -0.78124        -0.46704
  H        -1.99285          0.78124        -0.46704
9
 step=         588     theta[rad]=           6.1575
  C        -0.01917         -0.00000         0.02137
  C         0.01930          0.00000         1.34937
  H         0.89233         -0.00000        -0.56459
  H         0.92793         -0.00000         1.92835
  H        -0.85831          0.00000         1.97802
  C        -1.27851         -0.00000        -0.77559
  H        -0.97594          0.00000        -1.82591
  H        -2.00598         -0.76902        -0.45902
  H        -2.00598          0.76902        -0.45902
9
 step=         589     theta[rad]=           6.1680
  C        -0.01903         -0.00000         0.02063
  C         0.01923          0.00000         1.34940
  H         0.89159         -0.00000        -0.56700
  H         0.92609         -0.00000         1.93142
  H        -0.85637          0.00000         1.98117
  C        -1.27756         -0.00000        -0.77632
  H        -0.96651          0.00000        -1.82522
  H        -2.01639         -0.75933        -0.45266
  H        -2.01639          0.75933        -0.45266
9
 step=         590     theta[rad]=           6.1785
  C        -0.01893         -0.00000         0.02006
  C         0.01918          0.00000         1.34943
  H         0.89102         -0.00000        -0.56885
  H         0.92467         -0.00000         1.93378
  H        -0.85487          0.00000         1.98359
  C        -1.27683         -0.00000        -0.77688
  H        -0.95927          0.00000        -1.82468
  H        -2.02438         -0.75189        -0.44777
  H        -2.02438          0.75189        -0.44777
9
 step=         591     theta[rad]=           6.1889
  C        -0.01885         -0.00000         0.01964
  C         0.01913          0.00000         1.34944
  H         0.89060         -0.00000        -0.57021
  H         0.92362         -0.00000         1.93552
  H        -0.85377          0.00000         1.98539
  C        -1.27629         -0.00000        -0.77730
  H        -0.95390          0.00000        -1.82429
  H        -2.03030         -0.74638        -0.44415
  H        -2.03030          0.74638        -0.44415
9
 step=         592     theta[rad]=           6.1994
  C        -0.01880         -0.00000         0.01934
  C         0.01910          0.00000         1.34945
  H         0.89031         -0.00000        -0.57119
  H         0.92287         -0.00000         1.93676
  H        -0.85298          0.00000         1.98666
  C        -1.27591         -0.00000        -0.77760
  H        -0.95009          0.00000        -1.82401
  H        -2.03451         -0.74246        -0.44158
  H        -2.03451          0.74246        -0.44158
9
 step=         593     theta[rad]=           6.2099
  C        -0.01876         -0.00000         0.01913
  C         0.01908          0.00000         1.34946
  H         0.89010         -0.00000        -0.57184
  H         0.92237         -0.00000         1.93760
  H        -0.85245          0.00000         1.98752
  C        -1.27565         -0.00000        -0.77780
  H        -0.94752          0.00000        -1.82382
  H        -2.03735         -0.73982        -0.43985
  H        -2.03735          0.73982        -0.43985
9
 step=         594     theta[rad]=           6.2204
  C        -0.01874         -0.00000         0.01901
  C         0.01907          0.00000         1.34947
  H         0.88998         -0.00000        -0.57226
  H         0.92205         -0.00000         1.93813
  H        -0.85212          0.00000         1.98807
  C        -1.27549         -0.00000        -0.77793
  H        -0.94589          0.00000        -1.82370
  H        -2.03915         -0.73815        -0.43875
  H        -2.03915          0.73815        -0.43875
9
 step=         595     theta[rad]=           6.2308
  C        -0.01872         -0.00000         0.01893
  C         0.01907          0.00000         1.34947
  H         0.88990         -0.00000        -0.57250
  H         0.92187         -0.00000         1.93844
  H        -0.85192          0.00000         1.98838
  C        -1.27539         -0.00000        -0.77800
  H        -0.94495          0.00000        -1.82363
  H        -2.04019         -0.73717        -0.43811
  H        -2.04019          0.73717        -0.43811
9
 step=         596     theta[rad]=           6.2413
  C        -0.01872         -0.00000         0.01889
  C         0.01906          0.00000         1.34947
  H         0.88987         -0.00000        -0.57262
  H         0.92177         -0.00000         1.93860
  H        -0.85182          0.00000         1.98854
  C        -1.27535         -0.00000        -0.77804
  H        -0.94446          0.00000        -1.82359
  H        -2.04073         -0.73668        -0.43778
  H        -2.04073          0.73668        -0.43778
9
 step=         597     theta[rad]=           6.2518
  C        -0.01871         -0.00000         0.01888
  C         0.01906          0.00000         1.34947
  H         0.88985         -0.00000        -0.57268
  H         0.92173         -0.00000         1.93866
  H        -0.85178          0.00000         1.98861
  C        -1.27533         -0.00000        -0.77805
  H        -0.94426          0.00000        -1.82358
  H        -2.04095         -0.73647        -0.43764
  H        -2.04095          0.73647        -0.43764
9
 step=         598     theta[rad]=           6.2622
  C        -0.01871         -0.00000         0.01887
  C         0.01906          0.00000         1.34947
  H         0.88984         -0.00000        -0.57269
  H         0.92172         -0.00000         1.93868
  H        -0.85177          0.00000         1.98863
  C        -1.27532         -0.00000        -0.77806
  H        -0.94420          0.00000        -1.82357
  H        -2.04102         -0.73640        -0.43760
  H        -2.04102          0.73640        -0.43760
9
 step=         599     theta[rad]=           6.2727
  C        -0.01871         -0.00000         0.01887
  C         0.01906          0.00000         1.34947
  H         0.88984         -0.00000        -0.57269
  H         0.92172         -0.00000         1.93868
  H        -0.85177          0.00000         1.98864
  C        -1.27532         -0.00000        -0.77806
  H        -0.94419          0.00000        -1.82357
  H        -2.04103         -0.73640        -0.43760
  H        -2.04103          0.73640        -0.43760
9
 step=         600     theta[rad]=           6.2832
  C        -0.01871         -0.00000         0.01887
  C         0.01906          0.00000         1.34947
  H         0.88984         -0.00000        -0.57269
  H         0.92172         -0.00000         1.93868
  H        -0.85177          0.00000         1.98864
  C        -1.27532         -0.00000        -0.77806
  H        -0.94419          0.00000        -1.82357
  H        -2.04103         -0.73640        -0.43760
  H        -2.04103          0.73640        -0.43760
