9
 step=           0     theta[rad]=           0.0000
  C        -0.02069          0.01133         0.02976
  C         0.02012          0.02314         1.34904
  H         0.90068         -0.22405        -0.53739
  H         0.94880          0.03446         1.89367
  H        -0.88027         -0.27628         1.94238
  C        -1.28922          0.00377        -0.76728
  H        -1.08254         -0.00103        -1.83378
  H        -1.88773         -0.87300        -0.52329
  H        -1.88886          0.88411        -0.53859
9
 step=           1     theta[rad]=           0.0105
  C        -0.02069          0.01133         0.02976
  C         0.02012          0.02314         1.34904
  H         0.90068         -0.22404        -0.53739
  H         0.94880          0.03446         1.89367
  H        -0.88027         -0.27626         1.94238
  C        -1.28922          0.00377        -0.76728
  H        -1.08254         -0.00103        -1.83378
  H        -1.88773         -0.87300        -0.52329
  H        -1.88886          0.88411        -0.53859
9
 step=           2     theta[rad]=           0.0209
  C        -0.02069          0.01133         0.02976
  C         0.02012          0.02313         1.34904
  H         0.90068         -0.22394        -0.53739
  H         0.94880          0.03445         1.89367
  H        -0.88027         -0.27614         1.94238
  C        -1.28922          0.00377        -0.76728
  H        -1.08254         -0.00103        -1.83378
  H        -1.88773         -0.87300        -0.52330
  H        -1.88886          0.88411        -0.53859
9
 step=           3     theta[rad]=           0.0314
  C        -0.02069          0.01131         0.02976
  C         0.02012          0.02310         1.34904
  H         0.90068         -0.22361        -0.53739
  H         0.94880          0.03440         1.89367
  H        -0.88027         -0.27573         1.94238
  C        -1.28922          0.00377        -0.76728
  H        -1.08254         -0.00103        -1.83378
  H        -1.88773         -0.87301        -0.52331
  H        -1.88886          0.88410        -0.53858
9
 step=           4     theta[rad]=           0.0419
  C        -0.02069          0.01127         0.02976
  C         0.02012          0.02302         1.34904
  H         0.90068         -0.22283        -0.53739
  H         0.94880          0.03427         1.89367
  H        -0.88027         -0.27476         1.94238
  C        -1.28922          0.00375        -0.76728
  H        -1.08254         -0.00102        -1.83378
  H        -1.88773         -0.87303        -0.52333
  H        -1.88886          0.88408        -0.53855
9
 step=           5     theta[rad]=           0.0524
  C        -0.02069          0.01119         0.02976
  C         0.02012          0.02286         1.34904
  H         0.90068         -0.22130        -0.53739
  H         0.94880          0.03404         1.89367
  H        -0.88027         -0.27288         1.94238
  C        -1.28922          0.00373        -0.76728
  H        -1.08254         -0.00101        -1.83378
  H        -1.88774         -0.87307        -0.52339
  H        -1.88885          0.88404        -0.53850
9
 step=           6     theta[rad]=           0.0628
  C        -0.02069          0.01106         0.02976
  C         0.02012          0.02259         1.34904
  H         0.90068         -0.21866        -0.53739
  H         0.94880          0.03363         1.89367
  H        -0.88027         -0.26962         1.94238
  C        -1.28922          0.00368        -0.76728
  H        -1.08254         -0.00100        -1.83378
  H        -1.88774         -0.87313        -0.52348
  H        -1.88884          0.88398        -0.53841
9
 step=           7     theta[rad]=           0.0733
  C        -0.02069          0.01085         0.02976
  C         0.02012          0.02216         1.34904
  H         0.90068         -0.21449        -0.53739
  H         0.94880          0.03299         1.89367
  H        -0.88027         -0.26449         1.94238
  C        -1.28922          0.00361        -0.76728
  H        -1.08254         -0.00098        -1.83378
  H        -1.88775         -0.87323        -0.52362
  H        -1.88883          0.88387        -0.53827
9
 step=           8     theta[rad]=           0.0838
  C        -0.02069          0.01054         0.02976
  C         0.02012          0.02152         1.34904
  H         0.90068         -0.20832        -0.53739
  H         0.94880          0.03204         1.89367
  H        -0.88027         -0.25688         1.94238
  C        -1.28922          0.00351        -0.76728
  H        -1.08254         -0.00096        -1.83378
  H        -1.88777         -0.87339        -0.52383
  H        -1.88882          0.88372        -0.53806
9
 step=           9     theta[rad]=           0.0942
  C        -0.02069          0.01010         0.02976
  C         0.02012          0.02062         1.34904
  H         0.90068         -0.19963        -0.53739
  H         0.94880          0.03071         1.89367
  H        -0.88027         -0.24617         1.94238
  C        -1.28922          0.00336        -0.76728
  H        -1.08254         -0.00092        -1.83378
  H        -1.88779         -0.87360        -0.52413
  H        -1.88880          0.88350        -0.53776
9
 step=          10     theta[rad]=           0.1047
  C        -0.02069          0.00950         0.02976
  C         0.02012          0.01941         1.34904
  H         0.90068         -0.18791        -0.53739
  H         0.94880          0.02890         1.89367
  H        -0.88027         -0.23171         1.94238
  C        -1.28922          0.00316        -0.76728
  H        -1.08254         -0.00086        -1.83378
  H        -1.88782         -0.87389        -0.52453
  H        -1.88877          0.88321        -0.53736
9
 step=          11     theta[rad]=           0.1152
  C        -0.02069          0.00873         0.02976
  C         0.02012          0.01783         1.34904
  H         0.90068         -0.17264        -0.53739
  H         0.94880          0.02655         1.89367
  H        -0.88027         -0.21288         1.94238
  C        -1.28922          0.00291        -0.76728
  H        -1.08254         -0.00079        -1.83378
  H        -1.88786         -0.87427        -0.52505
  H        -1.88873          0.88283        -0.53684
9
 step=          12     theta[rad]=           0.1257
  C        -0.02069          0.00776         0.02976
  C         0.02012          0.01584         1.34904
  H         0.90068         -0.15338        -0.53739
  H         0.94880          0.02359         1.89367
  H        -0.88027         -0.18912         1.94238
  C        -1.28922          0.00258        -0.76728
  H        -1.08254         -0.00070        -1.83378
  H        -1.88791         -0.87475        -0.52571
  H        -1.88868          0.88236        -0.53618
9
 step=          13     theta[rad]=           0.1361
  C        -0.02069          0.00657         0.02976
  C         0.02012          0.01341         1.34904
  H         0.90068         -0.12979        -0.53739
  H         0.94880          0.01996         1.89367
  H        -0.88027         -0.16004         1.94238
  C        -1.28922          0.00219        -0.76728
  H        -1.08254         -0.00060        -1.83378
  H        -1.88797         -0.87533        -0.52651
  H        -1.88862          0.88177        -0.53537
9
 step=          14     theta[rad]=           0.1466
  C        -0.02069          0.00515         0.02976
  C         0.02012          0.01051         1.34904
  H         0.90068         -0.10172        -0.53739
  H         0.94880          0.01565         1.89367
  H        -0.88027         -0.12543         1.94238
  C        -1.28922          0.00171        -0.76728
  H        -1.08254         -0.00047        -1.83378
  H        -1.88804         -0.87603        -0.52747
  H        -1.88855          0.88108        -0.53442
9
 step=          15     theta[rad]=           0.1571
  C        -0.02069          0.00350         0.02976
  C         0.02012          0.00715         1.34904
  H         0.90068         -0.06924        -0.53739
  H         0.94880          0.01065         1.89367
  H        -0.88027         -0.08537         1.94238
  C        -1.28922          0.00117        -0.76728
  H        -1.08254         -0.00032        -1.83378
  H        -1.88812         -0.87684        -0.52858
  H        -1.88847          0.88027        -0.53331
9
 step=          16     theta[rad]=           0.1676
  C        -0.02069          0.00166         0.02976
  C         0.02012          0.00338         1.34904
  H         0.90068         -0.03273        -0.53739
  H         0.94880          0.00503         1.89367
  H        -0.88027         -0.04036         1.94238
  C        -1.28922          0.00055        -0.76728
  H        -1.08254         -0.00015        -1.83378
  H        -1.88821         -0.87774        -0.52983
  H        -1.88838          0.87937        -0.53206
9
 step=          17     theta[rad]=           0.1780
  C        -0.02069         -0.00036         0.02976
  C         0.02012         -0.00073         1.34904
  H         0.90068          0.00704        -0.53739
  H         0.94880         -0.00108         1.89367
  H        -0.88027          0.00868         1.94238
  C        -1.28922         -0.00012        -0.76728
  H        -1.08254          0.00003        -1.83378
  H        -1.88831         -0.87873        -0.53118
  H        -1.88828          0.87838        -0.53070
9
 step=          18     theta[rad]=           0.1885
  C        -0.02069         -0.00247         0.02976
  C         0.02012         -0.00505         1.34904
  H         0.90068          0.04888        -0.53739
  H         0.94880         -0.00752         1.89367
  H        -0.88027          0.06027         1.94238
  C        -1.28922         -0.00082        -0.76728
  H        -1.08254          0.00022        -1.83378
  H        -1.88842         -0.87977        -0.53261
  H        -1.88817          0.87734        -0.52927
9
 step=          19     theta[rad]=           0.1990
  C        -0.02069         -0.00461         0.02976
  C         0.02012         -0.00941         1.34904
  H         0.90068          0.09113        -0.53739
  H         0.94880         -0.01402         1.89367
  H        -0.88027          0.11237         1.94238
  C        -1.28922         -0.00153        -0.76728
  H        -1.08254          0.00042        -1.83378
  H        -1.88852         -0.88081        -0.53405
  H        -1.88806          0.87629        -0.52783
9
 step=          20     theta[rad]=           0.2094
  C        -0.02069         -0.00666         0.02976
  C         0.02012         -0.01360         1.34904
  H         0.90068          0.13170        -0.53739
  H         0.94880         -0.02026         1.89367
  H        -0.88027          0.16239         1.94238
  C        -1.28922         -0.00222        -0.76728
  H        -1.08254          0.00060        -1.83378
  H        -1.88863         -0.88182        -0.53544
  H        -1.88796          0.87529        -0.52645
9
 step=          21     theta[rad]=           0.2199
  C        -0.02069         -0.00850         0.02976
  C         0.02012         -0.01736         1.34904
  H         0.90068          0.16807        -0.53739
  H         0.94880         -0.02585         1.89367
  H        -0.88027          0.20724         1.94238
  C        -1.28922         -0.00283        -0.76728
  H        -1.08254          0.00077        -1.83378
  H        -1.88872         -0.88272        -0.53668
  H        -1.88787          0.87439        -0.52520
9
 step=          22     theta[rad]=           0.2304
  C        -0.02069         -0.00999         0.02976
  C         0.02012         -0.02040         1.34904
  H         0.90068          0.19746        -0.53739
  H         0.94880         -0.03037         1.89367
  H        -0.88027          0.24348         1.94238
  C        -1.28922         -0.00333        -0.76728
  H        -1.08254          0.00091        -1.83378
  H        -1.88879         -0.88345        -0.53768
  H        -1.88780          0.87366        -0.52420
9
 step=          23     theta[rad]=           0.2409
  C        -0.02069         -0.01098         0.02976
  C         0.02012         -0.02242         1.34904
  H         0.90068          0.21702        -0.53739
  H         0.94880         -0.03338         1.89367
  H        -0.88027          0.26760         1.94238
  C        -1.28922         -0.00366        -0.76728
  H        -1.08254          0.00100        -1.83378
  H        -1.88884         -0.88394        -0.53835
  H        -1.88775          0.87317        -0.52353
9
 step=          24     theta[rad]=           0.2513
  C        -0.02069         -0.01133         0.02976
  C         0.02012         -0.02314         1.34904
  H         0.90068          0.22405        -0.53739
  H         0.94880         -0.03446         1.89367
  H        -0.88027          0.27628         1.94238
  C        -1.28922         -0.00377        -0.76728
  H        -1.08254          0.00103        -1.83378
  H        -1.88886         -0.88411        -0.53859
  H        -1.88773          0.87300        -0.52329
9
 step=          25     theta[rad]=           0.2618
  C        -0.02069         -0.01095         0.02976
  C         0.02012         -0.02236         1.34904
  H         0.90068          0.21642        -0.53739
  H         0.94880         -0.03329         1.89367
  H        -0.88027          0.26686         1.94238
  C        -1.28922         -0.00365        -0.76728
  H        -1.08254          0.00099        -1.83378
  H        -1.88884         -0.88392        -0.53833
  H        -1.88775          0.87319        -0.52355
9
 step=          26     theta[rad]=           0.2723
  C        -0.02069         -0.00976         0.02976
  C         0.02012         -0.01992         1.34904
  H         0.90068          0.19285        -0.53739
  H         0.94880         -0.02966         1.89367
  H        -0.88027          0.23780         1.94238
  C        -1.28922         -0.00325        -0.76728
  H        -1.08254          0.00088        -1.83378
  H        -1.88878         -0.88334        -0.53753
  H        -1.88781          0.87377        -0.52436
9
 step=          27     theta[rad]=           0.2827
  C        -0.02069         -0.00776         0.02976
  C         0.02012         -0.01584         1.34904
  H         0.90068          0.15338        -0.53739
  H         0.94880         -0.02359         1.89367
  H        -0.88027          0.18913         1.94238
  C        -1.28922         -0.00258        -0.76728
  H        -1.08254          0.00070        -1.83378
  H        -1.88868         -0.88236        -0.53618
  H        -1.88791          0.87475        -0.52571
9
 step=          28     theta[rad]=           0.2932
  C        -0.02069         -0.00504         0.02976
  C         0.02012         -0.01029         1.34904
  H         0.90068          0.09962        -0.53739
  H         0.94880         -0.01532         1.89367
  H        -0.88027          0.12284         1.94238
  C        -1.28922         -0.00168        -0.76728
  H        -1.08254          0.00046        -1.83378
  H        -1.88854         -0.88102        -0.53434
  H        -1.88804          0.87608        -0.52754
9
 step=          29     theta[rad]=           0.3037
  C        -0.02069         -0.00177         0.02976
  C         0.02012         -0.00362         1.34904
  H         0.90068          0.03505        -0.53739
  H         0.94880         -0.00539         1.89367
  H        -0.88027          0.04322         1.94238
  C        -1.28922         -0.00059        -0.76728
  H        -1.08254          0.00016        -1.83378
  H        -1.88838         -0.87942        -0.53214
  H        -1.88820          0.87768        -0.52975
9
 step=          30     theta[rad]=           0.3142
  C        -0.02069          0.00177         0.02976
  C         0.02012          0.00362         1.34904
  H         0.90068         -0.03505        -0.53739
  H         0.94880          0.00539         1.89367
  H        -0.88027         -0.04322         1.94238
  C        -1.28922          0.00059        -0.76728
  H        -1.08254         -0.00016        -1.83378
  H        -1.88820         -0.87768        -0.52975
  H        -1.88838          0.87942        -0.53214
9
 step=          31     theta[rad]=           0.3246
  C        -0.02069          0.00525         0.02976
  C         0.02012          0.01072         1.34904
  H         0.90068         -0.10380        -0.53739
  H         0.94880          0.01597         1.89367
  H        -0.88027         -0.12800         1.94238
  C        -1.28922          0.00175        -0.76728
  H        -1.08254         -0.00048        -1.83378
  H        -1.88803         -0.87598        -0.52740
  H        -1.88856          0.88113        -0.53449
9
 step=          32     theta[rad]=           0.3351
  C        -0.02069          0.00826         0.02976
  C         0.02012          0.01687         1.34904
  H         0.90068         -0.16333        -0.53739
  H         0.94880          0.02512         1.89367
  H        -0.88027         -0.20140         1.94238
  C        -1.28922          0.00275        -0.76728
  H        -1.08254         -0.00075        -1.83378
  H        -1.88788         -0.87450        -0.52537
  H        -1.88871          0.88260        -0.53652
9
 step=          33     theta[rad]=           0.3456
  C        -0.02069          0.01040         0.02976
  C         0.02012          0.02124         1.34904
  H         0.90068         -0.20563        -0.53739
  H         0.94880          0.03163         1.89367
  H        -0.88027         -0.25356         1.94238
  C        -1.28922          0.00346        -0.76728
  H        -1.08254         -0.00094        -1.83378
  H        -1.88777         -0.87345        -0.52392
  H        -1.88881          0.88365        -0.53796
9
 step=          34     theta[rad]=           0.3560
  C        -0.02069          0.01132         0.02976
  C         0.02012          0.02311         1.34904
  H         0.90068         -0.22375        -0.53739
  H         0.94880          0.03442         1.89367
  H        -0.88027         -0.27590         1.94238
  C        -1.28922          0.00377        -0.76728
  H        -1.08254         -0.00103        -1.83378
  H        -1.88773         -0.87300        -0.52330
  H        -1.88886          0.88410        -0.53858
9
 step=          35     theta[rad]=           0.3665
  C        -0.02069          0.01078         0.02976
  C         0.02012          0.02201         1.34904
  H         0.90068         -0.21309        -0.53739
  H         0.94880          0.03278         1.89367
  H        -0.88027         -0.26276         1.94238
  C        -1.28922          0.00359        -0.76728
  H        -1.08254         -0.00098        -1.83378
  H        -1.88776         -0.87327        -0.52367
  H        -1.88883          0.88384        -0.53822
9
 step=          36     theta[rad]=           0.3770
  C        -0.02069          0.00873         0.02976
  C         0.02012          0.01783         1.34904
  H         0.90068         -0.17264        -0.53739
  H         0.94880          0.02655         1.89367
  H        -0.88027         -0.21288         1.94238
  C        -1.28922          0.00291        -0.76728
  H        -1.08254         -0.00079        -1.83378
  H        -1.88786         -0.87427        -0.52505
  H        -1.88873          0.88283        -0.53684
9
 step=          37     theta[rad]=           0.3875
  C        -0.02069          0.00536         0.02976
  C         0.02012          0.01094         1.34904
  H         0.90068         -0.10588        -0.53739
  H         0.94880          0.01629         1.89367
  H        -0.88027         -0.13056         1.94238
  C        -1.28922          0.00178        -0.76728
  H        -1.08254         -0.00049        -1.83378
  H        -1.88803         -0.87593        -0.52733
  H        -1.88856          0.88118        -0.53456
9
 step=          38     theta[rad]=           0.3979
  C        -0.02069          0.00107         0.02976
  C         0.02012          0.00218         1.34904
  H         0.90068         -0.02109        -0.53739
  H         0.94880          0.00324         1.89367
  H        -0.88027         -0.02600         1.94238
  C        -1.28922          0.00036        -0.76728
  H        -1.08254         -0.00010        -1.83378
  H        -1.88824         -0.87803        -0.53022
  H        -1.88835          0.87908        -0.53166
9
 step=          39     theta[rad]=           0.4084
  C        -0.02069         -0.00350         0.02976
  C         0.02012         -0.00715         1.34904
  H         0.90068          0.06924        -0.53739
  H         0.94880         -0.01065         1.89367
  H        -0.88027          0.08537         1.94238
  C        -1.28922         -0.00117        -0.76728
  H        -1.08254          0.00032        -1.83378
  H        -1.88847         -0.88027        -0.53331
  H        -1.88812          0.87684        -0.52858
9
 step=          40     theta[rad]=           0.4189
  C        -0.02069         -0.00758         0.02976
  C         0.02012         -0.01549         1.34904
  H         0.90068          0.14992        -0.53739
  H         0.94880         -0.02306         1.89367
  H        -0.88027          0.18487         1.94238
  C        -1.28922         -0.00253        -0.76728
  H        -1.08254          0.00069        -1.83378
  H        -1.88867         -0.88227        -0.53606
  H        -1.88792          0.87484        -0.52582
9
 step=          41     theta[rad]=           0.4294
  C        -0.02069         -0.01040         0.02976
  C         0.02012         -0.02124         1.34904
  H         0.90068          0.20563        -0.53739
  H         0.94880         -0.03163         1.89367
  H        -0.88027          0.25356         1.94238
  C        -1.28922         -0.00346        -0.76728
  H        -1.08254          0.00094        -1.83378
  H        -1.88881         -0.88365        -0.53796
  H        -1.88777          0.87345        -0.52392
9
 step=          42     theta[rad]=           0.4398
  C        -0.02069         -0.01133         0.02976
  C         0.02012         -0.02313         1.34904
  H         0.90068          0.22394        -0.53739
  H         0.94880         -0.03445         1.89367
  H        -0.88027          0.27614         1.94238
  C        -1.28922         -0.00377        -0.76728
  H        -1.08254          0.00103        -1.83378
  H        -1.88886         -0.88411        -0.53859
  H        -1.88773          0.87300        -0.52330
9
 step=          43     theta[rad]=           0.4503
  C        -0.02069         -0.01004         0.02976
  C         0.02012         -0.02051         1.34904
  H         0.90068          0.19856        -0.53739
  H         0.94880         -0.03054         1.89367
  H        -0.88027          0.24484         1.94238
  C        -1.28922         -0.00334        -0.76728
  H        -1.08254          0.00091        -1.83378
  H        -1.88879         -0.88348        -0.53772
  H        -1.88779          0.87363        -0.52416
9
 step=          44     theta[rad]=           0.4608
  C        -0.02069         -0.00666         0.02976
  C         0.02012         -0.01360         1.34904
  H         0.90068          0.13170        -0.53739
  H         0.94880         -0.02026         1.89367
  H        -0.88027          0.16239         1.94238
  C        -1.28922         -0.00222        -0.76728
  H        -1.08254          0.00060        -1.83378
  H        -1.88863         -0.88182        -0.53544
  H        -1.88796          0.87529        -0.52645
9
 step=          45     theta[rad]=           0.4712
  C        -0.02069         -0.00177         0.02976
  C         0.02012         -0.00362         1.34904
  H         0.90068          0.03505        -0.53739
  H         0.94880         -0.00539         1.89367
  H        -0.88027          0.04322         1.94238
  C        -1.28922         -0.00059        -0.76728
  H        -1.08254          0.00016        -1.83378
  H        -1.88838         -0.87942        -0.53214
  H        -1.88820          0.87768        -0.52975
9
 step=          46     theta[rad]=           0.4817
  C        -0.02069          0.00361         0.02976
  C         0.02012          0.00738         1.34904
  H         0.90068         -0.07146        -0.53739
  H         0.94880          0.01099         1.89367
  H        -0.88027         -0.08812         1.94238
  C        -1.28922          0.00120        -0.76728
  H        -1.08254         -0.00033        -1.83378
  H        -1.88811         -0.87678        -0.52850
  H        -1.88847          0.88033        -0.53338
9
 step=          47     theta[rad]=           0.4922
  C        -0.02069          0.00826         0.02976
  C         0.02012          0.01687         1.34904
  H         0.90068         -0.16333        -0.53739
  H         0.94880          0.02512         1.89367
  H        -0.88027         -0.20140         1.94238
  C        -1.28922          0.00275        -0.76728
  H        -1.08254         -0.00075        -1.83378
  H        -1.88788         -0.87450        -0.52537
  H        -1.88871          0.88260        -0.53652
9
 step=          48     theta[rad]=           0.5027
  C        -0.02069          0.01098         0.02976
  C         0.02012          0.02242         1.34904
  H         0.90068         -0.21702        -0.53739
  H         0.94880          0.03338         1.89367
  H        -0.88027         -0.26760         1.94238
  C        -1.28922          0.00366        -0.76728
  H        -1.08254         -0.00100        -1.83378
  H        -1.88775         -0.87317        -0.52353
  H        -1.88884          0.88394        -0.53835
9
 step=          49     theta[rad]=           0.5131
  C        -0.02069          0.01095         0.02976
  C         0.02012          0.02236         1.34904
  H         0.90068         -0.21642        -0.53739
  H         0.94880          0.03329         1.89367
  H        -0.88027         -0.26686         1.94238
  C        -1.28922          0.00365        -0.76728
  H        -1.08254         -0.00099        -1.83378
  H        -1.88775         -0.87319        -0.52355
  H        -1.88884          0.88392        -0.53833
9
 step=          50     theta[rad]=           0.5236
  C        -0.02069          0.00801         0.02976
  C         0.02012          0.01637         1.34904
  H         0.90068         -0.15843        -0.53739
  H         0.94880          0.02437         1.89367
  H        -0.88027         -0.19536         1.94238
  C        -1.28922          0.00267        -0.76728
  H        -1.08254         -0.00073        -1.83378
  H        -1.88789         -0.87462        -0.52553
  H        -1.88869          0.88248        -0.53635
9
 step=          51     theta[rad]=           0.5341
  C        -0.02069          0.00282         0.02976
  C         0.02012          0.00576         1.34904
  H         0.90068         -0.05572        -0.53739
  H         0.94880          0.00857         1.89367
  H        -0.88027         -0.06871         1.94238
  C        -1.28922          0.00094        -0.76728
  H        -1.08254         -0.00026        -1.83378
  H        -1.88815         -0.87717        -0.52904
  H        -1.88843          0.87994        -0.53285
9
 step=          52     theta[rad]=           0.5445
  C        -0.02069         -0.00328         0.02976
  C         0.02012         -0.00669         1.34904
  H         0.90068          0.06476        -0.53739
  H         0.94880         -0.00996         1.89367
  H        -0.88027          0.07985         1.94238
  C        -1.28922         -0.00109        -0.76728
  H        -1.08254          0.00030        -1.83378
  H        -1.88846         -0.88016        -0.53315
  H        -1.88813          0.87695        -0.52873
9
 step=          53     theta[rad]=           0.5550
  C        -0.02069         -0.00850         0.02976
  C         0.02012         -0.01736         1.34904
  H         0.90068          0.16807        -0.53739
  H         0.94880         -0.02585         1.89367
  H        -0.88027          0.20724         1.94238
  C        -1.28922         -0.00283        -0.76728
  H        -1.08254          0.00077        -1.83378
  H        -1.88872         -0.88272        -0.53668
  H        -1.88787          0.87439        -0.52520
9
 step=          54     theta[rad]=           0.5655
  C        -0.02069         -0.01119         0.02976
  C         0.02012         -0.02286         1.34904
  H         0.90068          0.22130        -0.53739
  H         0.94880         -0.03404         1.89367
  H        -0.88027          0.27288         1.94238
  C        -1.28922         -0.00373        -0.76728
  H        -1.08254          0.00101        -1.83378
  H        -1.88885         -0.88404        -0.53850
  H        -1.88774          0.87307        -0.52339
9
 step=          55     theta[rad]=           0.5760
  C        -0.02069         -0.01035         0.02976
  C         0.02012         -0.02114         1.34904
  H         0.90068          0.20468        -0.53739
  H         0.94880         -0.03148         1.89367
  H        -0.88027          0.25239         1.94238
  C        -1.28922         -0.00345        -0.76728
  H        -1.08254          0.00094        -1.83378
  H        -1.88881         -0.88363        -0.53793
  H        -1.88778          0.87348        -0.52395
9
 step=          56     theta[rad]=           0.5864
  C        -0.02069         -0.00607         0.02976
  C         0.02012         -0.01240         1.34904
  H         0.90068          0.12005        -0.53739
  H         0.94880         -0.01847         1.89367
  H        -0.88027          0.14804         1.94238
  C        -1.28922         -0.00202        -0.76728
  H        -1.08254          0.00055        -1.83378
  H        -1.88860         -0.88153        -0.53504
  H        -1.88799          0.87558        -0.52684
9
 step=          57     theta[rad]=           0.5969
  C        -0.02069          0.00036         0.02976
  C         0.02012          0.00073         1.34904
  H         0.90068         -0.00704        -0.53739
  H         0.94880          0.00108         1.89367
  H        -0.88027         -0.00868         1.94238
  C        -1.28922          0.00012        -0.76728
  H        -1.08254         -0.00003        -1.83378
  H        -1.88828         -0.87838        -0.53070
  H        -1.88831          0.87873        -0.53118
9
 step=          58     theta[rad]=           0.6074
  C        -0.02069          0.00676         0.02976
  C         0.02012          0.01380         1.34904
  H         0.90068         -0.13359        -0.53739
  H         0.94880          0.02055         1.89367
  H        -0.88027         -0.16472         1.94238
  C        -1.28922          0.00225        -0.76728
  H        -1.08254         -0.00061        -1.83378
  H        -1.88796         -0.87524        -0.52638
  H        -1.88863          0.88187        -0.53550
9
 step=          59     theta[rad]=           0.6178
  C        -0.02069          0.01078         0.02976
  C         0.02012          0.02201         1.34904
  H         0.90068         -0.21309        -0.53739
  H         0.94880          0.03278         1.89367
  H        -0.88027         -0.26276         1.94238
  C        -1.28922          0.00359        -0.76728
  H        -1.08254         -0.00098        -1.83378
  H        -1.88776         -0.87327        -0.52367
  H        -1.88883          0.88384        -0.53822
9
 step=          60     theta[rad]=           0.6283
  C        -0.02069          0.01078         0.02976
  C         0.02012          0.02201         1.34904
  H         0.90068         -0.21309        -0.53739
  H         0.94880          0.03278         1.89367
  H        -0.88027         -0.26276         1.94238
  C        -1.28922          0.00359        -0.76728
  H        -1.08254         -0.00098        -1.83378
  H        -1.88776         -0.87327        -0.52367
  H        -1.88883          0.88384        -0.53822
9
 step=          61     theta[rad]=           0.6388
  C        -0.02069          0.00657         0.02976
  C         0.02012          0.01341         1.34904
  H         0.90068         -0.12979        -0.53739
  H         0.94880          0.01996         1.89367
  H        -0.88027         -0.16004         1.94238
  C        -1.28922          0.00219        -0.76728
  H        -1.08254         -0.00060        -1.83378
  H        -1.88797         -0.87533        -0.52651
  H        -1.88862          0.88177        -0.53537
9
 step=          62     theta[rad]=           0.6493
  C        -0.02069         -0.00036         0.02976
  C         0.02012         -0.00073         1.34904
  H         0.90068          0.00704        -0.53739
  H         0.94880         -0.00108         1.89367
  H        -0.88027          0.00868         1.94238
  C        -1.28922         -0.00012        -0.76728
  H        -1.08254          0.00003        -1.83378
  H        -1.88831         -0.87873        -0.53118
  H        -1.88828          0.87838        -0.53070
9
 step=          63     theta[rad]=           0.6597
  C        -0.02069         -0.00722         0.02976
  C         0.02012         -0.01475         1.34904
  H         0.90068          0.14282        -0.53739
  H         0.94880         -0.02197         1.89367
  H        -0.88027          0.17611         1.94238
  C        -1.28922         -0.00241        -0.76728
  H        -1.08254          0.00066        -1.83378
  H        -1.88865         -0.88210        -0.53582
  H        -1.88793          0.87501        -0.52607
9
 step=          64     theta[rad]=           0.6702
  C        -0.02069         -0.01109         0.02976
  C         0.02012         -0.02264         1.34904
  H         0.90068          0.21916        -0.53739
  H         0.94880         -0.03371         1.89367
  H        -0.88027          0.27024         1.94238
  C        -1.28922         -0.00369        -0.76728
  H        -1.08254          0.00101        -1.83378
  H        -1.88885         -0.88399        -0.53843
  H        -1.88774          0.87312        -0.52346
9
 step=          65     theta[rad]=           0.6807
  C        -0.02069         -0.01010         0.02976
  C         0.02012         -0.02062         1.34904
  H         0.90068          0.19963        -0.53739
  H         0.94880         -0.03071         1.89367
  H        -0.88027          0.24617         1.94238
  C        -1.28922         -0.00336        -0.76728
  H        -1.08254          0.00092        -1.83378
  H        -1.88880         -0.88350        -0.53776
  H        -1.88779          0.87360        -0.52413
9
 step=          66     theta[rad]=           0.6912
  C        -0.02069         -0.00450         0.02976
  C         0.02012         -0.00919         1.34904
  H         0.90068          0.08898        -0.53739
  H         0.94880         -0.01369         1.89367
  H        -0.88027          0.10972         1.94238
  C        -1.28922         -0.00150        -0.76728
  H        -1.08254          0.00041        -1.83378
  H        -1.88852         -0.88076        -0.53398
  H        -1.88807          0.87635        -0.52790
9
 step=          67     theta[rad]=           0.7016
  C        -0.02069          0.00328         0.02976
  C         0.02012          0.00669         1.34904
  H         0.90068         -0.06476        -0.53739
  H         0.94880          0.00996         1.89367
  H        -0.88027         -0.07985         1.94238
  C        -1.28922          0.00109        -0.76728
  H        -1.08254         -0.00030        -1.83378
  H        -1.88813         -0.87695        -0.52873
  H        -1.88846          0.88016        -0.53315
9
 step=          68     theta[rad]=           0.7121
  C        -0.02069          0.00957         0.02976
  C         0.02012          0.01954         1.34904
  H         0.90068         -0.18918        -0.53739
  H         0.94880          0.02910         1.89367
  H        -0.88027         -0.23327         1.94238
  C        -1.28922          0.00319        -0.76728
  H        -1.08254         -0.00087        -1.83378
  H        -1.88782         -0.87386        -0.52448
  H        -1.88877          0.88325        -0.53740
9
 step=          69     theta[rad]=           0.7226
  C        -0.02069          0.01119         0.02976
  C         0.02012          0.02286         1.34904
  H         0.90068         -0.22130        -0.53739
  H         0.94880          0.03404         1.89367
  H        -0.88027         -0.27288         1.94238
  C        -1.28922          0.00373        -0.76728
  H        -1.08254         -0.00101        -1.83378
  H        -1.88774         -0.87307        -0.52339
  H        -1.88885          0.88404        -0.53850
9
 step=          70     theta[rad]=           0.7330
  C        -0.02069          0.00713         0.02976
  C         0.02012          0.01456         1.34904
  H         0.90068         -0.14100        -0.53739
  H         0.94880          0.02169         1.89367
  H        -0.88027         -0.17387         1.94238
  C        -1.28922          0.00237        -0.76728
  H        -1.08254         -0.00065        -1.83378
  H        -1.88794         -0.87506        -0.52613
  H        -1.88865          0.88205        -0.53576
9
 step=          71     theta[rad]=           0.7435
  C        -0.02069         -0.00071         0.02976
  C         0.02012         -0.00145         1.34904
  H         0.90068          0.01407        -0.53739
  H         0.94880         -0.00216         1.89367
  H        -0.88027          0.01735         1.94238
  C        -1.28922         -0.00024        -0.76728
  H        -1.08254          0.00006        -1.83378
  H        -1.88833         -0.87890        -0.53142
  H        -1.88826          0.87820        -0.53046
9
 step=          72     theta[rad]=           0.7540
  C        -0.02069         -0.00826         0.02976
  C         0.02012         -0.01687         1.34904
  H         0.90068          0.16333        -0.53739
  H         0.94880         -0.02512         1.89367
  H        -0.88027          0.20140         1.94238
  C        -1.28922         -0.00275        -0.76728
  H        -1.08254          0.00075        -1.83378
  H        -1.88871         -0.88260        -0.53652
  H        -1.88788          0.87450        -0.52537
9
 step=          73     theta[rad]=           0.7645
  C        -0.02069         -0.01133         0.02976
  C         0.02012         -0.02314         1.34904
  H         0.90068          0.22404        -0.53739
  H         0.94880         -0.03446         1.89367
  H        -0.88027          0.27626         1.94238
  C        -1.28922         -0.00377        -0.76728
  H        -1.08254          0.00103        -1.83378
  H        -1.88886         -0.88411        -0.53859
  H        -1.88773          0.87300        -0.52329
9
 step=          74     theta[rad]=           0.7749
  C        -0.02069         -0.00801         0.02976
  C         0.02012         -0.01636         1.34904
  H         0.90068          0.15843        -0.53739
  H         0.94880         -0.02437         1.89367
  H        -0.88027          0.19536         1.94238
  C        -1.28922         -0.00267        -0.76728
  H        -1.08254          0.00073        -1.83378
  H        -1.88869         -0.88248        -0.53635
  H        -1.88789          0.87462        -0.52553
9
 step=          75     theta[rad]=           0.7854
  C        -0.02069         -0.00000         0.02976
  C         0.02012          0.00000         1.34904
  H         0.90068         -0.00000        -0.53739
  H         0.94880         -0.00000         1.89367
  H        -0.88027          0.00000         1.94238
  C        -1.28922         -0.00000        -0.76728
  H        -1.08254          0.00000        -1.83378
  H        -1.88829         -0.87855        -0.53094
  H        -1.88829          0.87855        -0.53094
9
 step=          76     theta[rad]=           0.7959
  C        -0.02069          0.00810         0.02976
  C         0.02012          0.01654         1.34904
  H         0.90068         -0.16008        -0.53739
  H         0.94880          0.02462         1.89367
  H        -0.88027         -0.19739         1.94238
  C        -1.28922          0.00270        -0.76728
  H        -1.08254         -0.00073        -1.83378
  H        -1.88789         -0.87458        -0.52548
  H        -1.88870          0.88252        -0.53641
9
 step=          77     theta[rad]=           0.8063
  C        -0.02069          0.01133         0.02976
  C         0.02012          0.02313         1.34904
  H         0.90068         -0.22394        -0.53739
  H         0.94880          0.03445         1.89367
  H        -0.88027         -0.27614         1.94238
  C        -1.28922          0.00377        -0.76728
  H        -1.08254         -0.00103        -1.83378
  H        -1.88773         -0.87300        -0.52330
  H        -1.88886          0.88411        -0.53859
9
 step=          78     theta[rad]=           0.8168
  C        -0.02069          0.00749         0.02976
  C         0.02012          0.01531         1.34904
  H         0.90068         -0.14817        -0.53739
  H         0.94880          0.02279         1.89367
  H        -0.88027         -0.18271         1.94238
  C        -1.28922          0.00250        -0.76728
  H        -1.08254         -0.00068        -1.83378
  H        -1.88792         -0.87488        -0.52588
  H        -1.88867          0.88223        -0.53600
9
 step=          79     theta[rad]=           0.8273
  C        -0.02069         -0.00118         0.02976
  C         0.02012         -0.00242         1.34904
  H         0.90068          0.02342        -0.53739
  H         0.94880         -0.00360         1.89367
  H        -0.88027          0.02888         1.94238
  C        -1.28922         -0.00039        -0.76728
  H        -1.08254          0.00011        -1.83378
  H        -1.88835         -0.87913        -0.53174
  H        -1.88823          0.87797        -0.53014
9
 step=          80     theta[rad]=           0.8378
  C        -0.02069         -0.00917         0.02976
  C         0.02012         -0.01872         1.34904
  H         0.90068          0.18126        -0.53739
  H         0.94880         -0.02788         1.89367
  H        -0.88027          0.22351         1.94238
  C        -1.28922         -0.00305        -0.76728
  H        -1.08254          0.00083        -1.83378
  H        -1.88875         -0.88305        -0.53713
  H        -1.88784          0.87406        -0.52475
9
 step=          81     theta[rad]=           0.8482
  C        -0.02069         -0.01106         0.02976
  C         0.02012         -0.02259         1.34904
  H         0.90068          0.21866        -0.53739
  H         0.94880         -0.03363         1.89367
  H        -0.88027          0.26962         1.94238
  C        -1.28922         -0.00368        -0.76728
  H        -1.08254          0.00100        -1.83378
  H        -1.88884         -0.88398        -0.53841
  H        -1.88774          0.87313        -0.52348
9
 step=          82     theta[rad]=           0.8587
  C        -0.02069         -0.00536         0.02976
  C         0.02012         -0.01094         1.34904
  H         0.90068          0.10588        -0.53739
  H         0.94880         -0.01629         1.89367
  H        -0.88027          0.13056         1.94238
  C        -1.28922         -0.00178        -0.76728
  H        -1.08254          0.00049        -1.83378
  H        -1.88856         -0.88118        -0.53456
  H        -1.88803          0.87593        -0.52733
9
 step=          83     theta[rad]=           0.8692
  C        -0.02069          0.00417         0.02976
  C         0.02012          0.00852         1.34904
  H         0.90068         -0.08248        -0.53739
  H         0.94880          0.01269         1.89367
  H        -0.88027         -0.10170         1.94238
  C        -1.28922          0.00139        -0.76728
  H        -1.08254         -0.00038        -1.83378
  H        -1.88809         -0.87651        -0.52813
  H        -1.88850          0.88060        -0.53376
9
 step=          84     theta[rad]=           0.8796
  C        -0.02069          0.01078         0.02976
  C         0.02012          0.02201         1.34904
  H         0.90068         -0.21309        -0.53739
  H         0.94880          0.03278         1.89367
  H        -0.88027         -0.26276         1.94238
  C        -1.28922          0.00359        -0.76728
  H        -1.08254         -0.00098        -1.83378
  H        -1.88776         -0.87327        -0.52367
  H        -1.88883          0.88384        -0.53822
9
 step=          85     theta[rad]=           0.8901
  C        -0.02069          0.00950         0.02976
  C         0.02012          0.01941         1.34904
  H         0.90068         -0.18791        -0.53739
  H         0.94880          0.02890         1.89367
  H        -0.88027         -0.23171         1.94238
  C        -1.28922          0.00316        -0.76728
  H        -1.08254         -0.00086        -1.83378
  H        -1.88782         -0.87389        -0.52453
  H        -1.88877          0.88321        -0.53736
9
 step=          86     theta[rad]=           0.9006
  C        -0.02069          0.00107         0.02976
  C         0.02012          0.00218         1.34904
  H         0.90068         -0.02109        -0.53739
  H         0.94880          0.00324         1.89367
  H        -0.88027         -0.02600         1.94238
  C        -1.28922          0.00036        -0.76728
  H        -1.08254         -0.00010        -1.83378
  H        -1.88824         -0.87803        -0.53022
  H        -1.88835          0.87908        -0.53166
9
 step=          87     theta[rad]=           0.9111
  C        -0.02069         -0.00826         0.02976
  C         0.02012         -0.01687         1.34904
  H         0.90068          0.16333        -0.53739
  H         0.94880         -0.02512         1.89367
  H        -0.88027          0.20140         1.94238
  C        -1.28922         -0.00275        -0.76728
  H        -1.08254          0.00075        -1.83378
  H        -1.88871         -0.88260        -0.53652
  H        -1.88788          0.87450        -0.52537
9
 step=          88     theta[rad]=           0.9215
  C        -0.02069         -0.01117         0.02976
  C         0.02012         -0.02282         1.34904
  H         0.90068          0.22092        -0.53739
  H         0.94880         -0.03398         1.89367
  H        -0.88027          0.27241         1.94238
  C        -1.28922         -0.00372        -0.76728
  H        -1.08254          0.00101        -1.83378
  H        -1.88885         -0.88403        -0.53849
  H        -1.88774          0.87307        -0.52340
9
 step=          89     theta[rad]=           0.9320
  C        -0.02069         -0.00515         0.02976
  C         0.02012         -0.01051         1.34904
  H         0.90068          0.10172        -0.53739
  H         0.94880         -0.01565         1.89367
  H        -0.88027          0.12543         1.94238
  C        -1.28922         -0.00171        -0.76728
  H        -1.08254          0.00047        -1.83378
  H        -1.88855         -0.88108        -0.53442
  H        -1.88804          0.87603        -0.52747
9
 step=          90     theta[rad]=           0.9425
  C        -0.02069          0.00515         0.02976
  C         0.02012          0.01051         1.34904
  H         0.90068         -0.10172        -0.53739
  H         0.94880          0.01565         1.89367
  H        -0.88027         -0.12543         1.94238
  C        -1.28922          0.00171        -0.76728
  H        -1.08254         -0.00047        -1.83378
  H        -1.88804         -0.87603        -0.52747
  H        -1.88855          0.88108        -0.53442
9
 step=          91     theta[rad]=           0.9529
  C        -0.02069          0.01121         0.02976
  C         0.02012          0.02290         1.34904
  H         0.90068         -0.22165        -0.53739
  H         0.94880          0.03409         1.89367
  H        -0.88027         -0.27331         1.94238
  C        -1.28922          0.00373        -0.76728
  H        -1.08254         -0.00102        -1.83378
  H        -1.88773         -0.87306        -0.52337
  H        -1.88885          0.88405        -0.53851
9
 step=          92     theta[rad]=           0.9634
  C        -0.02069          0.00776         0.02976
  C         0.02012          0.01584         1.34904
  H         0.90068         -0.15338        -0.53739
  H         0.94880          0.02359         1.89367
  H        -0.88027         -0.18912         1.94238
  C        -1.28922          0.00258        -0.76728
  H        -1.08254         -0.00070        -1.83378
  H        -1.88791         -0.87475        -0.52571
  H        -1.88868          0.88236        -0.53618
9
 step=          93     theta[rad]=           0.9739
  C        -0.02069         -0.00247         0.02976
  C         0.02012         -0.00505         1.34904
  H         0.90068          0.04888        -0.53739
  H         0.94880         -0.00752         1.89367
  H        -0.88027          0.06027         1.94238
  C        -1.28922         -0.00082        -0.76728
  H        -1.08254          0.00022        -1.83378
  H        -1.88842         -0.87977        -0.53261
  H        -1.88817          0.87734        -0.52927
9
 step=          94     theta[rad]=           0.9844
  C        -0.02069         -0.01058         0.02976
  C         0.02012         -0.02161         1.34904
  H         0.90068          0.20917        -0.53739
  H         0.94880         -0.03217         1.89367
  H        -0.88027          0.25793         1.94238
  C        -1.28922         -0.00352        -0.76728
  H        -1.08254          0.00096        -1.83378
  H        -1.88882         -0.88374        -0.53808
  H        -1.88777          0.87337        -0.52380
9
 step=          95     theta[rad]=           0.9948
  C        -0.02069         -0.00917         0.02976
  C         0.02012         -0.01872         1.34904
  H         0.90068          0.18126        -0.53739
  H         0.94880         -0.02788         1.89367
  H        -0.88027          0.22351         1.94238
  C        -1.28922         -0.00305        -0.76728
  H        -1.08254          0.00083        -1.83378
  H        -1.88875         -0.88305        -0.53713
  H        -1.88784          0.87406        -0.52475
9
 step=          96     theta[rad]=           1.0053
  C        -0.02069          0.00071         0.02976
  C         0.02012          0.00145         1.34904
  H         0.90068         -0.01407        -0.53739
  H         0.94880          0.00216         1.89367
  H        -0.88027         -0.01735         1.94238
  C        -1.28922          0.00024        -0.76728
  H        -1.08254         -0.00006        -1.83378
  H        -1.88826         -0.87820        -0.53046
  H        -1.88833          0.87890        -0.53142
9
 step=          97     theta[rad]=           1.0158
  C        -0.02069          0.00999         0.02976
  C         0.02012          0.02040         1.34904
  H         0.90068         -0.19746        -0.53739
  H         0.94880          0.03037         1.89367
  H        -0.88027         -0.24348         1.94238
  C        -1.28922          0.00333        -0.76728
  H        -1.08254         -0.00091        -1.83378
  H        -1.88780         -0.87366        -0.52420
  H        -1.88879          0.88345        -0.53768
9
 step=          98     theta[rad]=           1.0263
  C        -0.02069          0.00976         0.02976
  C         0.02012          0.01992         1.34904
  H         0.90068         -0.19285        -0.53739
  H         0.94880          0.02966         1.89367
  H        -0.88027         -0.23780         1.94238
  C        -1.28922          0.00325        -0.76728
  H        -1.08254         -0.00088        -1.83378
  H        -1.88781         -0.87377        -0.52436
  H        -1.88878          0.88334        -0.53753
9
 step=          99     theta[rad]=           1.0367
  C        -0.02069         -0.00000         0.02976
  C         0.02012          0.00000         1.34904
  H         0.90068         -0.00000        -0.53739
  H         0.94880         -0.00000         1.89367
  H        -0.88027          0.00000         1.94238
  C        -1.28922         -0.00000        -0.76728
  H        -1.08254          0.00000        -1.83378
  H        -1.88829         -0.87855        -0.53094
  H        -1.88829          0.87855        -0.53094
9
 step=         100     theta[rad]=           1.0472
  C        -0.02069         -0.00982         0.02976
  C         0.02012         -0.02004         1.34904
  H         0.90068          0.19404        -0.53739
  H         0.94880         -0.02985         1.89367
  H        -0.88027          0.23926         1.94238
  C        -1.28922         -0.00327        -0.76728
  H        -1.08254          0.00089        -1.83378
  H        -1.88878         -0.88337        -0.53757
  H        -1.88780          0.87374        -0.52432
9
 step=         101     theta[rad]=           1.0577
  C        -0.02069         -0.00976         0.02976
  C         0.02012         -0.01992         1.34904
  H         0.90068          0.19285        -0.53739
  H         0.94880         -0.02966         1.89367
  H        -0.88027          0.23780         1.94238
  C        -1.28922         -0.00325        -0.76728
  H        -1.08254          0.00088        -1.83378
  H        -1.88878         -0.88334        -0.53753
  H        -1.88781          0.87377        -0.52436
9
 step=         102     theta[rad]=           1.0681
  C        -0.02069          0.00036         0.02976
  C         0.02012          0.00073         1.34904
  H         0.90068         -0.00704        -0.53739
  H         0.94880          0.00108         1.89367
  H        -0.88027         -0.00868         1.94238
  C        -1.28922          0.00012        -0.76728
  H        -1.08254         -0.00003        -1.83378
  H        -1.88828         -0.87838        -0.53070
  H        -1.88831          0.87873        -0.53118
9
 step=         103     theta[rad]=           1.0786
  C        -0.02069          0.01015         0.02976
  C         0.02012          0.02073         1.34904
  H         0.90068         -0.20069        -0.53739
  H         0.94880          0.03087         1.89367
  H        -0.88027         -0.24747         1.94238
  C        -1.28922          0.00338        -0.76728
  H        -1.08254         -0.00092        -1.83378
  H        -1.88779         -0.87358        -0.52409
  H        -1.88880          0.88353        -0.53779
9
 step=         104     theta[rad]=           1.0891
  C        -0.02069          0.00917         0.02976
  C         0.02012          0.01872         1.34904
  H         0.90068         -0.18126        -0.53739
  H         0.94880          0.02788         1.89367
  H        -0.88027         -0.22351         1.94238
  C        -1.28922          0.00305        -0.76728
  H        -1.08254         -0.00083        -1.83378
  H        -1.88784         -0.87406        -0.52475
  H        -1.88875          0.88305        -0.53713
9
 step=         105     theta[rad]=           1.0996
  C        -0.02069         -0.00177         0.02976
  C         0.02012         -0.00362         1.34904
  H         0.90068          0.03505        -0.53739
  H         0.94880         -0.00539         1.89367
  H        -0.88027          0.04322         1.94238
  C        -1.28922         -0.00059        -0.76728
  H        -1.08254          0.00016        -1.83378
  H        -1.88838         -0.87942        -0.53214
  H        -1.88820          0.87768        -0.52975
9
 step=         106     theta[rad]=           1.1100
  C        -0.02069         -0.01081         0.02976
  C         0.02012         -0.02208         1.34904
  H         0.90068          0.21380        -0.53739
  H         0.94880         -0.03289         1.89367
  H        -0.88027          0.26364         1.94238
  C        -1.28922         -0.00360        -0.76728
  H        -1.08254          0.00098        -1.83378
  H        -1.88883         -0.88386        -0.53824
  H        -1.88775          0.87325        -0.52364
9
 step=         107     theta[rad]=           1.1205
  C        -0.02069         -0.00776         0.02976
  C         0.02012         -0.01584         1.34904
  H         0.90068          0.15338        -0.53739
  H         0.94880         -0.02359         1.89367
  H        -0.88027          0.18913         1.94238
  C        -1.28922         -0.00258        -0.76728
  H        -1.08254          0.00070        -1.83378
  H        -1.88868         -0.88236        -0.53618
  H        -1.88791          0.87475        -0.52571
9
 step=         108     theta[rad]=           1.1310
  C        -0.02069          0.00417         0.02976
  C         0.02012          0.00852         1.34904
  H         0.90068         -0.08248        -0.53739
  H         0.94880          0.01269         1.89367
  H        -0.88027         -0.10170         1.94238
  C        -1.28922          0.00139        -0.76728
  H        -1.08254         -0.00038        -1.83378
  H        -1.88809         -0.87651        -0.52813
  H        -1.88850          0.88060        -0.53376
9
 step=         109     theta[rad]=           1.1414
  C        -0.02069          0.01132         0.02976
  C         0.02012          0.02311         1.34904
  H         0.90068         -0.22375        -0.53739
  H         0.94880          0.03442         1.89367
  H        -0.88027         -0.27590         1.94238
  C        -1.28922          0.00377        -0.76728
  H        -1.08254         -0.00103        -1.83378
  H        -1.88773         -0.87300        -0.52330
  H        -1.88886          0.88410        -0.53858
9
 step=         110     theta[rad]=           1.1519
  C        -0.02069          0.00515         0.02976
  C         0.02012          0.01051         1.34904
  H         0.90068         -0.10172        -0.53739
  H         0.94880          0.01565         1.89367
  H        -0.88027         -0.12543         1.94238
  C        -1.28922          0.00171        -0.76728
  H        -1.08254         -0.00047        -1.83378
  H        -1.88804         -0.87603        -0.52747
  H        -1.88855          0.88108        -0.53442
9
 step=         111     theta[rad]=           1.1624
  C        -0.02069         -0.00722         0.02976
  C         0.02012         -0.01475         1.34904
  H         0.90068          0.14282        -0.53739
  H         0.94880         -0.02197         1.89367
  H        -0.88027          0.17611         1.94238
  C        -1.28922         -0.00241        -0.76728
  H        -1.08254          0.00066        -1.83378
  H        -1.88865         -0.88210        -0.53582
  H        -1.88793          0.87501        -0.52607
9
 step=         112     theta[rad]=           1.1729
  C        -0.02069         -0.01085         0.02976
  C         0.02012         -0.02216         1.34904
  H         0.90068          0.21449        -0.53739
  H         0.94880         -0.03299         1.89367
  H        -0.88027          0.26449         1.94238
  C        -1.28922         -0.00361        -0.76728
  H        -1.08254          0.00098        -1.83378
  H        -1.88883         -0.88387        -0.53827
  H        -1.88775          0.87323        -0.52362
9
 step=         113     theta[rad]=           1.1833
  C        -0.02069         -0.00107         0.02976
  C         0.02012         -0.00218         1.34904
  H         0.90068          0.02109        -0.53739
  H         0.94880         -0.00324         1.89367
  H        -0.88027          0.02600         1.94238
  C        -1.28922         -0.00036        -0.76728
  H        -1.08254          0.00010        -1.83378
  H        -1.88835         -0.87908        -0.53166
  H        -1.88824          0.87803        -0.53022
9
 step=         114     theta[rad]=           1.1938
  C        -0.02069          0.01010         0.02976
  C         0.02012          0.02062         1.34904
  H         0.90068         -0.19963        -0.53739
  H         0.94880          0.03071         1.89367
  H        -0.88027         -0.24617         1.94238
  C        -1.28922          0.00336        -0.76728
  H        -1.08254         -0.00092        -1.83378
  H        -1.88779         -0.87360        -0.52413
  H        -1.88880          0.88350        -0.53776
9
 step=         115     theta[rad]=           1.2043
  C        -0.02069          0.00842         0.02976
  C         0.02012          0.01720         1.34904
  H         0.90068         -0.16651        -0.53739
  H         0.94880          0.02561         1.89367
  H        -0.88027         -0.20531         1.94238
  C        -1.28922          0.00280        -0.76728
  H        -1.08254         -0.00076        -1.83378
  H        -1.88787         -0.87442        -0.52526
  H        -1.88871          0.88268        -0.53663
9
 step=         116     theta[rad]=           1.2147
  C        -0.02069         -0.00417         0.02976
  C         0.02012         -0.00852         1.34904
  H         0.90068          0.08248        -0.53739
  H         0.94880         -0.01269         1.89367
  H        -0.88027          0.10170         1.94238
  C        -1.28922         -0.00139        -0.76728
  H        -1.08254          0.00038        -1.83378
  H        -1.88850         -0.88060        -0.53376
  H        -1.88809          0.87651        -0.52813
9
 step=         117     theta[rad]=           1.2252
  C        -0.02069         -0.01133         0.02976
  C         0.02012         -0.02313         1.34904
  H         0.90068          0.22394        -0.53739
  H         0.94880         -0.03445         1.89367
  H        -0.88027          0.27614         1.94238
  C        -1.28922         -0.00377        -0.76728
  H        -1.08254          0.00103        -1.83378
  H        -1.88886         -0.88411        -0.53859
  H        -1.88773          0.87300        -0.52330
9
 step=         118     theta[rad]=           1.2357
  C        -0.02069         -0.00339         0.02976
  C         0.02012         -0.00692         1.34904
  H         0.90068          0.06700        -0.53739
  H         0.94880         -0.01031         1.89367
  H        -0.88027          0.08262         1.94238
  C        -1.28922         -0.00113        -0.76728
  H        -1.08254          0.00031        -1.83378
  H        -1.88846         -0.88022        -0.53323
  H        -1.88812          0.87689        -0.52865
9
 step=         119     theta[rad]=           1.2462
  C        -0.02069          0.00917         0.02976
  C         0.02012          0.01872         1.34904
  H         0.90068         -0.18126        -0.53739
  H         0.94880          0.02788         1.89367
  H        -0.88027         -0.22351         1.94238
  C        -1.28922          0.00305        -0.76728
  H        -1.08254         -0.00083        -1.83378
  H        -1.88784         -0.87406        -0.52475
  H        -1.88875          0.88305        -0.53713
9
 step=         120     theta[rad]=           1.2566
  C        -0.02069          0.00917         0.02976
  C         0.02012          0.01872         1.34904
  H         0.90068         -0.18126        -0.53739
  H         0.94880          0.02788         1.89367
  H        -0.88027         -0.22351         1.94238
  C        -1.28922          0.00305        -0.76728
  H        -1.08254         -0.00083        -1.83378
  H        -1.88784         -0.87406        -0.52475
  H        -1.88875          0.88305        -0.53713
9
 step=         121     theta[rad]=           1.2671
  C        -0.02069         -0.00361         0.02976
  C         0.02012         -0.00738         1.34904
  H         0.90068          0.07146        -0.53739
  H         0.94880         -0.01099         1.89367
  H        -0.88027          0.08812         1.94238
  C        -1.28922         -0.00120        -0.76728
  H        -1.08254          0.00033        -1.83378
  H        -1.88847         -0.88033        -0.53338
  H        -1.88811          0.87678        -0.52850
9
 step=         122     theta[rad]=           1.2776
  C        -0.02069         -0.01133         0.02976
  C         0.02012         -0.02313         1.34904
  H         0.90068          0.22394        -0.53739
  H         0.94880         -0.03445         1.89367
  H        -0.88027          0.27614         1.94238
  C        -1.28922         -0.00377        -0.76728
  H        -1.08254          0.00103        -1.83378
  H        -1.88886         -0.88411        -0.53859
  H        -1.88773          0.87300        -0.52330
9
 step=         123     theta[rad]=           1.2881
  C        -0.02069         -0.00282         0.02976
  C         0.02012         -0.00576         1.34904
  H         0.90068          0.05572        -0.53739
  H         0.94880         -0.00857         1.89367
  H        -0.88027          0.06871         1.94238
  C        -1.28922         -0.00094        -0.76728
  H        -1.08254          0.00026        -1.83378
  H        -1.88843         -0.87994        -0.53285
  H        -1.88815          0.87717        -0.52904
9
 step=         124     theta[rad]=           1.2985
  C        -0.02069          0.00982         0.02976
  C         0.02012          0.02004         1.34904
  H         0.90068         -0.19404        -0.53739
  H         0.94880          0.02985         1.89367
  H        -0.88027         -0.23926         1.94238
  C        -1.28922          0.00327        -0.76728
  H        -1.08254         -0.00089        -1.83378
  H        -1.88780         -0.87374        -0.52432
  H        -1.88878          0.88337        -0.53757
9
 step=         125     theta[rad]=           1.3090
  C        -0.02069          0.00801         0.02976
  C         0.02012          0.01637         1.34904
  H         0.90068         -0.15843        -0.53739
  H         0.94880          0.02437         1.89367
  H        -0.88027         -0.19536         1.94238
  C        -1.28922          0.00267        -0.76728
  H        -1.08254         -0.00073        -1.83378
  H        -1.88789         -0.87462        -0.52553
  H        -1.88869          0.88248        -0.53635
9
 step=         126     theta[rad]=           1.3195
  C        -0.02069         -0.00577         0.02976
  C         0.02012         -0.01178         1.34904
  H         0.90068          0.11405        -0.53739
  H         0.94880         -0.01754         1.89367
  H        -0.88027          0.14064         1.94238
  C        -1.28922         -0.00192        -0.76728
  H        -1.08254          0.00052        -1.83378
  H        -1.88858         -0.88138        -0.53484
  H        -1.88801          0.87572        -0.52705
9
 step=         127     theta[rad]=           1.3299
  C        -0.02069         -0.01085         0.02976
  C         0.02012         -0.02216         1.34904
  H         0.90068          0.21449        -0.53739
  H         0.94880         -0.03299         1.89367
  H        -0.88027          0.26449         1.94238
  C        -1.28922         -0.00361        -0.76728
  H        -1.08254          0.00098        -1.83378
  H        -1.88883         -0.88387        -0.53827
  H        -1.88775          0.87323        -0.52362
9
 step=         128     theta[rad]=           1.3404
  C        -0.02069          0.00071         0.02976
  C         0.02012          0.00145         1.34904
  H         0.90068         -0.01407        -0.53739
  H         0.94880          0.00216         1.89367
  H        -0.88027         -0.01735         1.94238
  C        -1.28922          0.00024        -0.76728
  H        -1.08254         -0.00006        -1.83378
  H        -1.88826         -0.87820        -0.53046
  H        -1.88833          0.87890        -0.53142
9
 step=         129     theta[rad]=           1.3509
  C        -0.02069          0.01119         0.02976
  C         0.02012          0.02286         1.34904
  H         0.90068         -0.22130        -0.53739
  H         0.94880          0.03404         1.89367
  H        -0.88027         -0.27288         1.94238
  C        -1.28922          0.00373        -0.76728
  H        -1.08254         -0.00101        -1.83378
  H        -1.88774         -0.87307        -0.52339
  H        -1.88885          0.88404        -0.53850
9
 step=         130     theta[rad]=           1.3614
  C        -0.02069          0.00406         0.02976
  C         0.02012          0.00829         1.34904
  H         0.90068         -0.08029        -0.53739
  H         0.94880          0.01235         1.89367
  H        -0.88027         -0.09901         1.94238
  C        -1.28922          0.00135        -0.76728
  H        -1.08254         -0.00037        -1.83378
  H        -1.88809         -0.87656        -0.52820
  H        -1.88850          0.88054        -0.53368
9
 step=         131     theta[rad]=           1.3718
  C        -0.02069         -0.00957         0.02976
  C         0.02012         -0.01954         1.34904
  H         0.90068          0.18918        -0.53739
  H         0.94880         -0.02910         1.89367
  H        -0.88027          0.23327         1.94238
  C        -1.28922         -0.00319        -0.76728
  H        -1.08254          0.00087        -1.83378
  H        -1.88877         -0.88325        -0.53740
  H        -1.88782          0.87386        -0.52448
9
 step=         132     theta[rad]=           1.3823
  C        -0.02069         -0.00776         0.02976
  C         0.02012         -0.01584         1.34904
  H         0.90068          0.15338        -0.53739
  H         0.94880         -0.02359         1.89367
  H        -0.88027          0.18913         1.94238
  C        -1.28922         -0.00258        -0.76728
  H        -1.08254          0.00070        -1.83378
  H        -1.88868         -0.88236        -0.53618
  H        -1.88791          0.87475        -0.52571
9
 step=         133     theta[rad]=           1.3928
  C        -0.02069          0.00676         0.02976
  C         0.02012          0.01380         1.34904
  H         0.90068         -0.13359        -0.53739
  H         0.94880          0.02055         1.89367
  H        -0.88027         -0.16472         1.94238
  C        -1.28922          0.00225        -0.76728
  H        -1.08254         -0.00061        -1.83378
  H        -1.88796         -0.87524        -0.52638
  H        -1.88863          0.88187        -0.53550
9
 step=         134     theta[rad]=           1.4032
  C        -0.02069          0.01010         0.02976
  C         0.02012          0.02062         1.34904
  H         0.90068         -0.19963        -0.53739
  H         0.94880          0.03071         1.89367
  H        -0.88027         -0.24617         1.94238
  C        -1.28922          0.00336        -0.76728
  H        -1.08254         -0.00092        -1.83378
  H        -1.88779         -0.87360        -0.52413
  H        -1.88880          0.88350        -0.53776
9
 step=         135     theta[rad]=           1.4137
  C        -0.02069         -0.00350         0.02976
  C         0.02012         -0.00715         1.34904
  H         0.90068          0.06924        -0.53739
  H         0.94880         -0.01065         1.89367
  H        -0.88027          0.08537         1.94238
  C        -1.28922         -0.00117        -0.76728
  H        -1.08254          0.00032        -1.83378
  H        -1.88847         -0.88027        -0.53331
  H        -1.88812          0.87684        -0.52858
9
 step=         136     theta[rad]=           1.4242
  C        -0.02069         -0.01117         0.02976
  C         0.02012         -0.02282         1.34904
  H         0.90068          0.22092        -0.53739
  H         0.94880         -0.03398         1.89367
  H        -0.88027          0.27241         1.94238
  C        -1.28922         -0.00372        -0.76728
  H        -1.08254          0.00101        -1.83378
  H        -1.88885         -0.88403        -0.53849
  H        -1.88774          0.87307        -0.52340
9
 step=         137     theta[rad]=           1.4347
  C        -0.02069          0.00036         0.02976
  C         0.02012          0.00073         1.34904
  H         0.90068         -0.00704        -0.53739
  H         0.94880          0.00108         1.89367
  H        -0.88027         -0.00868         1.94238
  C        -1.28922          0.00012        -0.76728
  H        -1.08254         -0.00003        -1.83378
  H        -1.88828         -0.87838        -0.53070
  H        -1.88831          0.87873        -0.53118
9
 step=         138     theta[rad]=           1.4451
  C        -0.02069          0.01128         0.02976
  C         0.02012          0.02304         1.34904
  H         0.90068         -0.22306        -0.53739
  H         0.94880          0.03431         1.89367
  H        -0.88027         -0.27505         1.94238
  C        -1.28922          0.00376        -0.76728
  H        -1.08254         -0.00102        -1.83378
  H        -1.88773         -0.87302        -0.52333
  H        -1.88886          0.88409        -0.53856
9
 step=         139     theta[rad]=           1.4556
  C        -0.02069          0.00236         0.02976
  C         0.02012          0.00481         1.34904
  H         0.90068         -0.04658        -0.53739
  H         0.94880          0.00717         1.89367
  H        -0.88027         -0.05744         1.94238
  C        -1.28922          0.00078        -0.76728
  H        -1.08254         -0.00021        -1.83378
  H        -1.88818         -0.87740        -0.52935
  H        -1.88841          0.87971        -0.53253
9
 step=         140     theta[rad]=           1.4661
  C        -0.02069         -0.01078         0.02976
  C         0.02012         -0.02201         1.34904
  H         0.90068          0.21309        -0.53739
  H         0.94880         -0.03278         1.89367
  H        -0.88027          0.26276         1.94238
  C        -1.28922         -0.00359        -0.76728
  H        -1.08254          0.00098        -1.83378
  H        -1.88883         -0.88384        -0.53822
  H        -1.88776          0.87327        -0.52367
9
 step=         141     theta[rad]=           1.4765
  C        -0.02069         -0.00450         0.02976
  C         0.02012         -0.00919         1.34904
  H         0.90068          0.08898        -0.53739
  H         0.94880         -0.01369         1.89367
  H        -0.88027          0.10972         1.94238
  C        -1.28922         -0.00150        -0.76728
  H        -1.08254          0.00041        -1.83378
  H        -1.88852         -0.88076        -0.53398
  H        -1.88807          0.87635        -0.52790
9
 step=         142     theta[rad]=           1.4870
  C        -0.02069          0.00999         0.02976
  C         0.02012          0.02040         1.34904
  H         0.90068         -0.19746        -0.53739
  H         0.94880          0.03037         1.89367
  H        -0.88027         -0.24348         1.94238
  C        -1.28922          0.00333        -0.76728
  H        -1.08254         -0.00091        -1.83378
  H        -1.88780         -0.87366        -0.52420
  H        -1.88879          0.88345        -0.53768
9
 step=         143     theta[rad]=           1.4975
  C        -0.02069          0.00607         0.02976
  C         0.02012          0.01240         1.34904
  H         0.90068         -0.12005        -0.53739
  H         0.94880          0.01847         1.89367
  H        -0.88027         -0.14804         1.94238
  C        -1.28922          0.00202        -0.76728
  H        -1.08254         -0.00055        -1.83378
  H        -1.88799         -0.87558        -0.52684
  H        -1.88860          0.88153        -0.53504
9
 step=         144     theta[rad]=           1.5080
  C        -0.02069         -0.00917         0.02976
  C         0.02012         -0.01872         1.34904
  H         0.90068          0.18126        -0.53739
  H         0.94880         -0.02788         1.89367
  H        -0.88027          0.22351         1.94238
  C        -1.28922         -0.00305        -0.76728
  H        -1.08254          0.00083        -1.83378
  H        -1.88875         -0.88305        -0.53713
  H        -1.88784          0.87406        -0.52475
9
 step=         145     theta[rad]=           1.5184
  C        -0.02069         -0.00713         0.02976
  C         0.02012         -0.01456         1.34904
  H         0.90068          0.14100        -0.53739
  H         0.94880         -0.02169         1.89367
  H        -0.88027          0.17387         1.94238
  C        -1.28922         -0.00237        -0.76728
  H        -1.08254          0.00065        -1.83378
  H        -1.88865         -0.88205        -0.53576
  H        -1.88794          0.87506        -0.52613
9
 step=         146     theta[rad]=           1.5289
  C        -0.02069          0.00850         0.02976
  C         0.02012          0.01736         1.34904
  H         0.90068         -0.16807        -0.53739
  H         0.94880          0.02585         1.89367
  H        -0.88027         -0.20724         1.94238
  C        -1.28922          0.00283        -0.76728
  H        -1.08254         -0.00077        -1.83378
  H        -1.88787         -0.87439        -0.52520
  H        -1.88872          0.88272        -0.53668
9
 step=         147     theta[rad]=           1.5394
  C        -0.02069          0.00776         0.02976
  C         0.02012          0.01584         1.34904
  H         0.90068         -0.15338        -0.53739
  H         0.94880          0.02359         1.89367
  H        -0.88027         -0.18912         1.94238
  C        -1.28922          0.00258        -0.76728
  H        -1.08254         -0.00070        -1.83378
  H        -1.88791         -0.87475        -0.52571
  H        -1.88868          0.88236        -0.53618
9
 step=         148     theta[rad]=           1.5499
  C        -0.02069         -0.00810         0.02976
  C         0.02012         -0.01654         1.34904
  H         0.90068          0.16008        -0.53739
  H         0.94880         -0.02462         1.89367
  H        -0.88027          0.19739         1.94238
  C        -1.28922         -0.00270        -0.76728
  H        -1.08254          0.00073        -1.83378
  H        -1.88870         -0.88252        -0.53641
  H        -1.88789          0.87458        -0.52548
9
 step=         149     theta[rad]=           1.5603
  C        -0.02069         -0.00801         0.02976
  C         0.02012         -0.01636         1.34904
  H         0.90068          0.15843        -0.53739
  H         0.94880         -0.02437         1.89367
  H        -0.88027          0.19536         1.94238
  C        -1.28922         -0.00267        -0.76728
  H        -1.08254          0.00073        -1.83378
  H        -1.88869         -0.88248        -0.53635
  H        -1.88789          0.87462        -0.52553
9
 step=         150     theta[rad]=           1.5708
  C        -0.02069          0.00801         0.02976
  C         0.02012          0.01637         1.34904
  H         0.90068         -0.15843        -0.53739
  H         0.94880          0.02437         1.89367
  H        -0.88027         -0.19536         1.94238
  C        -1.28922          0.00267        -0.76728
  H        -1.08254         -0.00073        -1.83378
  H        -1.88789         -0.87462        -0.52553
  H        -1.88869          0.88248        -0.53635
9
 step=         151     theta[rad]=           1.5813
  C        -0.02069          0.00793         0.02976
  C         0.02012          0.01619         1.34904
  H         0.90068         -0.15676        -0.53739
  H         0.94880          0.02411         1.89367
  H        -0.88027         -0.19330         1.94238
  C        -1.28922          0.00264        -0.76728
  H        -1.08254         -0.00072        -1.83378
  H        -1.88790         -0.87467        -0.52559
  H        -1.88869          0.88244        -0.53630
9
 step=         152     theta[rad]=           1.5917
  C        -0.02069         -0.00826         0.02976
  C         0.02012         -0.01687         1.34904
  H         0.90068          0.16333        -0.53739
  H         0.94880         -0.02512         1.89367
  H        -0.88027          0.20140         1.94238
  C        -1.28922         -0.00275        -0.76728
  H        -1.08254          0.00075        -1.83378
  H        -1.88871         -0.88260        -0.53652
  H        -1.88788          0.87450        -0.52537
9
 step=         153     theta[rad]=           1.6022
  C        -0.02069         -0.00749         0.02976
  C         0.02012         -0.01531         1.34904
  H         0.90068          0.14817        -0.53739
  H         0.94880         -0.02279         1.89367
  H        -0.88027          0.18271         1.94238
  C        -1.28922         -0.00250        -0.76728
  H        -1.08254          0.00068        -1.83378
  H        -1.88867         -0.88223        -0.53600
  H        -1.88792          0.87488        -0.52588
9
 step=         154     theta[rad]=           1.6127
  C        -0.02069          0.00881         0.02976
  C         0.02012          0.01799         1.34904
  H         0.90068         -0.17412        -0.53739
  H         0.94880          0.02678         1.89367
  H        -0.88027         -0.21471         1.94238
  C        -1.28922          0.00293        -0.76728
  H        -1.08254         -0.00080        -1.83378
  H        -1.88785         -0.87424        -0.52500
  H        -1.88873          0.88287        -0.53689
9
 step=         155     theta[rad]=           1.6232
  C        -0.02069          0.00666         0.02976
  C         0.02012          0.01360         1.34904
  H         0.90068         -0.13170        -0.53739
  H         0.94880          0.02026         1.89367
  H        -0.88027         -0.16239         1.94238
  C        -1.28922          0.00222        -0.76728
  H        -1.08254         -0.00060        -1.83378
  H        -1.88796         -0.87529        -0.52645
  H        -1.88863          0.88182        -0.53544
9
 step=         156     theta[rad]=           1.6336
  C        -0.02069         -0.00957         0.02976
  C         0.02012         -0.01954         1.34904
  H         0.90068          0.18918        -0.53739
  H         0.94880         -0.02910         1.89367
  H        -0.88027          0.23327         1.94238
  C        -1.28922         -0.00319        -0.76728
  H        -1.08254          0.00087        -1.83378
  H        -1.88877         -0.88325        -0.53740
  H        -1.88782          0.87386        -0.52448
9
 step=         157     theta[rad]=           1.6441
  C        -0.02069         -0.00536         0.02976
  C         0.02012         -0.01094         1.34904
  H         0.90068          0.10588        -0.53739
  H         0.94880         -0.01629         1.89367
  H        -0.88027          0.13056         1.94238
  C        -1.28922         -0.00178        -0.76728
  H        -1.08254          0.00049        -1.83378
  H        -1.88856         -0.88118        -0.53456
  H        -1.88803          0.87593        -0.52733
9
 step=         158     theta[rad]=           1.6546
  C        -0.02069          0.01040         0.02976
  C         0.02012          0.02124         1.34904
  H         0.90068         -0.20563        -0.53739
  H         0.94880          0.03163         1.89367
  H        -0.88027         -0.25356         1.94238
  C        -1.28922          0.00346        -0.76728
  H        -1.08254         -0.00094        -1.83378
  H        -1.88777         -0.87345        -0.52392
  H        -1.88881          0.88365        -0.53796
9
 step=         159     theta[rad]=           1.6650
  C        -0.02069          0.00350         0.02976
  C         0.02012          0.00715         1.34904
  H         0.90068         -0.06924        -0.53739
  H         0.94880          0.01065         1.89367
  H        -0.88027         -0.08537         1.94238
  C        -1.28922          0.00117        -0.76728
  H        -1.08254         -0.00032        -1.83378
  H        -1.88812         -0.87684        -0.52858
  H        -1.88847          0.88027        -0.53331
9
 step=         160     theta[rad]=           1.6755
  C        -0.02069         -0.01109         0.02976
  C         0.02012         -0.02264         1.34904
  H         0.90068          0.21916        -0.53739
  H         0.94880         -0.03371         1.89367
  H        -0.88027          0.27024         1.94238
  C        -1.28922         -0.00369        -0.76728
  H        -1.08254          0.00101        -1.83378
  H        -1.88885         -0.88399        -0.53843
  H        -1.88774          0.87312        -0.52346
9
 step=         161     theta[rad]=           1.6860
  C        -0.02069         -0.00107         0.02976
  C         0.02012         -0.00218         1.34904
  H         0.90068          0.02109        -0.53739
  H         0.94880         -0.00324         1.89367
  H        -0.88027          0.02600         1.94238
  C        -1.28922         -0.00036        -0.76728
  H        -1.08254          0.00010        -1.83378
  H        -1.88835         -0.87908        -0.53166
  H        -1.88824          0.87803        -0.53022
9
 step=         162     theta[rad]=           1.6965
  C        -0.02069          0.01133         0.02976
  C         0.02012          0.02313         1.34904
  H         0.90068         -0.22394        -0.53739
  H         0.94880          0.03445         1.89367
  H        -0.88027         -0.27614         1.94238
  C        -1.28922          0.00377        -0.76728
  H        -1.08254         -0.00103        -1.83378
  H        -1.88773         -0.87300        -0.52330
  H        -1.88886          0.88411        -0.53859
9
 step=         163     theta[rad]=           1.7069
  C        -0.02069         -0.00189         0.02976
  C         0.02012         -0.00386         1.34904
  H         0.90068          0.03737        -0.53739
  H         0.94880         -0.00575         1.89367
  H        -0.88027          0.04607         1.94238
  C        -1.28922         -0.00063        -0.76728
  H        -1.08254          0.00017        -1.83378
  H        -1.88839         -0.87948        -0.53222
  H        -1.88820          0.87763        -0.52967
9
 step=         164     theta[rad]=           1.7174
  C        -0.02069         -0.01078         0.02976
  C         0.02012         -0.02201         1.34904
  H         0.90068          0.21309        -0.53739
  H         0.94880         -0.03278         1.89367
  H        -0.88027          0.26276         1.94238
  C        -1.28922         -0.00359        -0.76728
  H        -1.08254          0.00098        -1.83378
  H        -1.88883         -0.88384        -0.53822
  H        -1.88776          0.87327        -0.52367
9
 step=         165     theta[rad]=           1.7279
  C        -0.02069          0.00515         0.02976
  C         0.02012          0.01051         1.34904
  H         0.90068         -0.10172        -0.53739
  H         0.94880          0.01565         1.89367
  H        -0.88027         -0.12543         1.94238
  C        -1.28922          0.00171        -0.76728
  H        -1.08254         -0.00047        -1.83378
  H        -1.88804         -0.87603        -0.52747
  H        -1.88855          0.88108        -0.53442
9
 step=         166     theta[rad]=           1.7383
  C        -0.02069          0.00910         0.02976
  C         0.02012          0.01858         1.34904
  H         0.90068         -0.17988        -0.53739
  H         0.94880          0.02767         1.89367
  H        -0.88027         -0.22180         1.94238
  C        -1.28922          0.00303        -0.76728
  H        -1.08254         -0.00082        -1.83378
  H        -1.88784         -0.87409        -0.52480
  H        -1.88875          0.88301        -0.53708
9
 step=         167     theta[rad]=           1.7488
  C        -0.02069         -0.00826         0.02976
  C         0.02012         -0.01687         1.34904
  H         0.90068          0.16333        -0.53739
  H         0.94880         -0.02512         1.89367
  H        -0.88027          0.20140         1.94238
  C        -1.28922         -0.00275        -0.76728
  H        -1.08254          0.00075        -1.83378
  H        -1.88871         -0.88260        -0.53652
  H        -1.88788          0.87450        -0.52537
9
 step=         168     theta[rad]=           1.7593
  C        -0.02069         -0.00607         0.02976
  C         0.02012         -0.01240         1.34904
  H         0.90068          0.12005        -0.53739
  H         0.94880         -0.01847         1.89367
  H        -0.88027          0.14804         1.94238
  C        -1.28922         -0.00202        -0.76728
  H        -1.08254          0.00055        -1.83378
  H        -1.88860         -0.88153        -0.53504
  H        -1.88799          0.87558        -0.52684
9
 step=         169     theta[rad]=           1.7698
  C        -0.02069          0.01058         0.02976
  C         0.02012          0.02161         1.34904
  H         0.90068         -0.20917        -0.53739
  H         0.94880          0.03217         1.89367
  H        -0.88027         -0.25793         1.94238
  C        -1.28922          0.00352        -0.76728
  H        -1.08254         -0.00096        -1.83378
  H        -1.88777         -0.87337        -0.52380
  H        -1.88882          0.88374        -0.53808
9
 step=         170     theta[rad]=           1.7802
  C        -0.02069          0.00177         0.02976
  C         0.02012          0.00362         1.34904
  H         0.90068         -0.03505        -0.53739
  H         0.94880          0.00539         1.89367
  H        -0.88027         -0.04322         1.94238
  C        -1.28922          0.00059        -0.76728
  H        -1.08254         -0.00016        -1.83378
  H        -1.88820         -0.87768        -0.52975
  H        -1.88838          0.87942        -0.53214
9
 step=         171     theta[rad]=           1.7907
  C        -0.02069         -0.01131         0.02976
  C         0.02012         -0.02310         1.34904
  H         0.90068          0.22361        -0.53739
  H         0.94880         -0.03440         1.89367
  H        -0.88027          0.27573         1.94238
  C        -1.28922         -0.00377        -0.76728
  H        -1.08254          0.00103        -1.83378
  H        -1.88886         -0.88410        -0.53858
  H        -1.88773          0.87301        -0.52331
9
 step=         172     theta[rad]=           1.8012
  C        -0.02069          0.00328         0.02976
  C         0.02012          0.00669         1.34904
  H         0.90068         -0.06476        -0.53739
  H         0.94880          0.00996         1.89367
  H        -0.88027         -0.07985         1.94238
  C        -1.28922          0.00109        -0.76728
  H        -1.08254         -0.00030        -1.83378
  H        -1.88813         -0.87695        -0.52873
  H        -1.88846          0.88016        -0.53315
9
 step=         173     theta[rad]=           1.8117
  C        -0.02069          0.00976         0.02976
  C         0.02012          0.01992         1.34904
  H         0.90068         -0.19285        -0.53739
  H         0.94880          0.02966         1.89367
  H        -0.88027         -0.23780         1.94238
  C        -1.28922          0.00325        -0.76728
  H        -1.08254         -0.00088        -1.83378
  H        -1.88781         -0.87377        -0.52436
  H        -1.88878          0.88334        -0.53753
9
 step=         174     theta[rad]=           1.8221
  C        -0.02069         -0.00801         0.02976
  C         0.02012         -0.01636         1.34904
  H         0.90068          0.15843        -0.53739
  H         0.94880         -0.02437         1.89367
  H        -0.88027          0.19536         1.94238
  C        -1.28922         -0.00267        -0.76728
  H        -1.08254          0.00073        -1.83378
  H        -1.88869         -0.88248        -0.53635
  H        -1.88789          0.87462        -0.52553
9
 step=         175     theta[rad]=           1.8326
  C        -0.02069         -0.00567         0.02976
  C         0.02012         -0.01157         1.34904
  H         0.90068          0.11203        -0.53739
  H         0.94880         -0.01723         1.89367
  H        -0.88027          0.13814         1.94238
  C        -1.28922         -0.00189        -0.76728
  H        -1.08254          0.00051        -1.83378
  H        -1.88858         -0.88133        -0.53477
  H        -1.88801          0.87578        -0.52712
9
 step=         176     theta[rad]=           1.8431
  C        -0.02069          0.01098         0.02976
  C         0.02012          0.02242         1.34904
  H         0.90068         -0.21702        -0.53739
  H         0.94880          0.03338         1.89367
  H        -0.88027         -0.26760         1.94238
  C        -1.28922          0.00366        -0.76728
  H        -1.08254         -0.00100        -1.83378
  H        -1.88775         -0.87317        -0.52353
  H        -1.88884          0.88394        -0.53835
9
 step=         177     theta[rad]=           1.8535
  C        -0.02069         -0.00036         0.02976
  C         0.02012         -0.00073         1.34904
  H         0.90068          0.00704        -0.53739
  H         0.94880         -0.00108         1.89367
  H        -0.88027          0.00868         1.94238
  C        -1.28922         -0.00012        -0.76728
  H        -1.08254          0.00003        -1.83378
  H        -1.88831         -0.87873        -0.53118
  H        -1.88828          0.87838        -0.53070
9
 step=         178     theta[rad]=           1.8640
  C        -0.02069         -0.01074         0.02976
  C         0.02012         -0.02193         1.34904
  H         0.90068          0.21235        -0.53739
  H         0.94880         -0.03266         1.89367
  H        -0.88027          0.26185         1.94238
  C        -1.28922         -0.00358        -0.76728
  H        -1.08254          0.00097        -1.83378
  H        -1.88883         -0.88382        -0.53819
  H        -1.88776          0.87329        -0.52369
9
 step=         179     theta[rad]=           1.8745
  C        -0.02069          0.00666         0.02976
  C         0.02012          0.01360         1.34904
  H         0.90068         -0.13170        -0.53739
  H         0.94880          0.02026         1.89367
  H        -0.88027         -0.16239         1.94238
  C        -1.28922          0.00222        -0.76728
  H        -1.08254         -0.00060        -1.83378
  H        -1.88796         -0.87529        -0.52645
  H        -1.88863          0.88182        -0.53544
9
 step=         180     theta[rad]=           1.8850
  C        -0.02069          0.00666         0.02976
  C         0.02012          0.01360         1.34904
  H         0.90068         -0.13170        -0.53739
  H         0.94880          0.02026         1.89367
  H        -0.88027         -0.16239         1.94238
  C        -1.28922          0.00222        -0.76728
  H        -1.08254         -0.00060        -1.83378
  H        -1.88796         -0.87529        -0.52645
  H        -1.88863          0.88182        -0.53544
9
 step=         181     theta[rad]=           1.8954
  C        -0.02069         -0.01081         0.02976
  C         0.02012         -0.02208         1.34904
  H         0.90068          0.21380        -0.53739
  H         0.94880         -0.03289         1.89367
  H        -0.88027          0.26364         1.94238
  C        -1.28922         -0.00360        -0.76728
  H        -1.08254          0.00098        -1.83378
  H        -1.88883         -0.88386        -0.53824
  H        -1.88775          0.87325        -0.52364
9
 step=         182     theta[rad]=           1.9059
  C        -0.02069          0.00036         0.02976
  C         0.02012          0.00073         1.34904
  H         0.90068         -0.00704        -0.53739
  H         0.94880          0.00108         1.89367
  H        -0.88027         -0.00868         1.94238
  C        -1.28922          0.00012        -0.76728
  H        -1.08254         -0.00003        -1.83378
  H        -1.88828         -0.87838        -0.53070
  H        -1.88831          0.87873        -0.53118
9
 step=         183     theta[rad]=           1.9164
  C        -0.02069          0.01054         0.02976
  C         0.02012          0.02152         1.34904
  H         0.90068         -0.20832        -0.53739
  H         0.94880          0.03204         1.89367
  H        -0.88027         -0.25688         1.94238
  C        -1.28922          0.00351        -0.76728
  H        -1.08254         -0.00096        -1.83378
  H        -1.88777         -0.87339        -0.52383
  H        -1.88882          0.88372        -0.53806
9
 step=         184     theta[rad]=           1.9268
  C        -0.02069         -0.00758         0.02976
  C         0.02012         -0.01549         1.34904
  H         0.90068          0.14992        -0.53739
  H         0.94880         -0.02306         1.89367
  H        -0.88027          0.18487         1.94238
  C        -1.28922         -0.00253        -0.76728
  H        -1.08254          0.00069        -1.83378
  H        -1.88867         -0.88227        -0.53606
  H        -1.88792          0.87484        -0.52582
9
 step=         185     theta[rad]=           1.9373
  C        -0.02069         -0.00515         0.02976
  C         0.02012         -0.01051         1.34904
  H         0.90068          0.10172        -0.53739
  H         0.94880         -0.01565         1.89367
  H        -0.88027          0.12543         1.94238
  C        -1.28922         -0.00171        -0.76728
  H        -1.08254          0.00047        -1.83378
  H        -1.88855         -0.88108        -0.53442
  H        -1.88804          0.87603        -0.52747
9
 step=         186     theta[rad]=           1.9478
  C        -0.02069          0.01128         0.02976
  C         0.02012          0.02304         1.34904
  H         0.90068         -0.22306        -0.53739
  H         0.94880          0.03431         1.89367
  H        -0.88027         -0.27505         1.94238
  C        -1.28922          0.00376        -0.76728
  H        -1.08254         -0.00102        -1.83378
  H        -1.88773         -0.87302        -0.52333
  H        -1.88886          0.88409        -0.53856
9
 step=         187     theta[rad]=           1.9583
  C        -0.02069         -0.00328         0.02976
  C         0.02012         -0.00669         1.34904
  H         0.90068          0.06476        -0.53739
  H         0.94880         -0.00996         1.89367
  H        -0.88027          0.07985         1.94238
  C        -1.28922         -0.00109        -0.76728
  H        -1.08254          0.00030        -1.83378
  H        -1.88846         -0.88016        -0.53315
  H        -1.88813          0.87695        -0.52873
9
 step=         188     theta[rad]=           1.9687
  C        -0.02069         -0.00873         0.02976
  C         0.02012         -0.01783         1.34904
  H         0.90068          0.17264        -0.53739
  H         0.94880         -0.02655         1.89367
  H        -0.88027          0.21288         1.94238
  C        -1.28922         -0.00291        -0.76728
  H        -1.08254          0.00079        -1.83378
  H        -1.88873         -0.88283        -0.53684
  H        -1.88786          0.87427        -0.52505
9
 step=         189     theta[rad]=           1.9792
  C        -0.02069          0.01010         0.02976
  C         0.02012          0.02062         1.34904
  H         0.90068         -0.19963        -0.53739
  H         0.94880          0.03071         1.89367
  H        -0.88027         -0.24617         1.94238
  C        -1.28922          0.00336        -0.76728
  H        -1.08254         -0.00092        -1.83378
  H        -1.88779         -0.87360        -0.52413
  H        -1.88880          0.88350        -0.53776
9
 step=         190     theta[rad]=           1.9897
  C        -0.02069          0.00059         0.02976
  C         0.02012          0.00121         1.34904
  H         0.90068         -0.01173        -0.53739
  H         0.94880          0.00180         1.89367
  H        -0.88027         -0.01446         1.94238
  C        -1.28922          0.00020        -0.76728
  H        -1.08254         -0.00005        -1.83378
  H        -1.88826         -0.87826        -0.53054
  H        -1.88832          0.87884        -0.53134
9
 step=         191     theta[rad]=           2.0001
  C        -0.02069         -0.01054         0.02976
  C         0.02012         -0.02152         1.34904
  H         0.90068          0.20832        -0.53739
  H         0.94880         -0.03204         1.89367
  H        -0.88027          0.25688         1.94238
  C        -1.28922         -0.00351        -0.76728
  H        -1.08254          0.00096        -1.83378
  H        -1.88882         -0.88372        -0.53806
  H        -1.88777          0.87339        -0.52383
9
 step=         192     theta[rad]=           2.0106
  C        -0.02069          0.00826         0.02976
  C         0.02012          0.01687         1.34904
  H         0.90068         -0.16333        -0.53739
  H         0.94880          0.02512         1.89367
  H        -0.88027         -0.20140         1.94238
  C        -1.28922          0.00275        -0.76728
  H        -1.08254         -0.00075        -1.83378
  H        -1.88788         -0.87450        -0.52537
  H        -1.88871          0.88260        -0.53652
9
 step=         193     theta[rad]=           2.0211
  C        -0.02069          0.00339         0.02976
  C         0.02012          0.00692         1.34904
  H         0.90068         -0.06700        -0.53739
  H         0.94880          0.01031         1.89367
  H        -0.88027         -0.08262         1.94238
  C        -1.28922          0.00113        -0.76728
  H        -1.08254         -0.00031        -1.83378
  H        -1.88812         -0.87689        -0.52865
  H        -1.88846          0.88022        -0.53323
9
 step=         194     theta[rad]=           2.0316
  C        -0.02069         -0.01119         0.02976
  C         0.02012         -0.02286         1.34904
  H         0.90068          0.22130        -0.53739
  H         0.94880         -0.03404         1.89367
  H        -0.88027          0.27288         1.94238
  C        -1.28922         -0.00373        -0.76728
  H        -1.08254          0.00101        -1.83378
  H        -1.88885         -0.88404        -0.53850
  H        -1.88774          0.87307        -0.52339
9
 step=         195     theta[rad]=           2.0420
  C        -0.02069          0.00666         0.02976
  C         0.02012          0.01360         1.34904
  H         0.90068         -0.13170        -0.53739
  H         0.94880          0.02026         1.89367
  H        -0.88027         -0.16239         1.94238
  C        -1.28922          0.00222        -0.76728
  H        -1.08254         -0.00060        -1.83378
  H        -1.88796         -0.87529        -0.52645
  H        -1.88863          0.88182        -0.53544
9
 step=         196     theta[rad]=           2.0525
  C        -0.02069          0.00504         0.02976
  C         0.02012          0.01029         1.34904
  H         0.90068         -0.09962        -0.53739
  H         0.94880          0.01532         1.89367
  H        -0.88027         -0.12284         1.94238
  C        -1.28922          0.00168        -0.76728
  H        -1.08254         -0.00046        -1.83378
  H        -1.88804         -0.87608        -0.52754
  H        -1.88854          0.88102        -0.53434
9
 step=         197     theta[rad]=           2.0630
  C        -0.02069         -0.01133         0.02976
  C         0.02012         -0.02313         1.34904
  H         0.90068          0.22394        -0.53739
  H         0.94880         -0.03445         1.89367
  H        -0.88027          0.27614         1.94238
  C        -1.28922         -0.00377        -0.76728
  H        -1.08254          0.00103        -1.83378
  H        -1.88886         -0.88411        -0.53859
  H        -1.88773          0.87300        -0.52330
9
 step=         198     theta[rad]=           2.0735
  C        -0.02069          0.00577         0.02976
  C         0.02012          0.01178         1.34904
  H         0.90068         -0.11405        -0.53739
  H         0.94880          0.01754         1.89367
  H        -0.88027         -0.14064         1.94238
  C        -1.28922          0.00192        -0.76728
  H        -1.08254         -0.00052        -1.83378
  H        -1.88801         -0.87573        -0.52705
  H        -1.88858          0.88138        -0.53484
9
 step=         199     theta[rad]=           2.0839
  C        -0.02069          0.00567         0.02976
  C         0.02012          0.01157         1.34904
  H         0.90068         -0.11203        -0.53739
  H         0.94880          0.01723         1.89367
  H        -0.88027         -0.13814         1.94238
  C        -1.28922          0.00189        -0.76728
  H        -1.08254         -0.00051        -1.83378
  H        -1.88801         -0.87578        -0.52712
  H        -1.88858          0.88133        -0.53477
9
 step=         200     theta[rad]=           2.0944
  C        -0.02069         -0.01133         0.02976
  C         0.02012         -0.02314         1.34904
  H         0.90068          0.22405        -0.53739
  H         0.94880         -0.03446         1.89367
  H        -0.88027          0.27628         1.94238
  C        -1.28922         -0.00377        -0.76728
  H        -1.08254          0.00103        -1.83378
  H        -1.88886         -0.88411        -0.53859
  H        -1.88773          0.87300        -0.52329
9
 step=         201     theta[rad]=           2.1049
  C        -0.02069          0.00577         0.02976
  C         0.02012          0.01178         1.34904
  H         0.90068         -0.11405        -0.53739
  H         0.94880          0.01754         1.89367
  H        -0.88027         -0.14064         1.94238
  C        -1.28922          0.00192        -0.76728
  H        -1.08254         -0.00052        -1.83378
  H        -1.88801         -0.87573        -0.52705
  H        -1.88858          0.88138        -0.53484
9
 step=         202     theta[rad]=           2.1153
  C        -0.02069          0.00536         0.02976
  C         0.02012          0.01094         1.34904
  H         0.90068         -0.10588        -0.53739
  H         0.94880          0.01629         1.89367
  H        -0.88027         -0.13056         1.94238
  C        -1.28922          0.00178        -0.76728
  H        -1.08254         -0.00049        -1.83378
  H        -1.88803         -0.87593        -0.52733
  H        -1.88856          0.88118        -0.53456
9
 step=         203     theta[rad]=           2.1258
  C        -0.02069         -0.01131         0.02976
  C         0.02012         -0.02310         1.34904
  H         0.90068          0.22361        -0.53739
  H         0.94880         -0.03440         1.89367
  H        -0.88027          0.27573         1.94238
  C        -1.28922         -0.00377        -0.76728
  H        -1.08254          0.00103        -1.83378
  H        -1.88886         -0.88410        -0.53858
  H        -1.88773          0.87301        -0.52331
9
 step=         204     theta[rad]=           2.1363
  C        -0.02069          0.00666         0.02976
  C         0.02012          0.01360         1.34904
  H         0.90068         -0.13170        -0.53739
  H         0.94880          0.02026         1.89367
  H        -0.88027         -0.16239         1.94238
  C        -1.28922          0.00222        -0.76728
  H        -1.08254         -0.00060        -1.83378
  H        -1.88796         -0.87529        -0.52645
  H        -1.88863          0.88182        -0.53544
9
 step=         205     theta[rad]=           2.1468
  C        -0.02069          0.00406         0.02976
  C         0.02012          0.00829         1.34904
  H         0.90068         -0.08029        -0.53739
  H         0.94880          0.01235         1.89367
  H        -0.88027         -0.09901         1.94238
  C        -1.28922          0.00135        -0.76728
  H        -1.08254         -0.00037        -1.83378
  H        -1.88809         -0.87656        -0.52820
  H        -1.88850          0.88054        -0.53368
9
 step=         206     theta[rad]=           2.1572
  C        -0.02069         -0.01106         0.02976
  C         0.02012         -0.02259         1.34904
  H         0.90068          0.21866        -0.53739
  H         0.94880         -0.03363         1.89367
  H        -0.88027          0.26962         1.94238
  C        -1.28922         -0.00368        -0.76728
  H        -1.08254          0.00100        -1.83378
  H        -1.88884         -0.88398        -0.53841
  H        -1.88774          0.87313        -0.52348
9
 step=         207     theta[rad]=           2.1677
  C        -0.02069          0.00826         0.02976
  C         0.02012          0.01687         1.34904
  H         0.90068         -0.16333        -0.53739
  H         0.94880          0.02512         1.89367
  H        -0.88027         -0.20140         1.94238
  C        -1.28922          0.00275        -0.76728
  H        -1.08254         -0.00075        -1.83378
  H        -1.88788         -0.87450        -0.52537
  H        -1.88871          0.88260        -0.53652
9
 step=         208     theta[rad]=           2.1782
  C        -0.02069          0.00166         0.02976
  C         0.02012          0.00338         1.34904
  H         0.90068         -0.03273        -0.53739
  H         0.94880          0.00503         1.89367
  H        -0.88027         -0.04036         1.94238
  C        -1.28922          0.00055        -0.76728
  H        -1.08254         -0.00015        -1.83378
  H        -1.88821         -0.87774        -0.52983
  H        -1.88838          0.87937        -0.53206
9
 step=         209     theta[rad]=           2.1886
  C        -0.02069         -0.01010         0.02976
  C         0.02012         -0.02062         1.34904
  H         0.90068          0.19963        -0.53739
  H         0.94880         -0.03071         1.89367
  H        -0.88027          0.24617         1.94238
  C        -1.28922         -0.00336        -0.76728
  H        -1.08254          0.00092        -1.83378
  H        -1.88880         -0.88350        -0.53776
  H        -1.88779          0.87360        -0.52413
9
 step=         210     theta[rad]=           2.1991
  C        -0.02069          0.01010         0.02976
  C         0.02012          0.02062         1.34904
  H         0.90068         -0.19963        -0.53739
  H         0.94880          0.03071         1.89367
  H        -0.88027         -0.24617         1.94238
  C        -1.28922          0.00336        -0.76728
  H        -1.08254         -0.00092        -1.83378
  H        -1.88779         -0.87360        -0.52413
  H        -1.88880          0.88350        -0.53776
9
 step=         211     theta[rad]=           2.2096
  C        -0.02069         -0.00189         0.02976
  C         0.02012         -0.00386         1.34904
  H         0.90068          0.03737        -0.53739
  H         0.94880         -0.00575         1.89367
  H        -0.88027          0.04607         1.94238
  C        -1.28922         -0.00063        -0.76728
  H        -1.08254          0.00017        -1.83378
  H        -1.88839         -0.87948        -0.53222
  H        -1.88820          0.87763        -0.52967
9
 step=         212     theta[rad]=           2.2201
  C        -0.02069         -0.00776         0.02976
  C         0.02012         -0.01584         1.34904
  H         0.90068          0.15338        -0.53739
  H         0.94880         -0.02359         1.89367
  H        -0.88027          0.18913         1.94238
  C        -1.28922         -0.00258        -0.76728
  H        -1.08254          0.00070        -1.83378
  H        -1.88868         -0.88236        -0.53618
  H        -1.88791          0.87475        -0.52571
9
 step=         213     theta[rad]=           2.2305
  C        -0.02069          0.01128         0.02976
  C         0.02012          0.02304         1.34904
  H         0.90068         -0.22306        -0.53739
  H         0.94880          0.03431         1.89367
  H        -0.88027         -0.27505         1.94238
  C        -1.28922          0.00376        -0.76728
  H        -1.08254         -0.00102        -1.83378
  H        -1.88773         -0.87302        -0.52333
  H        -1.88886          0.88409        -0.53856
9
 step=         214     theta[rad]=           2.2410
  C        -0.02069         -0.00617         0.02976
  C         0.02012         -0.01260         1.34904
  H         0.90068          0.12203        -0.53739
  H         0.94880         -0.01877         1.89367
  H        -0.88027          0.15047         1.94238
  C        -1.28922         -0.00206        -0.76728
  H        -1.08254          0.00056        -1.83378
  H        -1.88860         -0.88158        -0.53511
  H        -1.88799          0.87553        -0.52678
9
 step=         215     theta[rad]=           2.2515
  C        -0.02069         -0.00350         0.02976
  C         0.02012         -0.00715         1.34904
  H         0.90068          0.06924        -0.53739
  H         0.94880         -0.01065         1.89367
  H        -0.88027          0.08537         1.94238
  C        -1.28922         -0.00117        -0.76728
  H        -1.08254          0.00032        -1.83378
  H        -1.88847         -0.88027        -0.53331
  H        -1.88812          0.87684        -0.52858
9
 step=         216     theta[rad]=           2.2619
  C        -0.02069          0.01054         0.02976
  C         0.02012          0.02152         1.34904
  H         0.90068         -0.20832        -0.53739
  H         0.94880          0.03204         1.89367
  H        -0.88027         -0.25688         1.94238
  C        -1.28922          0.00351        -0.76728
  H        -1.08254         -0.00096        -1.83378
  H        -1.88777         -0.87339        -0.52383
  H        -1.88882          0.88372        -0.53806
9
 step=         217     theta[rad]=           2.2724
  C        -0.02069         -0.00999         0.02976
  C         0.02012         -0.02040         1.34904
  H         0.90068          0.19746        -0.53739
  H         0.94880         -0.03037         1.89367
  H        -0.88027          0.24348         1.94238
  C        -1.28922         -0.00333        -0.76728
  H        -1.08254          0.00091        -1.83378
  H        -1.88879         -0.88345        -0.53768
  H        -1.88780          0.87366        -0.52420
9
 step=         218     theta[rad]=           2.2829
  C        -0.02069          0.00247         0.02976
  C         0.02012          0.00505         1.34904
  H         0.90068         -0.04888        -0.53739
  H         0.94880          0.00752         1.89367
  H        -0.88027         -0.06027         1.94238
  C        -1.28922          0.00082        -0.76728
  H        -1.08254         -0.00022        -1.83378
  H        -1.88817         -0.87734        -0.52927
  H        -1.88842          0.87977        -0.53261
9
 step=         219     theta[rad]=           2.2934
  C        -0.02069          0.00666         0.02976
  C         0.02012          0.01360         1.34904
  H         0.90068         -0.13170        -0.53739
  H         0.94880          0.02026         1.89367
  H        -0.88027         -0.16239         1.94238
  C        -1.28922          0.00222        -0.76728
  H        -1.08254         -0.00060        -1.83378
  H        -1.88796         -0.87529        -0.52645
  H        -1.88863          0.88182        -0.53544
9
 step=         220     theta[rad]=           2.3038
  C        -0.02069         -0.01127         0.02976
  C         0.02012         -0.02302         1.34904
  H         0.90068          0.22283        -0.53739
  H         0.94880         -0.03427         1.89367
  H        -0.88027          0.27476         1.94238
  C        -1.28922         -0.00375        -0.76728
  H        -1.08254          0.00102        -1.83378
  H        -1.88886         -0.88408        -0.53855
  H        -1.88773          0.87303        -0.52333
9
 step=         221     theta[rad]=           2.3143
  C        -0.02069          0.00850         0.02976
  C         0.02012          0.01736         1.34904
  H         0.90068         -0.16807        -0.53739
  H         0.94880          0.02585         1.89367
  H        -0.88027         -0.20724         1.94238
  C        -1.28922          0.00283        -0.76728
  H        -1.08254         -0.00077        -1.83378
  H        -1.88787         -0.87439        -0.52520
  H        -1.88872          0.88272        -0.53668
9
 step=         222     theta[rad]=           2.3248
  C        -0.02069         -0.00036         0.02976
  C         0.02012         -0.00073         1.34904
  H         0.90068          0.00704        -0.53739
  H         0.94880         -0.00108         1.89367
  H        -0.88027          0.00868         1.94238
  C        -1.28922         -0.00012        -0.76728
  H        -1.08254          0.00003        -1.83378
  H        -1.88831         -0.87873        -0.53118
  H        -1.88828          0.87838        -0.53070
9
 step=         223     theta[rad]=           2.3353
  C        -0.02069         -0.00793         0.02976
  C         0.02012         -0.01619         1.34904
  H         0.90068          0.15676        -0.53739
  H         0.94880         -0.02411         1.89367
  H        -0.88027          0.19330         1.94238
  C        -1.28922         -0.00264        -0.76728
  H        -1.08254          0.00072        -1.83378
  H        -1.88869         -0.88244        -0.53630
  H        -1.88790          0.87467        -0.52559
9
 step=         224     theta[rad]=           2.3457
  C        -0.02069          0.01133         0.02976
  C         0.02012          0.02314         1.34904
  H         0.90068         -0.22405        -0.53739
  H         0.94880          0.03446         1.89367
  H        -0.88027         -0.27628         1.94238
  C        -1.28922          0.00377        -0.76728
  H        -1.08254         -0.00103        -1.83378
  H        -1.88773         -0.87300        -0.52329
  H        -1.88886          0.88411        -0.53859
9
 step=         225     theta[rad]=           2.3562
  C        -0.02069         -0.00801         0.02976
  C         0.02012         -0.01636         1.34904
  H         0.90068          0.15843        -0.53739
  H         0.94880         -0.02437         1.89367
  H        -0.88027          0.19536         1.94238
  C        -1.28922         -0.00267        -0.76728
  H        -1.08254          0.00073        -1.83378
  H        -1.88869         -0.88248        -0.53635
  H        -1.88789          0.87462        -0.52553
9
 step=         226     theta[rad]=           2.3667
  C        -0.02069          0.00012         0.02976
  C         0.02012          0.00024         1.34904
  H         0.90068         -0.00235        -0.53739
  H         0.94880          0.00036         1.89367
  H        -0.88027         -0.00289         1.94238
  C        -1.28922          0.00004        -0.76728
  H        -1.08254         -0.00001        -1.83378
  H        -1.88829         -0.87850        -0.53086
  H        -1.88830          0.87861        -0.53102
9
 step=         227     theta[rad]=           2.3771
  C        -0.02069          0.00776         0.02976
  C         0.02012          0.01584         1.34904
  H         0.90068         -0.15338        -0.53739
  H         0.94880          0.02359         1.89367
  H        -0.88027         -0.18912         1.94238
  C        -1.28922          0.00258        -0.76728
  H        -1.08254         -0.00070        -1.83378
  H        -1.88791         -0.87475        -0.52571
  H        -1.88868          0.88236        -0.53618
9
 step=         228     theta[rad]=           2.3876
  C        -0.02069         -0.01131         0.02976
  C         0.02012         -0.02310         1.34904
  H         0.90068          0.22361        -0.53739
  H         0.94880         -0.03440         1.89367
  H        -0.88027          0.27573         1.94238
  C        -1.28922         -0.00377        -0.76728
  H        -1.08254          0.00103        -1.83378
  H        -1.88886         -0.88410        -0.53858
  H        -1.88773          0.87301        -0.52331
9
 step=         229     theta[rad]=           2.3981
  C        -0.02069          0.00881         0.02976
  C         0.02012          0.01799         1.34904
  H         0.90068         -0.17412        -0.53739
  H         0.94880          0.02678         1.89367
  H        -0.88027         -0.21471         1.94238
  C        -1.28922          0.00293        -0.76728
  H        -1.08254         -0.00080        -1.83378
  H        -1.88785         -0.87424        -0.52500
  H        -1.88873          0.88287        -0.53689
9
 step=         230     theta[rad]=           2.4086
  C        -0.02069         -0.00177         0.02976
  C         0.02012         -0.00362         1.34904
  H         0.90068          0.03505        -0.53739
  H         0.94880         -0.00539         1.89367
  H        -0.88027          0.04322         1.94238
  C        -1.28922         -0.00059        -0.76728
  H        -1.08254          0.00016        -1.83378
  H        -1.88838         -0.87942        -0.53214
  H        -1.88820          0.87768        -0.52975
9
 step=         231     theta[rad]=           2.4190
  C        -0.02069         -0.00607         0.02976
  C         0.02012         -0.01240         1.34904
  H         0.90068          0.12005        -0.53739
  H         0.94880         -0.01847         1.89367
  H        -0.88027          0.14804         1.94238
  C        -1.28922         -0.00202        -0.76728
  H        -1.08254          0.00055        -1.83378
  H        -1.88860         -0.88153        -0.53504
  H        -1.88799          0.87558        -0.52684
9
 step=         232     theta[rad]=           2.4295
  C        -0.02069          0.01085         0.02976
  C         0.02012          0.02216         1.34904
  H         0.90068         -0.21449        -0.53739
  H         0.94880          0.03299         1.89367
  H        -0.88027         -0.26449         1.94238
  C        -1.28922          0.00361        -0.76728
  H        -1.08254         -0.00098        -1.83378
  H        -1.88775         -0.87323        -0.52362
  H        -1.88883          0.88387        -0.53827
9
 step=         233     theta[rad]=           2.4400
  C        -0.02069         -0.01040         0.02976
  C         0.02012         -0.02124         1.34904
  H         0.90068          0.20563        -0.53739
  H         0.94880         -0.03163         1.89367
  H        -0.88027          0.25356         1.94238
  C        -1.28922         -0.00346        -0.76728
  H        -1.08254          0.00094        -1.83378
  H        -1.88881         -0.88365        -0.53796
  H        -1.88777          0.87345        -0.52392
9
 step=         234     theta[rad]=           2.4504
  C        -0.02069          0.00515         0.02976
  C         0.02012          0.01051         1.34904
  H         0.90068         -0.10172        -0.53739
  H         0.94880          0.01565         1.89367
  H        -0.88027         -0.12543         1.94238
  C        -1.28922          0.00171        -0.76728
  H        -1.08254         -0.00047        -1.83378
  H        -1.88804         -0.87603        -0.52747
  H        -1.88855          0.88108        -0.53442
9
 step=         235     theta[rad]=           2.4609
  C        -0.02069          0.00236         0.02976
  C         0.02012          0.00481         1.34904
  H         0.90068         -0.04658        -0.53739
  H         0.94880          0.00717         1.89367
  H        -0.88027         -0.05744         1.94238
  C        -1.28922          0.00078        -0.76728
  H        -1.08254         -0.00021        -1.83378
  H        -1.88818         -0.87740        -0.52935
  H        -1.88841          0.87971        -0.53253
9
 step=         236     theta[rad]=           2.4714
  C        -0.02069         -0.00873         0.02976
  C         0.02012         -0.01783         1.34904
  H         0.90068          0.17264        -0.53739
  H         0.94880         -0.02655         1.89367
  H        -0.88027          0.21288         1.94238
  C        -1.28922         -0.00291        -0.76728
  H        -1.08254          0.00079        -1.83378
  H        -1.88873         -0.88283        -0.53684
  H        -1.88786          0.87427        -0.52505
9
 step=         237     theta[rad]=           2.4819
  C        -0.02069          0.01133         0.02976
  C         0.02012          0.02313         1.34904
  H         0.90068         -0.22394        -0.53739
  H         0.94880          0.03445         1.89367
  H        -0.88027         -0.27614         1.94238
  C        -1.28922          0.00377        -0.76728
  H        -1.08254         -0.00103        -1.83378
  H        -1.88773         -0.87300        -0.52330
  H        -1.88886          0.88411        -0.53859
9
 step=         238     theta[rad]=           2.4923
  C        -0.02069         -0.00924         0.02976
  C         0.02012         -0.01887         1.34904
  H         0.90068          0.18263        -0.53739
  H         0.94880         -0.02809         1.89367
  H        -0.88027          0.22520         1.94238
  C        -1.28922         -0.00308        -0.76728
  H        -1.08254          0.00084        -1.83378
  H        -1.88875         -0.88308        -0.53718
  H        -1.88783          0.87402        -0.52471
9
 step=         239     theta[rad]=           2.5028
  C        -0.02069          0.00350         0.02976
  C         0.02012          0.00715         1.34904
  H         0.90068         -0.06924        -0.53739
  H         0.94880          0.01065         1.89367
  H        -0.88027         -0.08537         1.94238
  C        -1.28922          0.00117        -0.76728
  H        -1.08254         -0.00032        -1.83378
  H        -1.88812         -0.87684        -0.52858
  H        -1.88847          0.88027        -0.53331
9
 step=         240     theta[rad]=           2.5133
  C        -0.02069          0.00350         0.02976
  C         0.02012          0.00715         1.34904
  H         0.90068         -0.06924        -0.53739
  H         0.94880          0.01065         1.89367
  H        -0.88027         -0.08537         1.94238
  C        -1.28922          0.00117        -0.76728
  H        -1.08254         -0.00032        -1.83378
  H        -1.88812         -0.87684        -0.52858
  H        -1.88847          0.88027        -0.53331
9
 step=         241     theta[rad]=           2.5237
  C        -0.02069         -0.00910         0.02976
  C         0.02012         -0.01858         1.34904
  H         0.90068          0.17988        -0.53739
  H         0.94880         -0.02767         1.89367
  H        -0.88027          0.22180         1.94238
  C        -1.28922         -0.00303        -0.76728
  H        -1.08254          0.00083        -1.83378
  H        -1.88875         -0.88301        -0.53708
  H        -1.88784          0.87409        -0.52480
9
 step=         242     theta[rad]=           2.5342
  C        -0.02069          0.01133         0.02976
  C         0.02012          0.02313         1.34904
  H         0.90068         -0.22394        -0.53739
  H         0.94880          0.03445         1.89367
  H        -0.88027         -0.27614         1.94238
  C        -1.28922          0.00377        -0.76728
  H        -1.08254         -0.00103        -1.83378
  H        -1.88773         -0.87300        -0.52330
  H        -1.88886          0.88411        -0.53859
9
 step=         243     theta[rad]=           2.5447
  C        -0.02069         -0.00957         0.02976
  C         0.02012         -0.01954         1.34904
  H         0.90068          0.18918        -0.53739
  H         0.94880         -0.02910         1.89367
  H        -0.88027          0.23327         1.94238
  C        -1.28922         -0.00319        -0.76728
  H        -1.08254          0.00087        -1.83378
  H        -1.88877         -0.88325        -0.53740
  H        -1.88782          0.87386        -0.52448
9
 step=         244     theta[rad]=           2.5552
  C        -0.02069          0.00461         0.02976
  C         0.02012          0.00941         1.34904
  H         0.90068         -0.09113        -0.53739
  H         0.94880          0.01402         1.89367
  H        -0.88027         -0.11237         1.94238
  C        -1.28922          0.00153        -0.76728
  H        -1.08254         -0.00042        -1.83378
  H        -1.88806         -0.87629        -0.52783
  H        -1.88852          0.88081        -0.53405
9
 step=         245     theta[rad]=           2.5656
  C        -0.02069          0.00177         0.02976
  C         0.02012          0.00362         1.34904
  H         0.90068         -0.03505        -0.53739
  H         0.94880          0.00539         1.89367
  H        -0.88027         -0.04322         1.94238
  C        -1.28922          0.00059        -0.76728
  H        -1.08254         -0.00016        -1.83378
  H        -1.88820         -0.87768        -0.52975
  H        -1.88838          0.87942        -0.53214
9
 step=         246     theta[rad]=           2.5761
  C        -0.02069         -0.00749         0.02976
  C         0.02012         -0.01531         1.34904
  H         0.90068          0.14817        -0.53739
  H         0.94880         -0.02279         1.89367
  H        -0.88027          0.18271         1.94238
  C        -1.28922         -0.00250        -0.76728
  H        -1.08254          0.00068        -1.83378
  H        -1.88867         -0.88223        -0.53600
  H        -1.88792          0.87488        -0.52588
9
 step=         247     theta[rad]=           2.5866
  C        -0.02069          0.01085         0.02976
  C         0.02012          0.02216         1.34904
  H         0.90068         -0.21449        -0.53739
  H         0.94880          0.03299         1.89367
  H        -0.88027         -0.26449         1.94238
  C        -1.28922          0.00361        -0.76728
  H        -1.08254         -0.00098        -1.83378
  H        -1.88775         -0.87323        -0.52362
  H        -1.88883          0.88387        -0.53827
9
 step=         248     theta[rad]=           2.5970
  C        -0.02069         -0.01098         0.02976
  C         0.02012         -0.02242         1.34904
  H         0.90068          0.21702        -0.53739
  H         0.94880         -0.03338         1.89367
  H        -0.88027          0.26760         1.94238
  C        -1.28922         -0.00366        -0.76728
  H        -1.08254          0.00100        -1.83378
  H        -1.88884         -0.88394        -0.53835
  H        -1.88775          0.87317        -0.52353
9
 step=         249     theta[rad]=           2.6075
  C        -0.02069          0.00801         0.02976
  C         0.02012          0.01637         1.34904
  H         0.90068         -0.15843        -0.53739
  H         0.94880          0.02437         1.89367
  H        -0.88027         -0.19536         1.94238
  C        -1.28922          0.00267        -0.76728
  H        -1.08254         -0.00073        -1.83378
  H        -1.88789         -0.87462        -0.52553
  H        -1.88869          0.88248        -0.53635
9
 step=         250     theta[rad]=           2.6180
  C        -0.02069         -0.00293         0.02976
  C         0.02012         -0.00599         1.34904
  H         0.90068          0.05799        -0.53739
  H         0.94880         -0.00892         1.89367
  H        -0.88027          0.07151         1.94238
  C        -1.28922         -0.00098        -0.76728
  H        -1.08254          0.00027        -1.83378
  H        -1.88844         -0.87999        -0.53292
  H        -1.88815          0.87712        -0.52896
9
 step=         251     theta[rad]=           2.6285
  C        -0.02069         -0.00282         0.02976
  C         0.02012         -0.00576         1.34904
  H         0.90068          0.05572        -0.53739
  H         0.94880         -0.00857         1.89367
  H        -0.88027          0.06871         1.94238
  C        -1.28922         -0.00094        -0.76728
  H        -1.08254          0.00026        -1.83378
  H        -1.88843         -0.87994        -0.53285
  H        -1.88815          0.87717        -0.52904
9
 step=         252     theta[rad]=           2.6389
  C        -0.02069          0.00776         0.02976
  C         0.02012          0.01584         1.34904
  H         0.90068         -0.15338        -0.53739
  H         0.94880          0.02359         1.89367
  H        -0.88027         -0.18912         1.94238
  C        -1.28922          0.00258        -0.76728
  H        -1.08254         -0.00070        -1.83378
  H        -1.88791         -0.87475        -0.52571
  H        -1.88868          0.88236        -0.53618
9
 step=         253     theta[rad]=           2.6494
  C        -0.02069         -0.01074         0.02976
  C         0.02012         -0.02193         1.34904
  H         0.90068          0.21235        -0.53739
  H         0.94880         -0.03266         1.89367
  H        -0.88027          0.26185         1.94238
  C        -1.28922         -0.00358        -0.76728
  H        -1.08254          0.00097        -1.83378
  H        -1.88883         -0.88382        -0.53819
  H        -1.88776          0.87329        -0.52369
9
 step=         254     theta[rad]=           2.6599
  C        -0.02069          0.01119         0.02976
  C         0.02012          0.02286         1.34904
  H         0.90068         -0.22130        -0.53739
  H         0.94880          0.03404         1.89367
  H        -0.88027         -0.27288         1.94238
  C        -1.28922          0.00373        -0.76728
  H        -1.08254         -0.00101        -1.83378
  H        -1.88774         -0.87307        -0.52339
  H        -1.88885          0.88404        -0.53850
9
 step=         255     theta[rad]=           2.6704
  C        -0.02069         -0.00917         0.02976
  C         0.02012         -0.01872         1.34904
  H         0.90068          0.18126        -0.53739
  H         0.94880         -0.02788         1.89367
  H        -0.88027          0.22351         1.94238
  C        -1.28922         -0.00305        -0.76728
  H        -1.08254          0.00083        -1.83378
  H        -1.88875         -0.88305        -0.53713
  H        -1.88784          0.87406        -0.52475
9
 step=         256     theta[rad]=           2.6808
  C        -0.02069          0.00525         0.02976
  C         0.02012          0.01072         1.34904
  H         0.90068         -0.10380        -0.53739
  H         0.94880          0.01597         1.89367
  H        -0.88027         -0.12800         1.94238
  C        -1.28922          0.00175        -0.76728
  H        -1.08254         -0.00048        -1.83378
  H        -1.88803         -0.87598        -0.52740
  H        -1.88856          0.88113        -0.53449
9
 step=         257     theta[rad]=           2.6913
  C        -0.02069         -0.00036         0.02976
  C         0.02012         -0.00073         1.34904
  H         0.90068          0.00704        -0.53739
  H         0.94880         -0.00108         1.89367
  H        -0.88027          0.00868         1.94238
  C        -1.28922         -0.00012        -0.76728
  H        -1.08254          0.00003        -1.83378
  H        -1.88831         -0.87873        -0.53118
  H        -1.88828          0.87838        -0.53070
9
 step=         258     theta[rad]=           2.7018
  C        -0.02069         -0.00450         0.02976
  C         0.02012         -0.00919         1.34904
  H         0.90068          0.08898        -0.53739
  H         0.94880         -0.01369         1.89367
  H        -0.88027          0.10972         1.94238
  C        -1.28922         -0.00150        -0.76728
  H        -1.08254          0.00041        -1.83378
  H        -1.88852         -0.88076        -0.53398
  H        -1.88807          0.87635        -0.52790
9
 step=         259     theta[rad]=           2.7122
  C        -0.02069          0.00842         0.02976
  C         0.02012          0.01720         1.34904
  H         0.90068         -0.16651        -0.53739
  H         0.94880          0.02561         1.89367
  H        -0.88027         -0.20531         1.94238
  C        -1.28922          0.00280        -0.76728
  H        -1.08254         -0.00076        -1.83378
  H        -1.88787         -0.87442        -0.52526
  H        -1.88871          0.88268        -0.53663
9
 step=         260     theta[rad]=           2.7227
  C        -0.02069         -0.01078         0.02976
  C         0.02012         -0.02201         1.34904
  H         0.90068          0.21309        -0.53739
  H         0.94880         -0.03278         1.89367
  H        -0.88027          0.26276         1.94238
  C        -1.28922         -0.00359        -0.76728
  H        -1.08254          0.00098        -1.83378
  H        -1.88883         -0.88384        -0.53822
  H        -1.88776          0.87327        -0.52367
9
 step=         261     theta[rad]=           2.7332
  C        -0.02069          0.01128         0.02976
  C         0.02012          0.02304         1.34904
  H         0.90068         -0.22306        -0.53739
  H         0.94880          0.03431         1.89367
  H        -0.88027         -0.27505         1.94238
  C        -1.28922          0.00376        -0.76728
  H        -1.08254         -0.00102        -1.83378
  H        -1.88773         -0.87302        -0.52333
  H        -1.88886          0.88409        -0.53856
9
 step=         262     theta[rad]=           2.7437
  C        -0.02069         -0.00999         0.02976
  C         0.02012         -0.02040         1.34904
  H         0.90068          0.19746        -0.53739
  H         0.94880         -0.03037         1.89367
  H        -0.88027          0.24348         1.94238
  C        -1.28922         -0.00333        -0.76728
  H        -1.08254          0.00091        -1.83378
  H        -1.88879         -0.88345        -0.53768
  H        -1.88780          0.87366        -0.52420
9
 step=         263     theta[rad]=           2.7541
  C        -0.02069          0.00722         0.02976
  C         0.02012          0.01475         1.34904
  H         0.90068         -0.14282        -0.53739
  H         0.94880          0.02197         1.89367
  H        -0.88027         -0.17611         1.94238
  C        -1.28922          0.00241        -0.76728
  H        -1.08254         -0.00065        -1.83378
  H        -1.88793         -0.87501        -0.52607
  H        -1.88865          0.88210        -0.53582
9
 step=         264     theta[rad]=           2.7646
  C        -0.02069         -0.00350         0.02976
  C         0.02012         -0.00715         1.34904
  H         0.90068          0.06924        -0.53739
  H         0.94880         -0.01065         1.89367
  H        -0.88027          0.08537         1.94238
  C        -1.28922         -0.00117        -0.76728
  H        -1.08254          0.00032        -1.83378
  H        -1.88847         -0.88027        -0.53331
  H        -1.88812          0.87684        -0.52858
9
 step=         265     theta[rad]=           2.7751
  C        -0.02069         -0.00059         0.02976
  C         0.02012         -0.00121         1.34904
  H         0.90068          0.01173        -0.53739
  H         0.94880         -0.00180         1.89367
  H        -0.88027          0.01446         1.94238
  C        -1.28922         -0.00020        -0.76728
  H        -1.08254          0.00005        -1.83378
  H        -1.88832         -0.87884        -0.53134
  H        -1.88826          0.87826        -0.53054
9
 step=         266     theta[rad]=           2.7855
  C        -0.02069          0.00450         0.02976
  C         0.02012          0.00919         1.34904
  H         0.90068         -0.08898        -0.53739
  H         0.94880          0.01369         1.89367
  H        -0.88027         -0.10972         1.94238
  C        -1.28922          0.00150        -0.76728
  H        -1.08254         -0.00041        -1.83378
  H        -1.88807         -0.87635        -0.52790
  H        -1.88852          0.88076        -0.53398
9
 step=         267     theta[rad]=           2.7960
  C        -0.02069         -0.00776         0.02976
  C         0.02012         -0.01584         1.34904
  H         0.90068          0.15338        -0.53739
  H         0.94880         -0.02359         1.89367
  H        -0.88027          0.18913         1.94238
  C        -1.28922         -0.00258        -0.76728
  H        -1.08254          0.00070        -1.83378
  H        -1.88868         -0.88236        -0.53618
  H        -1.88791          0.87475        -0.52571
9
 step=         268     theta[rad]=           2.8065
  C        -0.02069          0.01004         0.02976
  C         0.02012          0.02051         1.34904
  H         0.90068         -0.19856        -0.53739
  H         0.94880          0.03054         1.89367
  H        -0.88027         -0.24484         1.94238
  C        -1.28922          0.00334        -0.76728
  H        -1.08254         -0.00091        -1.83378
  H        -1.88779         -0.87363        -0.52416
  H        -1.88879          0.88348        -0.53772
9
 step=         269     theta[rad]=           2.8170
  C        -0.02069         -0.01119         0.02976
  C         0.02012         -0.02286         1.34904
  H         0.90068          0.22130        -0.53739
  H         0.94880         -0.03404         1.89367
  H        -0.88027          0.27288         1.94238
  C        -1.28922         -0.00373        -0.76728
  H        -1.08254          0.00101        -1.83378
  H        -1.88885         -0.88404        -0.53850
  H        -1.88774          0.87307        -0.52339
9
 step=         270     theta[rad]=           2.8274
  C        -0.02069          0.01119         0.02976
  C         0.02012          0.02286         1.34904
  H         0.90068         -0.22130        -0.53739
  H         0.94880          0.03404         1.89367
  H        -0.88027         -0.27288         1.94238
  C        -1.28922          0.00373        -0.76728
  H        -1.08254         -0.00101        -1.83378
  H        -1.88774         -0.87307        -0.52339
  H        -1.88885          0.88404        -0.53850
9
 step=         271     theta[rad]=           2.8379
  C        -0.02069         -0.01015         0.02976
  C         0.02012         -0.02073         1.34904
  H         0.90068          0.20069        -0.53739
  H         0.94880         -0.03087         1.89367
  H        -0.88027          0.24747         1.94238
  C        -1.28922         -0.00338        -0.76728
  H        -1.08254          0.00092        -1.83378
  H        -1.88880         -0.88353        -0.53779
  H        -1.88779          0.87358        -0.52409
9
 step=         272     theta[rad]=           2.8484
  C        -0.02069          0.00826         0.02976
  C         0.02012          0.01687         1.34904
  H         0.90068         -0.16333        -0.53739
  H         0.94880          0.02512         1.89367
  H        -0.88027         -0.20140         1.94238
  C        -1.28922          0.00275        -0.76728
  H        -1.08254         -0.00075        -1.83378
  H        -1.88788         -0.87450        -0.52537
  H        -1.88871          0.88260        -0.53652
9
 step=         273     theta[rad]=           2.8588
  C        -0.02069         -0.00577         0.02976
  C         0.02012         -0.01178         1.34904
  H         0.90068          0.11405        -0.53739
  H         0.94880         -0.01754         1.89367
  H        -0.88027          0.14064         1.94238
  C        -1.28922         -0.00192        -0.76728
  H        -1.08254          0.00052        -1.83378
  H        -1.88858         -0.88138        -0.53484
  H        -1.88801          0.87572        -0.52705
9
 step=         274     theta[rad]=           2.8693
  C        -0.02069          0.00293         0.02976
  C         0.02012          0.00599         1.34904
  H         0.90068         -0.05799        -0.53739
  H         0.94880          0.00892         1.89367
  H        -0.88027         -0.07151         1.94238
  C        -1.28922          0.00098        -0.76728
  H        -1.08254         -0.00027        -1.83378
  H        -1.88815         -0.87712        -0.52896
  H        -1.88844          0.87999        -0.53292
9
 step=         275     theta[rad]=           2.8798
  C        -0.02069         -0.00000         0.02976
  C         0.02012          0.00000         1.34904
  H         0.90068         -0.00000        -0.53739
  H         0.94880         -0.00000         1.89367
  H        -0.88027          0.00000         1.94238
  C        -1.28922         -0.00000        -0.76728
  H        -1.08254          0.00000        -1.83378
  H        -1.88829         -0.87855        -0.53094
  H        -1.88829          0.87855        -0.53094
9
 step=         276     theta[rad]=           2.8903
  C        -0.02069         -0.00282         0.02976
  C         0.02012         -0.00576         1.34904
  H         0.90068          0.05572        -0.53739
  H         0.94880         -0.00857         1.89367
  H        -0.88027          0.06871         1.94238
  C        -1.28922         -0.00094        -0.76728
  H        -1.08254          0.00026        -1.83378
  H        -1.88843         -0.87994        -0.53285
  H        -1.88815          0.87717        -0.52904
9
 step=         277     theta[rad]=           2.9007
  C        -0.02069          0.00536         0.02976
  C         0.02012          0.01094         1.34904
  H         0.90068         -0.10588        -0.53739
  H         0.94880          0.01629         1.89367
  H        -0.88027         -0.13056         1.94238
  C        -1.28922          0.00178        -0.76728
  H        -1.08254         -0.00049        -1.83378
  H        -1.88803         -0.87593        -0.52733
  H        -1.88856          0.88118        -0.53456
9
 step=         278     theta[rad]=           2.9112
  C        -0.02069         -0.00749         0.02976
  C         0.02012         -0.01531         1.34904
  H         0.90068          0.14817        -0.53739
  H         0.94880         -0.02279         1.89367
  H        -0.88027          0.18271         1.94238
  C        -1.28922         -0.00250        -0.76728
  H        -1.08254          0.00068        -1.83378
  H        -1.88867         -0.88223        -0.53600
  H        -1.88792          0.87488        -0.52588
9
 step=         279     theta[rad]=           2.9217
  C        -0.02069          0.00917         0.02976
  C         0.02012          0.01872         1.34904
  H         0.90068         -0.18126        -0.53739
  H         0.94880          0.02788         1.89367
  H        -0.88027         -0.22351         1.94238
  C        -1.28922          0.00305        -0.76728
  H        -1.08254         -0.00083        -1.83378
  H        -1.88784         -0.87406        -0.52475
  H        -1.88875          0.88305        -0.53713
9
 step=         280     theta[rad]=           2.9322
  C        -0.02069         -0.01035         0.02976
  C         0.02012         -0.02114         1.34904
  H         0.90068          0.20468        -0.53739
  H         0.94880         -0.03148         1.89367
  H        -0.88027          0.25239         1.94238
  C        -1.28922         -0.00345        -0.76728
  H        -1.08254          0.00094        -1.83378
  H        -1.88881         -0.88363        -0.53793
  H        -1.88778          0.87348        -0.52395
9
 step=         281     theta[rad]=           2.9426
  C        -0.02069          0.01106         0.02976
  C         0.02012          0.02259         1.34904
  H         0.90068         -0.21866        -0.53739
  H         0.94880          0.03363         1.89367
  H        -0.88027         -0.26962         1.94238
  C        -1.28922          0.00368        -0.76728
  H        -1.08254         -0.00100        -1.83378
  H        -1.88774         -0.87313        -0.52348
  H        -1.88884          0.88398        -0.53841
9
 step=         282     theta[rad]=           2.9531
  C        -0.02069         -0.01133         0.02976
  C         0.02012         -0.02313         1.34904
  H         0.90068          0.22394        -0.53739
  H         0.94880         -0.03445         1.89367
  H        -0.88027          0.27614         1.94238
  C        -1.28922         -0.00377        -0.76728
  H        -1.08254          0.00103        -1.83378
  H        -1.88886         -0.88411        -0.53859
  H        -1.88773          0.87300        -0.52330
9
 step=         283     theta[rad]=           2.9636
  C        -0.02069          0.01121         0.02976
  C         0.02012          0.02290         1.34904
  H         0.90068         -0.22165        -0.53739
  H         0.94880          0.03409         1.89367
  H        -0.88027         -0.27331         1.94238
  C        -1.28922          0.00373        -0.76728
  H        -1.08254         -0.00102        -1.83378
  H        -1.88773         -0.87306        -0.52337
  H        -1.88885          0.88405        -0.53851
9
 step=         284     theta[rad]=           2.9740
  C        -0.02069         -0.01078         0.02976
  C         0.02012         -0.02201         1.34904
  H         0.90068          0.21309        -0.53739
  H         0.94880         -0.03278         1.89367
  H        -0.88027          0.26276         1.94238
  C        -1.28922         -0.00359        -0.76728
  H        -1.08254          0.00098        -1.83378
  H        -1.88883         -0.88384        -0.53822
  H        -1.88776          0.87327        -0.52367
9
 step=         285     theta[rad]=           2.9845
  C        -0.02069          0.01010         0.02976
  C         0.02012          0.02062         1.34904
  H         0.90068         -0.19963        -0.53739
  H         0.94880          0.03071         1.89367
  H        -0.88027         -0.24617         1.94238
  C        -1.28922          0.00336        -0.76728
  H        -1.08254         -0.00092        -1.83378
  H        -1.88779         -0.87360        -0.52413
  H        -1.88880          0.88350        -0.53776
9
 step=         286     theta[rad]=           2.9950
  C        -0.02069         -0.00924         0.02976
  C         0.02012         -0.01887         1.34904
  H         0.90068          0.18263        -0.53739
  H         0.94880         -0.02809         1.89367
  H        -0.88027          0.22520         1.94238
  C        -1.28922         -0.00308        -0.76728
  H        -1.08254          0.00084        -1.83378
  H        -1.88875         -0.88308        -0.53718
  H        -1.88783          0.87402        -0.52471
9
 step=         287     theta[rad]=           3.0055
  C        -0.02069          0.00826         0.02976
  C         0.02012          0.01687         1.34904
  H         0.90068         -0.16333        -0.53739
  H         0.94880          0.02512         1.89367
  H        -0.88027         -0.20140         1.94238
  C        -1.28922          0.00275        -0.76728
  H        -1.08254         -0.00075        -1.83378
  H        -1.88788         -0.87450        -0.52537
  H        -1.88871          0.88260        -0.53652
9
 step=         288     theta[rad]=           3.0159
  C        -0.02069         -0.00722         0.02976
  C         0.02012         -0.01475         1.34904
  H         0.90068          0.14282        -0.53739
  H         0.94880         -0.02197         1.89367
  H        -0.88027          0.17611         1.94238
  C        -1.28922         -0.00241        -0.76728
  H        -1.08254          0.00066        -1.83378
  H        -1.88865         -0.88210        -0.53582
  H        -1.88793          0.87501        -0.52607
9
 step=         289     theta[rad]=           3.0264
  C        -0.02069          0.00617         0.02976
  C         0.02012          0.01260         1.34904
  H         0.90068         -0.12203        -0.53739
  H         0.94880          0.01877         1.89367
  H        -0.88027         -0.15047         1.94238
  C        -1.28922          0.00206        -0.76728
  H        -1.08254         -0.00056        -1.83378
  H        -1.88799         -0.87553        -0.52678
  H        -1.88860          0.88158        -0.53511
9
 step=         290     theta[rad]=           3.0369
  C        -0.02069         -0.00515         0.02976
  C         0.02012         -0.01051         1.34904
  H         0.90068          0.10172        -0.53739
  H         0.94880         -0.01565         1.89367
  H        -0.88027          0.12543         1.94238
  C        -1.28922         -0.00171        -0.76728
  H        -1.08254          0.00047        -1.83378
  H        -1.88855         -0.88108        -0.53442
  H        -1.88804          0.87603        -0.52747
9
 step=         291     theta[rad]=           3.0473
  C        -0.02069          0.00417         0.02976
  C         0.02012          0.00852         1.34904
  H         0.90068         -0.08248        -0.53739
  H         0.94880          0.01269         1.89367
  H        -0.88027         -0.10170         1.94238
  C        -1.28922          0.00139        -0.76728
  H        -1.08254         -0.00038        -1.83378
  H        -1.88809         -0.87651        -0.52813
  H        -1.88850          0.88060        -0.53376
9
 step=         292     theta[rad]=           3.0578
  C        -0.02069         -0.00328         0.02976
  C         0.02012         -0.00669         1.34904
  H         0.90068          0.06476        -0.53739
  H         0.94880         -0.00996         1.89367
  H        -0.88027          0.07985         1.94238
  C        -1.28922         -0.00109        -0.76728
  H        -1.08254          0.00030        -1.83378
  H        -1.88846         -0.88016        -0.53315
  H        -1.88813          0.87695        -0.52873
9
 step=         293     theta[rad]=           3.0683
  C        -0.02069          0.00247         0.02976
  C         0.02012          0.00505         1.34904
  H         0.90068         -0.04888        -0.53739
  H         0.94880          0.00752         1.89367
  H        -0.88027         -0.06027         1.94238
  C        -1.28922          0.00082        -0.76728
  H        -1.08254         -0.00022        -1.83378
  H        -1.88817         -0.87734        -0.52927
  H        -1.88842          0.87977        -0.53261
9
 step=         294     theta[rad]=           3.0788
  C        -0.02069         -0.00177         0.02976
  C         0.02012         -0.00362         1.34904
  H         0.90068          0.03505        -0.53739
  H         0.94880         -0.00539         1.89367
  H        -0.88027          0.04322         1.94238
  C        -1.28922         -0.00059        -0.76728
  H        -1.08254          0.00016        -1.83378
  H        -1.88838         -0.87942        -0.53214
  H        -1.88820          0.87768        -0.52975
9
 step=         295     theta[rad]=           3.0892
  C        -0.02069          0.00118         0.02976
  C         0.02012          0.00242         1.34904
  H         0.90068         -0.02342        -0.53739
  H         0.94880          0.00360         1.89367
  H        -0.88027         -0.02888         1.94238
  C        -1.28922          0.00039        -0.76728
  H        -1.08254         -0.00011        -1.83378
  H        -1.88823         -0.87797        -0.53014
  H        -1.88835          0.87913        -0.53174
9
 step=         296     theta[rad]=           3.0997
  C        -0.02069         -0.00071         0.02976
  C         0.02012         -0.00145         1.34904
  H         0.90068          0.01407        -0.53739
  H         0.94880         -0.00216         1.89367
  H        -0.88027          0.01735         1.94238
  C        -1.28922         -0.00024        -0.76728
  H        -1.08254          0.00006        -1.83378
  H        -1.88833         -0.87890        -0.53142
  H        -1.88826          0.87820        -0.53046
9
 step=         297     theta[rad]=           3.1102
  C        -0.02069          0.00036         0.02976
  C         0.02012          0.00073         1.34904
  H         0.90068         -0.00704        -0.53739
  H         0.94880          0.00108         1.89367
  H        -0.88027         -0.00868         1.94238
  C        -1.28922          0.00012        -0.76728
  H        -1.08254         -0.00003        -1.83378
  H        -1.88828         -0.87838        -0.53070
  H        -1.88831          0.87873        -0.53118
9
 step=         298     theta[rad]=           3.1206
  C        -0.02069         -0.00012         0.02976
  C         0.02012         -0.00024         1.34904
  H         0.90068          0.00235        -0.53739
  H         0.94880         -0.00036         1.89367
  H        -0.88027          0.00289         1.94238
  C        -1.28922         -0.00004        -0.76728
  H        -1.08254          0.00001        -1.83378
  H        -1.88830         -0.87861        -0.53102
  H        -1.88829          0.87850        -0.53086
9
 step=         299     theta[rad]=           3.1311
  C        -0.02069         -0.00000         0.02976
  C         0.02012          0.00000         1.34904
  H         0.90068         -0.00000        -0.53739
  H         0.94880         -0.00000         1.89367
  H        -0.88027          0.00000         1.94238
  C        -1.28922         -0.00000        -0.76728
  H        -1.08254          0.00000        -1.83378
  H        -1.88829         -0.87855        -0.53094
  H        -1.88829          0.87855        -0.53094
9
 step=         300     theta[rad]=           3.1416
  C        -0.02069         -0.00000         0.02976
  C         0.02012          0.00000         1.34904
  H         0.90068         -0.00000        -0.53739
  H         0.94880         -0.00000         1.89367
  H        -0.88027          0.00000         1.94238
  C        -1.28922         -0.00000        -0.76728
  H        -1.08254          0.00000        -1.83378
  H        -1.88829         -0.87855        -0.53094
  H        -1.88829          0.87855        -0.53094
9
 step=         301     theta[rad]=           3.1521
  C        -0.02069          0.00012         0.02976
  C         0.02012          0.00024         1.34904
  H         0.90068         -0.00235        -0.53739
  H         0.94880          0.00036         1.89367
  H        -0.88027         -0.00289         1.94238
  C        -1.28922          0.00004        -0.76728
  H        -1.08254         -0.00001        -1.83378
  H        -1.88829         -0.87850        -0.53086
  H        -1.88830          0.87861        -0.53102
9
 step=         302     theta[rad]=           3.1625
  C        -0.02069         -0.00036         0.02976
  C         0.02012         -0.00073         1.34904
  H         0.90068          0.00704        -0.53739
  H         0.94880         -0.00108         1.89367
  H        -0.88027          0.00868         1.94238
  C        -1.28922         -0.00012        -0.76728
  H        -1.08254          0.00003        -1.83378
  H        -1.88831         -0.87873        -0.53118
  H        -1.88828          0.87838        -0.53070
9
 step=         303     theta[rad]=           3.1730
  C        -0.02069          0.00071         0.02976
  C         0.02012          0.00145         1.34904
  H         0.90068         -0.01407        -0.53739
  H         0.94880          0.00216         1.89367
  H        -0.88027         -0.01735         1.94238
  C        -1.28922          0.00024        -0.76728
  H        -1.08254         -0.00006        -1.83378
  H        -1.88826         -0.87820        -0.53046
  H        -1.88833          0.87890        -0.53142
9
 step=         304     theta[rad]=           3.1835
  C        -0.02069         -0.00118         0.02976
  C         0.02012         -0.00242         1.34904
  H         0.90068          0.02342        -0.53739
  H         0.94880         -0.00360         1.89367
  H        -0.88027          0.02888         1.94238
  C        -1.28922         -0.00039        -0.76728
  H        -1.08254          0.00011        -1.83378
  H        -1.88835         -0.87913        -0.53174
  H        -1.88823          0.87797        -0.53014
9
 step=         305     theta[rad]=           3.1940
  C        -0.02069          0.00177         0.02976
  C         0.02012          0.00362         1.34904
  H         0.90068         -0.03505        -0.53739
  H         0.94880          0.00539         1.89367
  H        -0.88027         -0.04322         1.94238
  C        -1.28922          0.00059        -0.76728
  H        -1.08254         -0.00016        -1.83378
  H        -1.88820         -0.87768        -0.52975
  H        -1.88838          0.87942        -0.53214
9
 step=         306     theta[rad]=           3.2044
  C        -0.02069         -0.00247         0.02976
  C         0.02012         -0.00505         1.34904
  H         0.90068          0.04888        -0.53739
  H         0.94880         -0.00752         1.89367
  H        -0.88027          0.06027         1.94238
  C        -1.28922         -0.00082        -0.76728
  H        -1.08254          0.00022        -1.83378
  H        -1.88842         -0.87977        -0.53261
  H        -1.88817          0.87734        -0.52927
9
 step=         307     theta[rad]=           3.2149
  C        -0.02069          0.00328         0.02976
  C         0.02012          0.00669         1.34904
  H         0.90068         -0.06476        -0.53739
  H         0.94880          0.00996         1.89367
  H        -0.88027         -0.07985         1.94238
  C        -1.28922          0.00109        -0.76728
  H        -1.08254         -0.00030        -1.83378
  H        -1.88813         -0.87695        -0.52873
  H        -1.88846          0.88016        -0.53315
9
 step=         308     theta[rad]=           3.2254
  C        -0.02069         -0.00417         0.02976
  C         0.02012         -0.00852         1.34904
  H         0.90068          0.08248        -0.53739
  H         0.94880         -0.01269         1.89367
  H        -0.88027          0.10170         1.94238
  C        -1.28922         -0.00139        -0.76728
  H        -1.08254          0.00038        -1.83378
  H        -1.88850         -0.88060        -0.53376
  H        -1.88809          0.87651        -0.52813
9
 step=         309     theta[rad]=           3.2358
  C        -0.02069          0.00515         0.02976
  C         0.02012          0.01051         1.34904
  H         0.90068         -0.10172        -0.53739
  H         0.94880          0.01565         1.89367
  H        -0.88027         -0.12543         1.94238
  C        -1.28922          0.00171        -0.76728
  H        -1.08254         -0.00047        -1.83378
  H        -1.88804         -0.87603        -0.52747
  H        -1.88855          0.88108        -0.53442
9
 step=         310     theta[rad]=           3.2463
  C        -0.02069         -0.00617         0.02976
  C         0.02012         -0.01260         1.34904
  H         0.90068          0.12203        -0.53739
  H         0.94880         -0.01877         1.89367
  H        -0.88027          0.15047         1.94238
  C        -1.28922         -0.00206        -0.76728
  H        -1.08254          0.00056        -1.83378
  H        -1.88860         -0.88158        -0.53511
  H        -1.88799          0.87553        -0.52678
9
 step=         311     theta[rad]=           3.2568
  C        -0.02069          0.00722         0.02976
  C         0.02012          0.01475         1.34904
  H         0.90068         -0.14282        -0.53739
  H         0.94880          0.02197         1.89367
  H        -0.88027         -0.17611         1.94238
  C        -1.28922          0.00241        -0.76728
  H        -1.08254         -0.00065        -1.83378
  H        -1.88793         -0.87501        -0.52607
  H        -1.88865          0.88210        -0.53582
9
 step=         312     theta[rad]=           3.2673
  C        -0.02069         -0.00826         0.02976
  C         0.02012         -0.01687         1.34904
  H         0.90068          0.16333        -0.53739
  H         0.94880         -0.02512         1.89367
  H        -0.88027          0.20140         1.94238
  C        -1.28922         -0.00275        -0.76728
  H        -1.08254          0.00075        -1.83378
  H        -1.88871         -0.88260        -0.53652
  H        -1.88788          0.87450        -0.52537
9
 step=         313     theta[rad]=           3.2777
  C        -0.02069          0.00924         0.02976
  C         0.02012          0.01887         1.34904
  H         0.90068         -0.18263        -0.53739
  H         0.94880          0.02809         1.89367
  H        -0.88027         -0.22520         1.94238
  C        -1.28922          0.00308        -0.76728
  H        -1.08254         -0.00084        -1.83378
  H        -1.88783         -0.87402        -0.52471
  H        -1.88875          0.88308        -0.53718
9
 step=         314     theta[rad]=           3.2882
  C        -0.02069         -0.01010         0.02976
  C         0.02012         -0.02062         1.34904
  H         0.90068          0.19963        -0.53739
  H         0.94880         -0.03071         1.89367
  H        -0.88027          0.24617         1.94238
  C        -1.28922         -0.00336        -0.76728
  H        -1.08254          0.00092        -1.83378
  H        -1.88880         -0.88350        -0.53776
  H        -1.88779          0.87360        -0.52413
9
 step=         315     theta[rad]=           3.2987
  C        -0.02069          0.01078         0.02976
  C         0.02012          0.02201         1.34904
  H         0.90068         -0.21309        -0.53739
  H         0.94880          0.03278         1.89367
  H        -0.88027         -0.26276         1.94238
  C        -1.28922          0.00359        -0.76728
  H        -1.08254         -0.00098        -1.83378
  H        -1.88776         -0.87327        -0.52367
  H        -1.88883          0.88384        -0.53822
9
 step=         316     theta[rad]=           3.3091
  C        -0.02069         -0.01121         0.02976
  C         0.02012         -0.02290         1.34904
  H         0.90068          0.22165        -0.53739
  H         0.94880         -0.03409         1.89367
  H        -0.88027          0.27331         1.94238
  C        -1.28922         -0.00373        -0.76728
  H        -1.08254          0.00102        -1.83378
  H        -1.88885         -0.88405        -0.53851
  H        -1.88773          0.87306        -0.52337
9
 step=         317     theta[rad]=           3.3196
  C        -0.02069          0.01133         0.02976
  C         0.02012          0.02313         1.34904
  H         0.90068         -0.22394        -0.53739
  H         0.94880          0.03445         1.89367
  H        -0.88027         -0.27614         1.94238
  C        -1.28922          0.00377        -0.76728
  H        -1.08254         -0.00103        -1.83378
  H        -1.88773         -0.87300        -0.52330
  H        -1.88886          0.88411        -0.53859
9
 step=         318     theta[rad]=           3.3301
  C        -0.02069         -0.01106         0.02976
  C         0.02012         -0.02259         1.34904
  H         0.90068          0.21866        -0.53739
  H         0.94880         -0.03363         1.89367
  H        -0.88027          0.26962         1.94238
  C        -1.28922         -0.00368        -0.76728
  H        -1.08254          0.00100        -1.83378
  H        -1.88884         -0.88398        -0.53841
  H        -1.88774          0.87313        -0.52348
9
 step=         319     theta[rad]=           3.3406
  C        -0.02069          0.01035         0.02976
  C         0.02012          0.02114         1.34904
  H         0.90068         -0.20468        -0.53739
  H         0.94880          0.03148         1.89367
  H        -0.88027         -0.25239         1.94238
  C        -1.28922          0.00345        -0.76728
  H        -1.08254         -0.00094        -1.83378
  H        -1.88778         -0.87348        -0.52395
  H        -1.88881          0.88363        -0.53793
9
 step=         320     theta[rad]=           3.3510
  C        -0.02069         -0.00917         0.02976
  C         0.02012         -0.01872         1.34904
  H         0.90068          0.18126        -0.53739
  H         0.94880         -0.02788         1.89367
  H        -0.88027          0.22351         1.94238
  C        -1.28922         -0.00305        -0.76728
  H        -1.08254          0.00083        -1.83378
  H        -1.88875         -0.88305        -0.53713
  H        -1.88784          0.87406        -0.52475
9
 step=         321     theta[rad]=           3.3615
  C        -0.02069          0.00749         0.02976
  C         0.02012          0.01531         1.34904
  H         0.90068         -0.14817        -0.53739
  H         0.94880          0.02279         1.89367
  H        -0.88027         -0.18271         1.94238
  C        -1.28922          0.00250        -0.76728
  H        -1.08254         -0.00068        -1.83378
  H        -1.88792         -0.87488        -0.52588
  H        -1.88867          0.88223        -0.53600
9
 step=         322     theta[rad]=           3.3720
  C        -0.02069         -0.00536         0.02976
  C         0.02012         -0.01094         1.34904
  H         0.90068          0.10588        -0.53739
  H         0.94880         -0.01629         1.89367
  H        -0.88027          0.13056         1.94238
  C        -1.28922         -0.00178        -0.76728
  H        -1.08254          0.00049        -1.83378
  H        -1.88856         -0.88118        -0.53456
  H        -1.88803          0.87593        -0.52733
9
 step=         323     theta[rad]=           3.3824
  C        -0.02069          0.00282         0.02976
  C         0.02012          0.00576         1.34904
  H         0.90068         -0.05572        -0.53739
  H         0.94880          0.00857         1.89367
  H        -0.88027         -0.06871         1.94238
  C        -1.28922          0.00094        -0.76728
  H        -1.08254         -0.00026        -1.83378
  H        -1.88815         -0.87717        -0.52904
  H        -1.88843          0.87994        -0.53285
9
 step=         324     theta[rad]=           3.3929
  C        -0.02069         -0.00000         0.02976
  C         0.02012          0.00000         1.34904
  H         0.90068         -0.00000        -0.53739
  H         0.94880         -0.00000         1.89367
  H        -0.88027          0.00000         1.94238
  C        -1.28922         -0.00000        -0.76728
  H        -1.08254          0.00000        -1.83378
  H        -1.88829         -0.87855        -0.53094
  H        -1.88829          0.87855        -0.53094
9
 step=         325     theta[rad]=           3.4034
  C        -0.02069         -0.00293         0.02976
  C         0.02012         -0.00599         1.34904
  H         0.90068          0.05799        -0.53739
  H         0.94880         -0.00892         1.89367
  H        -0.88027          0.07151         1.94238
  C        -1.28922         -0.00098        -0.76728
  H        -1.08254          0.00027        -1.83378
  H        -1.88844         -0.87999        -0.53292
  H        -1.88815          0.87712        -0.52896
9
 step=         326     theta[rad]=           3.4139
  C        -0.02069          0.00577         0.02976
  C         0.02012          0.01178         1.34904
  H         0.90068         -0.11405        -0.53739
  H         0.94880          0.01754         1.89367
  H        -0.88027         -0.14064         1.94238
  C        -1.28922          0.00192        -0.76728
  H        -1.08254         -0.00052        -1.83378
  H        -1.88801         -0.87573        -0.52705
  H        -1.88858          0.88138        -0.53484
9
 step=         327     theta[rad]=           3.4243
  C        -0.02069         -0.00826         0.02976
  C         0.02012         -0.01687         1.34904
  H         0.90068          0.16333        -0.53739
  H         0.94880         -0.02512         1.89367
  H        -0.88027          0.20140         1.94238
  C        -1.28922         -0.00275        -0.76728
  H        -1.08254          0.00075        -1.83378
  H        -1.88871         -0.88260        -0.53652
  H        -1.88788          0.87450        -0.52537
9
 step=         328     theta[rad]=           3.4348
  C        -0.02069          0.01015         0.02976
  C         0.02012          0.02073         1.34904
  H         0.90068         -0.20069        -0.53739
  H         0.94880          0.03087         1.89367
  H        -0.88027         -0.24747         1.94238
  C        -1.28922          0.00338        -0.76728
  H        -1.08254         -0.00092        -1.83378
  H        -1.88779         -0.87358        -0.52409
  H        -1.88880          0.88353        -0.53779
9
 step=         329     theta[rad]=           3.4453
  C        -0.02069         -0.01119         0.02976
  C         0.02012         -0.02286         1.34904
  H         0.90068          0.22130        -0.53739
  H         0.94880         -0.03404         1.89367
  H        -0.88027          0.27288         1.94238
  C        -1.28922         -0.00373        -0.76728
  H        -1.08254          0.00101        -1.83378
  H        -1.88885         -0.88404        -0.53850
  H        -1.88774          0.87307        -0.52339
9
 step=         330     theta[rad]=           3.4558
  C        -0.02069          0.01119         0.02976
  C         0.02012          0.02286         1.34904
  H         0.90068         -0.22130        -0.53739
  H         0.94880          0.03404         1.89367
  H        -0.88027         -0.27288         1.94238
  C        -1.28922          0.00373        -0.76728
  H        -1.08254         -0.00101        -1.83378
  H        -1.88774         -0.87307        -0.52339
  H        -1.88885          0.88404        -0.53850
9
 step=         331     theta[rad]=           3.4662
  C        -0.02069         -0.01004         0.02976
  C         0.02012         -0.02051         1.34904
  H         0.90068          0.19856        -0.53739
  H         0.94880         -0.03054         1.89367
  H        -0.88027          0.24484         1.94238
  C        -1.28922         -0.00334        -0.76728
  H        -1.08254          0.00091        -1.83378
  H        -1.88879         -0.88348        -0.53772
  H        -1.88779          0.87363        -0.52416
9
 step=         332     theta[rad]=           3.4767
  C        -0.02069          0.00776         0.02976
  C         0.02012          0.01584         1.34904
  H         0.90068         -0.15338        -0.53739
  H         0.94880          0.02359         1.89367
  H        -0.88027         -0.18912         1.94238
  C        -1.28922          0.00258        -0.76728
  H        -1.08254         -0.00070        -1.83378
  H        -1.88791         -0.87475        -0.52571
  H        -1.88868          0.88236        -0.53618
9
 step=         333     theta[rad]=           3.4872
  C        -0.02069         -0.00450         0.02976
  C         0.02012         -0.00919         1.34904
  H         0.90068          0.08898        -0.53739
  H         0.94880         -0.01369         1.89367
  H        -0.88027          0.10972         1.94238
  C        -1.28922         -0.00150        -0.76728
  H        -1.08254          0.00041        -1.83378
  H        -1.88852         -0.88076        -0.53398
  H        -1.88807          0.87635        -0.52790
9
 step=         334     theta[rad]=           3.4976
  C        -0.02069          0.00059         0.02976
  C         0.02012          0.00121         1.34904
  H         0.90068         -0.01173        -0.53739
  H         0.94880          0.00180         1.89367
  H        -0.88027         -0.01446         1.94238
  C        -1.28922          0.00020        -0.76728
  H        -1.08254         -0.00005        -1.83378
  H        -1.88826         -0.87826        -0.53054
  H        -1.88832          0.87884        -0.53134
9
 step=         335     theta[rad]=           3.5081
  C        -0.02069          0.00350         0.02976
  C         0.02012          0.00715         1.34904
  H         0.90068         -0.06924        -0.53739
  H         0.94880          0.01065         1.89367
  H        -0.88027         -0.08537         1.94238
  C        -1.28922          0.00117        -0.76728
  H        -1.08254         -0.00032        -1.83378
  H        -1.88812         -0.87684        -0.52858
  H        -1.88847          0.88027        -0.53331
9
 step=         336     theta[rad]=           3.5186
  C        -0.02069         -0.00722         0.02976
  C         0.02012         -0.01475         1.34904
  H         0.90068          0.14282        -0.53739
  H         0.94880         -0.02197         1.89367
  H        -0.88027          0.17611         1.94238
  C        -1.28922         -0.00241        -0.76728
  H        -1.08254          0.00066        -1.83378
  H        -1.88865         -0.88210        -0.53582
  H        -1.88793          0.87501        -0.52607
9
 step=         337     theta[rad]=           3.5291
  C        -0.02069          0.00999         0.02976
  C         0.02012          0.02040         1.34904
  H         0.90068         -0.19746        -0.53739
  H         0.94880          0.03037         1.89367
  H        -0.88027         -0.24348         1.94238
  C        -1.28922          0.00333        -0.76728
  H        -1.08254         -0.00091        -1.83378
  H        -1.88780         -0.87366        -0.52420
  H        -1.88879          0.88345        -0.53768
9
 step=         338     theta[rad]=           3.5395
  C        -0.02069         -0.01128         0.02976
  C         0.02012         -0.02304         1.34904
  H         0.90068          0.22306        -0.53739
  H         0.94880         -0.03431         1.89367
  H        -0.88027          0.27505         1.94238
  C        -1.28922         -0.00376        -0.76728
  H        -1.08254          0.00102        -1.83378
  H        -1.88886         -0.88409        -0.53856
  H        -1.88773          0.87302        -0.52333
9
 step=         339     theta[rad]=           3.5500
  C        -0.02069          0.01078         0.02976
  C         0.02012          0.02201         1.34904
  H         0.90068         -0.21309        -0.53739
  H         0.94880          0.03278         1.89367
  H        -0.88027         -0.26276         1.94238
  C        -1.28922          0.00359        -0.76728
  H        -1.08254         -0.00098        -1.83378
  H        -1.88776         -0.87327        -0.52367
  H        -1.88883          0.88384        -0.53822
9
 step=         340     theta[rad]=           3.5605
  C        -0.02069         -0.00842         0.02976
  C         0.02012         -0.01720         1.34904
  H         0.90068          0.16651        -0.53739
  H         0.94880         -0.02561         1.89367
  H        -0.88027          0.20531         1.94238
  C        -1.28922         -0.00280        -0.76728
  H        -1.08254          0.00076        -1.83378
  H        -1.88871         -0.88268        -0.53663
  H        -1.88787          0.87442        -0.52526
9
 step=         341     theta[rad]=           3.5709
  C        -0.02069          0.00450         0.02976
  C         0.02012          0.00919         1.34904
  H         0.90068         -0.08898        -0.53739
  H         0.94880          0.01369         1.89367
  H        -0.88027         -0.10972         1.94238
  C        -1.28922          0.00150        -0.76728
  H        -1.08254         -0.00041        -1.83378
  H        -1.88807         -0.87635        -0.52790
  H        -1.88852          0.88076        -0.53398
9
 step=         342     theta[rad]=           3.5814
  C        -0.02069          0.00036         0.02976
  C         0.02012          0.00073         1.34904
  H         0.90068         -0.00704        -0.53739
  H         0.94880          0.00108         1.89367
  H        -0.88027         -0.00868         1.94238
  C        -1.28922          0.00012        -0.76728
  H        -1.08254         -0.00003        -1.83378
  H        -1.88828         -0.87838        -0.53070
  H        -1.88831          0.87873        -0.53118
9
 step=         343     theta[rad]=           3.5919
  C        -0.02069         -0.00525         0.02976
  C         0.02012         -0.01072         1.34904
  H         0.90068          0.10380        -0.53739
  H         0.94880         -0.01597         1.89367
  H        -0.88027          0.12800         1.94238
  C        -1.28922         -0.00175        -0.76728
  H        -1.08254          0.00048        -1.83378
  H        -1.88856         -0.88113        -0.53449
  H        -1.88803          0.87598        -0.52740
9
 step=         344     theta[rad]=           3.6024
  C        -0.02069          0.00917         0.02976
  C         0.02012          0.01872         1.34904
  H         0.90068         -0.18126        -0.53739
  H         0.94880          0.02788         1.89367
  H        -0.88027         -0.22351         1.94238
  C        -1.28922          0.00305        -0.76728
  H        -1.08254         -0.00083        -1.83378
  H        -1.88784         -0.87406        -0.52475
  H        -1.88875          0.88305        -0.53713
9
 step=         345     theta[rad]=           3.6128
  C        -0.02069         -0.01119         0.02976
  C         0.02012         -0.02286         1.34904
  H         0.90068          0.22130        -0.53739
  H         0.94880         -0.03404         1.89367
  H        -0.88027          0.27288         1.94238
  C        -1.28922         -0.00373        -0.76728
  H        -1.08254          0.00101        -1.83378
  H        -1.88885         -0.88404        -0.53850
  H        -1.88774          0.87307        -0.52339
9
 step=         346     theta[rad]=           3.6233
  C        -0.02069          0.01074         0.02976
  C         0.02012          0.02193         1.34904
  H         0.90068         -0.21235        -0.53739
  H         0.94880          0.03266         1.89367
  H        -0.88027         -0.26185         1.94238
  C        -1.28922          0.00358        -0.76728
  H        -1.08254         -0.00097        -1.83378
  H        -1.88776         -0.87329        -0.52369
  H        -1.88883          0.88382        -0.53819
9
 step=         347     theta[rad]=           3.6338
  C        -0.02069         -0.00776         0.02976
  C         0.02012         -0.01584         1.34904
  H         0.90068          0.15338        -0.53739
  H         0.94880         -0.02359         1.89367
  H        -0.88027          0.18913         1.94238
  C        -1.28922         -0.00258        -0.76728
  H        -1.08254          0.00070        -1.83378
  H        -1.88868         -0.88236        -0.53618
  H        -1.88791          0.87475        -0.52571
9
 step=         348     theta[rad]=           3.6442
  C        -0.02069          0.00282         0.02976
  C         0.02012          0.00576         1.34904
  H         0.90068         -0.05572        -0.53739
  H         0.94880          0.00857         1.89367
  H        -0.88027         -0.06871         1.94238
  C        -1.28922          0.00094        -0.76728
  H        -1.08254         -0.00026        -1.83378
  H        -1.88815         -0.87717        -0.52904
  H        -1.88843          0.87994        -0.53285
9
 step=         349     theta[rad]=           3.6547
  C        -0.02069          0.00293         0.02976
  C         0.02012          0.00599         1.34904
  H         0.90068         -0.05799        -0.53739
  H         0.94880          0.00892         1.89367
  H        -0.88027         -0.07151         1.94238
  C        -1.28922          0.00098        -0.76728
  H        -1.08254         -0.00027        -1.83378
  H        -1.88815         -0.87712        -0.52896
  H        -1.88844          0.87999        -0.53292
9
 step=         350     theta[rad]=           3.6652
  C        -0.02069         -0.00801         0.02976
  C         0.02012         -0.01636         1.34904
  H         0.90068          0.15843        -0.53739
  H         0.94880         -0.02437         1.89367
  H        -0.88027          0.19536         1.94238
  C        -1.28922         -0.00267        -0.76728
  H        -1.08254          0.00073        -1.83378
  H        -1.88869         -0.88248        -0.53635
  H        -1.88789          0.87462        -0.52553
9
 step=         351     theta[rad]=           3.6757
  C        -0.02069          0.01098         0.02976
  C         0.02012          0.02242         1.34904
  H         0.90068         -0.21702        -0.53739
  H         0.94880          0.03338         1.89367
  H        -0.88027         -0.26760         1.94238
  C        -1.28922          0.00366        -0.76728
  H        -1.08254         -0.00100        -1.83378
  H        -1.88775         -0.87317        -0.52353
  H        -1.88884          0.88394        -0.53835
9
 step=         352     theta[rad]=           3.6861
  C        -0.02069         -0.01085         0.02976
  C         0.02012         -0.02216         1.34904
  H         0.90068          0.21449        -0.53739
  H         0.94880         -0.03299         1.89367
  H        -0.88027          0.26449         1.94238
  C        -1.28922         -0.00361        -0.76728
  H        -1.08254          0.00098        -1.83378
  H        -1.88883         -0.88387        -0.53827
  H        -1.88775          0.87323        -0.52362
9
 step=         353     theta[rad]=           3.6966
  C        -0.02069          0.00749         0.02976
  C         0.02012          0.01531         1.34904
  H         0.90068         -0.14817        -0.53739
  H         0.94880          0.02279         1.89367
  H        -0.88027         -0.18271         1.94238
  C        -1.28922          0.00250        -0.76728
  H        -1.08254         -0.00068        -1.83378
  H        -1.88792         -0.87488        -0.52588
  H        -1.88867          0.88223        -0.53600
9
 step=         354     theta[rad]=           3.7071
  C        -0.02069         -0.00177         0.02976
  C         0.02012         -0.00362         1.34904
  H         0.90068          0.03505        -0.53739
  H         0.94880         -0.00539         1.89367
  H        -0.88027          0.04322         1.94238
  C        -1.28922         -0.00059        -0.76728
  H        -1.08254          0.00016        -1.83378
  H        -1.88838         -0.87942        -0.53214
  H        -1.88820          0.87768        -0.52975
9
 step=         355     theta[rad]=           3.7176
  C        -0.02069         -0.00461         0.02976
  C         0.02012         -0.00941         1.34904
  H         0.90068          0.09113        -0.53739
  H         0.94880         -0.01402         1.89367
  H        -0.88027          0.11237         1.94238
  C        -1.28922         -0.00153        -0.76728
  H        -1.08254          0.00042        -1.83378
  H        -1.88852         -0.88081        -0.53405
  H        -1.88806          0.87629        -0.52783
9
 step=         356     theta[rad]=           3.7280
  C        -0.02069          0.00957         0.02976
  C         0.02012          0.01954         1.34904
  H         0.90068         -0.18918        -0.53739
  H         0.94880          0.02910         1.89367
  H        -0.88027         -0.23327         1.94238
  C        -1.28922          0.00319        -0.76728
  H        -1.08254         -0.00087        -1.83378
  H        -1.88782         -0.87386        -0.52448
  H        -1.88877          0.88325        -0.53740
9
 step=         357     theta[rad]=           3.7385
  C        -0.02069         -0.01133         0.02976
  C         0.02012         -0.02313         1.34904
  H         0.90068          0.22394        -0.53739
  H         0.94880         -0.03445         1.89367
  H        -0.88027          0.27614         1.94238
  C        -1.28922         -0.00377        -0.76728
  H        -1.08254          0.00103        -1.83378
  H        -1.88886         -0.88411        -0.53859
  H        -1.88773          0.87300        -0.52330
9
 step=         358     theta[rad]=           3.7490
  C        -0.02069          0.00910         0.02976
  C         0.02012          0.01858         1.34904
  H         0.90068         -0.17988        -0.53739
  H         0.94880          0.02767         1.89367
  H        -0.88027         -0.22180         1.94238
  C        -1.28922          0.00303        -0.76728
  H        -1.08254         -0.00082        -1.83378
  H        -1.88784         -0.87409        -0.52480
  H        -1.88875          0.88301        -0.53708
9
 step=         359     theta[rad]=           3.7594
  C        -0.02069         -0.00350         0.02976
  C         0.02012         -0.00715         1.34904
  H         0.90068          0.06924        -0.53739
  H         0.94880         -0.01065         1.89367
  H        -0.88027          0.08537         1.94238
  C        -1.28922         -0.00117        -0.76728
  H        -1.08254          0.00032        -1.83378
  H        -1.88847         -0.88027        -0.53331
  H        -1.88812          0.87684        -0.52858
9
 step=         360     theta[rad]=           3.7699
  C        -0.02069         -0.00350         0.02976
  C         0.02012         -0.00715         1.34904
  H         0.90068          0.06924        -0.53739
  H         0.94880         -0.01065         1.89367
  H        -0.88027          0.08537         1.94238
  C        -1.28922         -0.00117        -0.76728
  H        -1.08254          0.00032        -1.83378
  H        -1.88847         -0.88027        -0.53331
  H        -1.88812          0.87684        -0.52858
9
 step=         361     theta[rad]=           3.7804
  C        -0.02069          0.00924         0.02976
  C         0.02012          0.01887         1.34904
  H         0.90068         -0.18263        -0.53739
  H         0.94880          0.02809         1.89367
  H        -0.88027         -0.22520         1.94238
  C        -1.28922          0.00308        -0.76728
  H        -1.08254         -0.00084        -1.83378
  H        -1.88783         -0.87402        -0.52471
  H        -1.88875          0.88308        -0.53718
9
 step=         362     theta[rad]=           3.7909
  C        -0.02069         -0.01133         0.02976
  C         0.02012         -0.02313         1.34904
  H         0.90068          0.22394        -0.53739
  H         0.94880         -0.03445         1.89367
  H        -0.88027          0.27614         1.94238
  C        -1.28922         -0.00377        -0.76728
  H        -1.08254          0.00103        -1.83378
  H        -1.88886         -0.88411        -0.53859
  H        -1.88773          0.87300        -0.52330
9
 step=         363     theta[rad]=           3.8013
  C        -0.02069          0.00873         0.02976
  C         0.02012          0.01783         1.34904
  H         0.90068         -0.17264        -0.53739
  H         0.94880          0.02655         1.89367
  H        -0.88027         -0.21288         1.94238
  C        -1.28922          0.00291        -0.76728
  H        -1.08254         -0.00079        -1.83378
  H        -1.88786         -0.87427        -0.52505
  H        -1.88873          0.88283        -0.53684
9
 step=         364     theta[rad]=           3.8118
  C        -0.02069         -0.00236         0.02976
  C         0.02012         -0.00481         1.34904
  H         0.90068          0.04658        -0.53739
  H         0.94880         -0.00717         1.89367
  H        -0.88027          0.05744         1.94238
  C        -1.28922         -0.00078        -0.76728
  H        -1.08254          0.00021        -1.83378
  H        -1.88841         -0.87971        -0.53253
  H        -1.88818          0.87740        -0.52935
9
 step=         365     theta[rad]=           3.8223
  C        -0.02069         -0.00515         0.02976
  C         0.02012         -0.01051         1.34904
  H         0.90068          0.10172        -0.53739
  H         0.94880         -0.01565         1.89367
  H        -0.88027          0.12543         1.94238
  C        -1.28922         -0.00171        -0.76728
  H        -1.08254          0.00047        -1.83378
  H        -1.88855         -0.88108        -0.53442
  H        -1.88804          0.87603        -0.52747
9
 step=         366     theta[rad]=           3.8327
  C        -0.02069          0.01040         0.02976
  C         0.02012          0.02124         1.34904
  H         0.90068         -0.20563        -0.53739
  H         0.94880          0.03163         1.89367
  H        -0.88027         -0.25356         1.94238
  C        -1.28922          0.00346        -0.76728
  H        -1.08254         -0.00094        -1.83378
  H        -1.88777         -0.87345        -0.52392
  H        -1.88881          0.88365        -0.53796
9
 step=         367     theta[rad]=           3.8432
  C        -0.02069         -0.01085         0.02976
  C         0.02012         -0.02216         1.34904
  H         0.90068          0.21449        -0.53739
  H         0.94880         -0.03299         1.89367
  H        -0.88027          0.26449         1.94238
  C        -1.28922         -0.00361        -0.76728
  H        -1.08254          0.00098        -1.83378
  H        -1.88883         -0.88387        -0.53827
  H        -1.88775          0.87323        -0.52362
9
 step=         368     theta[rad]=           3.8537
  C        -0.02069          0.00607         0.02976
  C         0.02012          0.01240         1.34904
  H         0.90068         -0.12005        -0.53739
  H         0.94880          0.01847         1.89367
  H        -0.88027         -0.14804         1.94238
  C        -1.28922          0.00202        -0.76728
  H        -1.08254         -0.00055        -1.83378
  H        -1.88799         -0.87558        -0.52684
  H        -1.88860          0.88153        -0.53504
9
 step=         369     theta[rad]=           3.8642
  C        -0.02069          0.00177         0.02976
  C         0.02012          0.00362         1.34904
  H         0.90068         -0.03505        -0.53739
  H         0.94880          0.00539         1.89367
  H        -0.88027         -0.04322         1.94238
  C        -1.28922          0.00059        -0.76728
  H        -1.08254         -0.00016        -1.83378
  H        -1.88820         -0.87768        -0.52975
  H        -1.88838          0.87942        -0.53214
9
 step=         370     theta[rad]=           3.8746
  C        -0.02069         -0.00881         0.02976
  C         0.02012         -0.01799         1.34904
  H         0.90068          0.17412        -0.53739
  H         0.94880         -0.02678         1.89367
  H        -0.88027          0.21471         1.94238
  C        -1.28922         -0.00293        -0.76728
  H        -1.08254          0.00080        -1.83378
  H        -1.88873         -0.88287        -0.53689
  H        -1.88785          0.87424        -0.52500
9
 step=         371     theta[rad]=           3.8851
  C        -0.02069          0.01131         0.02976
  C         0.02012          0.02310         1.34904
  H         0.90068         -0.22361        -0.53739
  H         0.94880          0.03440         1.89367
  H        -0.88027         -0.27573         1.94238
  C        -1.28922          0.00377        -0.76728
  H        -1.08254         -0.00103        -1.83378
  H        -1.88773         -0.87301        -0.52331
  H        -1.88886          0.88410        -0.53858
9
 step=         372     theta[rad]=           3.8956
  C        -0.02069         -0.00776         0.02976
  C         0.02012         -0.01584         1.34904
  H         0.90068          0.15338        -0.53739
  H         0.94880         -0.02359         1.89367
  H        -0.88027          0.18913         1.94238
  C        -1.28922         -0.00258        -0.76728
  H        -1.08254          0.00070        -1.83378
  H        -1.88868         -0.88236        -0.53618
  H        -1.88791          0.87475        -0.52571
9
 step=         373     theta[rad]=           3.9060
  C        -0.02069         -0.00012         0.02976
  C         0.02012         -0.00024         1.34904
  H         0.90068          0.00235        -0.53739
  H         0.94880         -0.00036         1.89367
  H        -0.88027          0.00289         1.94238
  C        -1.28922         -0.00004        -0.76728
  H        -1.08254          0.00001        -1.83378
  H        -1.88830         -0.87861        -0.53102
  H        -1.88829          0.87850        -0.53086
9
 step=         374     theta[rad]=           3.9165
  C        -0.02069          0.00801         0.02976
  C         0.02012          0.01637         1.34904
  H         0.90068         -0.15843        -0.53739
  H         0.94880          0.02437         1.89367
  H        -0.88027         -0.19536         1.94238
  C        -1.28922          0.00267        -0.76728
  H        -1.08254         -0.00073        -1.83378
  H        -1.88789         -0.87462        -0.52553
  H        -1.88869          0.88248        -0.53635
9
 step=         375     theta[rad]=           3.9270
  C        -0.02069         -0.01133         0.02976
  C         0.02012         -0.02314         1.34904
  H         0.90068          0.22405        -0.53739
  H         0.94880         -0.03446         1.89367
  H        -0.88027          0.27628         1.94238
  C        -1.28922         -0.00377        -0.76728
  H        -1.08254          0.00103        -1.83378
  H        -1.88886         -0.88411        -0.53859
  H        -1.88773          0.87300        -0.52329
9
 step=         376     theta[rad]=           3.9375
  C        -0.02069          0.00793         0.02976
  C         0.02012          0.01619         1.34904
  H         0.90068         -0.15676        -0.53739
  H         0.94880          0.02411         1.89367
  H        -0.88027         -0.19330         1.94238
  C        -1.28922          0.00264        -0.76728
  H        -1.08254         -0.00072        -1.83378
  H        -1.88790         -0.87467        -0.52559
  H        -1.88869          0.88244        -0.53630
9
 step=         377     theta[rad]=           3.9479
  C        -0.02069          0.00036         0.02976
  C         0.02012          0.00073         1.34904
  H         0.90068         -0.00704        -0.53739
  H         0.94880          0.00108         1.89367
  H        -0.88027         -0.00868         1.94238
  C        -1.28922          0.00012        -0.76728
  H        -1.08254         -0.00003        -1.83378
  H        -1.88828         -0.87838        -0.53070
  H        -1.88831          0.87873        -0.53118
9
 step=         378     theta[rad]=           3.9584
  C        -0.02069         -0.00850         0.02976
  C         0.02012         -0.01736         1.34904
  H         0.90068          0.16807        -0.53739
  H         0.94880         -0.02585         1.89367
  H        -0.88027          0.20724         1.94238
  C        -1.28922         -0.00283        -0.76728
  H        -1.08254          0.00077        -1.83378
  H        -1.88872         -0.88272        -0.53668
  H        -1.88787          0.87439        -0.52520
9
 step=         379     theta[rad]=           3.9689
  C        -0.02069          0.01127         0.02976
  C         0.02012          0.02302         1.34904
  H         0.90068         -0.22283        -0.53739
  H         0.94880          0.03427         1.89367
  H        -0.88027         -0.27476         1.94238
  C        -1.28922          0.00375        -0.76728
  H        -1.08254         -0.00102        -1.83378
  H        -1.88773         -0.87303        -0.52333
  H        -1.88886          0.88408        -0.53855
9
 step=         380     theta[rad]=           3.9794
  C        -0.02069         -0.00666         0.02976
  C         0.02012         -0.01360         1.34904
  H         0.90068          0.13170        -0.53739
  H         0.94880         -0.02026         1.89367
  H        -0.88027          0.16239         1.94238
  C        -1.28922         -0.00222        -0.76728
  H        -1.08254          0.00060        -1.83378
  H        -1.88863         -0.88182        -0.53544
  H        -1.88796          0.87529        -0.52645
9
 step=         381     theta[rad]=           3.9898
  C        -0.02069         -0.00247         0.02976
  C         0.02012         -0.00505         1.34904
  H         0.90068          0.04888        -0.53739
  H         0.94880         -0.00752         1.89367
  H        -0.88027          0.06027         1.94238
  C        -1.28922         -0.00082        -0.76728
  H        -1.08254          0.00022        -1.83378
  H        -1.88842         -0.87977        -0.53261
  H        -1.88817          0.87734        -0.52927
9
 step=         382     theta[rad]=           4.0003
  C        -0.02069          0.00999         0.02976
  C         0.02012          0.02040         1.34904
  H         0.90068         -0.19746        -0.53739
  H         0.94880          0.03037         1.89367
  H        -0.88027         -0.24348         1.94238
  C        -1.28922          0.00333        -0.76728
  H        -1.08254         -0.00091        -1.83378
  H        -1.88780         -0.87366        -0.52420
  H        -1.88879          0.88345        -0.53768
9
 step=         383     theta[rad]=           4.0108
  C        -0.02069         -0.01054         0.02976
  C         0.02012         -0.02152         1.34904
  H         0.90068          0.20832        -0.53739
  H         0.94880         -0.03204         1.89367
  H        -0.88027          0.25688         1.94238
  C        -1.28922         -0.00351        -0.76728
  H        -1.08254          0.00096        -1.83378
  H        -1.88882         -0.88372        -0.53806
  H        -1.88777          0.87339        -0.52383
9
 step=         384     theta[rad]=           4.0212
  C        -0.02069          0.00350         0.02976
  C         0.02012          0.00715         1.34904
  H         0.90068         -0.06924        -0.53739
  H         0.94880          0.01065         1.89367
  H        -0.88027         -0.08537         1.94238
  C        -1.28922          0.00117        -0.76728
  H        -1.08254         -0.00032        -1.83378
  H        -1.88812         -0.87684        -0.52858
  H        -1.88847          0.88027        -0.53331
9
 step=         385     theta[rad]=           4.0317
  C        -0.02069          0.00617         0.02976
  C         0.02012          0.01260         1.34904
  H         0.90068         -0.12203        -0.53739
  H         0.94880          0.01877         1.89367
  H        -0.88027         -0.15047         1.94238
  C        -1.28922          0.00206        -0.76728
  H        -1.08254         -0.00056        -1.83378
  H        -1.88799         -0.87553        -0.52678
  H        -1.88860          0.88158        -0.53511
9
 step=         386     theta[rad]=           4.0422
  C        -0.02069         -0.01128         0.02976
  C         0.02012         -0.02304         1.34904
  H         0.90068          0.22306        -0.53739
  H         0.94880         -0.03431         1.89367
  H        -0.88027          0.27505         1.94238
  C        -1.28922         -0.00376        -0.76728
  H        -1.08254          0.00102        -1.83378
  H        -1.88886         -0.88409        -0.53856
  H        -1.88773          0.87302        -0.52333
9
 step=         387     theta[rad]=           4.0527
  C        -0.02069          0.00776         0.02976
  C         0.02012          0.01584         1.34904
  H         0.90068         -0.15338        -0.53739
  H         0.94880          0.02359         1.89367
  H        -0.88027         -0.18912         1.94238
  C        -1.28922          0.00258        -0.76728
  H        -1.08254         -0.00070        -1.83378
  H        -1.88791         -0.87475        -0.52571
  H        -1.88868          0.88236        -0.53618
9
 step=         388     theta[rad]=           4.0631
  C        -0.02069          0.00189         0.02976
  C         0.02012          0.00386         1.34904
  H         0.90068         -0.03737        -0.53739
  H         0.94880          0.00575         1.89367
  H        -0.88027         -0.04607         1.94238
  C        -1.28922          0.00063        -0.76728
  H        -1.08254         -0.00017        -1.83378
  H        -1.88820         -0.87763        -0.52967
  H        -1.88839          0.87948        -0.53222
9
 step=         389     theta[rad]=           4.0736
  C        -0.02069         -0.01010         0.02976
  C         0.02012         -0.02062         1.34904
  H         0.90068          0.19963        -0.53739
  H         0.94880         -0.03071         1.89367
  H        -0.88027          0.24617         1.94238
  C        -1.28922         -0.00336        -0.76728
  H        -1.08254          0.00092        -1.83378
  H        -1.88880         -0.88350        -0.53776
  H        -1.88779          0.87360        -0.52413
9
 step=         390     theta[rad]=           4.0841
  C        -0.02069          0.01010         0.02976
  C         0.02012          0.02062         1.34904
  H         0.90068         -0.19963        -0.53739
  H         0.94880          0.03071         1.89367
  H        -0.88027         -0.24617         1.94238
  C        -1.28922          0.00336        -0.76728
  H        -1.08254         -0.00092        -1.83378
  H        -1.88779         -0.87360        -0.52413
  H        -1.88880          0.88350        -0.53776
9
 step=         391     theta[rad]=           4.0945
  C        -0.02069         -0.00166         0.02976
  C         0.02012         -0.00338         1.34904
  H         0.90068          0.03273        -0.53739
  H         0.94880         -0.00503         1.89367
  H        -0.88027          0.04036         1.94238
  C        -1.28922         -0.00055        -0.76728
  H        -1.08254          0.00015        -1.83378
  H        -1.88838         -0.87937        -0.53206
  H        -1.88821          0.87774        -0.52982
9
 step=         392     theta[rad]=           4.1050
  C        -0.02069         -0.00826         0.02976
  C         0.02012         -0.01687         1.34904
  H         0.90068          0.16333        -0.53739
  H         0.94880         -0.02512         1.89367
  H        -0.88027          0.20140         1.94238
  C        -1.28922         -0.00275        -0.76728
  H        -1.08254          0.00075        -1.83378
  H        -1.88871         -0.88260        -0.53652
  H        -1.88788          0.87450        -0.52537
9
 step=         393     theta[rad]=           4.1155
  C        -0.02069          0.01106         0.02976
  C         0.02012          0.02259         1.34904
  H         0.90068         -0.21866        -0.53739
  H         0.94880          0.03363         1.89367
  H        -0.88027         -0.26962         1.94238
  C        -1.28922          0.00368        -0.76728
  H        -1.08254         -0.00100        -1.83378
  H        -1.88774         -0.87313        -0.52348
  H        -1.88884          0.88398        -0.53841
9
 step=         394     theta[rad]=           4.1260
  C        -0.02069         -0.00406         0.02976
  C         0.02012         -0.00829         1.34904
  H         0.90068          0.08029        -0.53739
  H         0.94880         -0.01235         1.89367
  H        -0.88027          0.09901         1.94238
  C        -1.28922         -0.00135        -0.76728
  H        -1.08254          0.00037        -1.83378
  H        -1.88850         -0.88054        -0.53368
  H        -1.88809          0.87656        -0.52820
9
 step=         395     theta[rad]=           4.1364
  C        -0.02069         -0.00666         0.02976
  C         0.02012         -0.01360         1.34904
  H         0.90068          0.13170        -0.53739
  H         0.94880         -0.02026         1.89367
  H        -0.88027          0.16239         1.94238
  C        -1.28922         -0.00222        -0.76728
  H        -1.08254          0.00060        -1.83378
  H        -1.88863         -0.88182        -0.53544
  H        -1.88796          0.87529        -0.52645
9
 step=         396     theta[rad]=           4.1469
  C        -0.02069          0.01131         0.02976
  C         0.02012          0.02310         1.34904
  H         0.90068         -0.22361        -0.53739
  H         0.94880          0.03440         1.89367
  H        -0.88027         -0.27573         1.94238
  C        -1.28922          0.00377        -0.76728
  H        -1.08254         -0.00103        -1.83378
  H        -1.88773         -0.87301        -0.52331
  H        -1.88886          0.88410        -0.53858
9
 step=         397     theta[rad]=           4.1574
  C        -0.02069         -0.00536         0.02976
  C         0.02012         -0.01094         1.34904
  H         0.90068          0.10588        -0.53739
  H         0.94880         -0.01629         1.89367
  H        -0.88027          0.13056         1.94238
  C        -1.28922         -0.00178        -0.76728
  H        -1.08254          0.00049        -1.83378
  H        -1.88856         -0.88118        -0.53456
  H        -1.88803          0.87593        -0.52733
9
 step=         398     theta[rad]=           4.1678
  C        -0.02069         -0.00577         0.02976
  C         0.02012         -0.01178         1.34904
  H         0.90068          0.11405        -0.53739
  H         0.94880         -0.01754         1.89367
  H        -0.88027          0.14064         1.94238
  C        -1.28922         -0.00192        -0.76728
  H        -1.08254          0.00052        -1.83378
  H        -1.88858         -0.88138        -0.53484
  H        -1.88801          0.87572        -0.52705
9
 step=         399     theta[rad]=           4.1783
  C        -0.02069          0.01133         0.02976
  C         0.02012          0.02314         1.34904
  H         0.90068         -0.22405        -0.53739
  H         0.94880          0.03446         1.89367
  H        -0.88027         -0.27628         1.94238
  C        -1.28922          0.00377        -0.76728
  H        -1.08254         -0.00103        -1.83378
  H        -1.88773         -0.87300        -0.52329
  H        -1.88886          0.88411        -0.53859
9
 step=         400     theta[rad]=           4.1888
  C        -0.02069         -0.00567         0.02976
  C         0.02012         -0.01157         1.34904
  H         0.90068          0.11203        -0.53739
  H         0.94880         -0.01723         1.89367
  H        -0.88027          0.13814         1.94238
  C        -1.28922         -0.00189        -0.76728
  H        -1.08254          0.00051        -1.83378
  H        -1.88858         -0.88133        -0.53477
  H        -1.88801          0.87578        -0.52712
9
 step=         401     theta[rad]=           4.1993
  C        -0.02069         -0.00577         0.02976
  C         0.02012         -0.01178         1.34904
  H         0.90068          0.11405        -0.53739
  H         0.94880         -0.01754         1.89367
  H        -0.88027          0.14064         1.94238
  C        -1.28922         -0.00192        -0.76728
  H        -1.08254          0.00052        -1.83378
  H        -1.88858         -0.88138        -0.53484
  H        -1.88801          0.87572        -0.52705
9
 step=         402     theta[rad]=           4.2097
  C        -0.02069          0.01133         0.02976
  C         0.02012          0.02313         1.34904
  H         0.90068         -0.22394        -0.53739
  H         0.94880          0.03445         1.89367
  H        -0.88027         -0.27614         1.94238
  C        -1.28922          0.00377        -0.76728
  H        -1.08254         -0.00103        -1.83378
  H        -1.88773         -0.87300        -0.52330
  H        -1.88886          0.88411        -0.53859
9
 step=         403     theta[rad]=           4.2202
  C        -0.02069         -0.00504         0.02976
  C         0.02012         -0.01029         1.34904
  H         0.90068          0.09962        -0.53739
  H         0.94880         -0.01532         1.89367
  H        -0.88027          0.12284         1.94238
  C        -1.28922         -0.00168        -0.76728
  H        -1.08254          0.00046        -1.83378
  H        -1.88854         -0.88102        -0.53434
  H        -1.88804          0.87608        -0.52754
9
 step=         404     theta[rad]=           4.2307
  C        -0.02069         -0.00666         0.02976
  C         0.02012         -0.01360         1.34904
  H         0.90068          0.13170        -0.53739
  H         0.94880         -0.02026         1.89367
  H        -0.88027          0.16239         1.94238
  C        -1.28922         -0.00222        -0.76728
  H        -1.08254          0.00060        -1.83378
  H        -1.88863         -0.88182        -0.53544
  H        -1.88796          0.87529        -0.52645
9
 step=         405     theta[rad]=           4.2412
  C        -0.02069          0.01119         0.02976
  C         0.02012          0.02286         1.34904
  H         0.90068         -0.22130        -0.53739
  H         0.94880          0.03404         1.89367
  H        -0.88027         -0.27288         1.94238
  C        -1.28922          0.00373        -0.76728
  H        -1.08254         -0.00101        -1.83378
  H        -1.88774         -0.87307        -0.52339
  H        -1.88885          0.88404        -0.53850
9
 step=         406     theta[rad]=           4.2516
  C        -0.02069         -0.00339         0.02976
  C         0.02012         -0.00692         1.34904
  H         0.90068          0.06700        -0.53739
  H         0.94880         -0.01031         1.89367
  H        -0.88027          0.08262         1.94238
  C        -1.28922         -0.00113        -0.76728
  H        -1.08254          0.00031        -1.83378
  H        -1.88846         -0.88022        -0.53323
  H        -1.88812          0.87689        -0.52865
9
 step=         407     theta[rad]=           4.2621
  C        -0.02069         -0.00826         0.02976
  C         0.02012         -0.01687         1.34904
  H         0.90068          0.16333        -0.53739
  H         0.94880         -0.02512         1.89367
  H        -0.88027          0.20140         1.94238
  C        -1.28922         -0.00275        -0.76728
  H        -1.08254          0.00075        -1.83378
  H        -1.88871         -0.88260        -0.53652
  H        -1.88788          0.87450        -0.52537
9
 step=         408     theta[rad]=           4.2726
  C        -0.02069          0.01054         0.02976
  C         0.02012          0.02152         1.34904
  H         0.90068         -0.20832        -0.53739
  H         0.94880          0.03204         1.89367
  H        -0.88027         -0.25688         1.94238
  C        -1.28922          0.00351        -0.76728
  H        -1.08254         -0.00096        -1.83378
  H        -1.88777         -0.87339        -0.52383
  H        -1.88882          0.88372        -0.53806
9
 step=         409     theta[rad]=           4.2830
  C        -0.02069         -0.00059         0.02976
  C         0.02012         -0.00121         1.34904
  H         0.90068          0.01173        -0.53739
  H         0.94880         -0.00180         1.89367
  H        -0.88027          0.01446         1.94238
  C        -1.28922         -0.00020        -0.76728
  H        -1.08254          0.00005        -1.83378
  H        -1.88832         -0.87884        -0.53134
  H        -1.88826          0.87826        -0.53054
9
 step=         410     theta[rad]=           4.2935
  C        -0.02069         -0.01010         0.02976
  C         0.02012         -0.02062         1.34904
  H         0.90068          0.19963        -0.53739
  H         0.94880         -0.03071         1.89367
  H        -0.88027          0.24617         1.94238
  C        -1.28922         -0.00336        -0.76728
  H        -1.08254          0.00092        -1.83378
  H        -1.88880         -0.88350        -0.53776
  H        -1.88779          0.87360        -0.52413
9
 step=         411     theta[rad]=           4.3040
  C        -0.02069          0.00873         0.02976
  C         0.02012          0.01783         1.34904
  H         0.90068         -0.17264        -0.53739
  H         0.94880          0.02655         1.89367
  H        -0.88027         -0.21288         1.94238
  C        -1.28922          0.00291        -0.76728
  H        -1.08254         -0.00079        -1.83378
  H        -1.88786         -0.87427        -0.52505
  H        -1.88873          0.88283        -0.53684
9
 step=         412     theta[rad]=           4.3145
  C        -0.02069          0.00328         0.02976
  C         0.02012          0.00669         1.34904
  H         0.90068         -0.06476        -0.53739
  H         0.94880          0.00996         1.89367
  H        -0.88027         -0.07985         1.94238
  C        -1.28922          0.00109        -0.76728
  H        -1.08254         -0.00030        -1.83378
  H        -1.88813         -0.87695        -0.52873
  H        -1.88846          0.88016        -0.53315
9
 step=         413     theta[rad]=           4.3249
  C        -0.02069         -0.01128         0.02976
  C         0.02012         -0.02304         1.34904
  H         0.90068          0.22306        -0.53739
  H         0.94880         -0.03431         1.89367
  H        -0.88027          0.27505         1.94238
  C        -1.28922         -0.00376        -0.76728
  H        -1.08254          0.00102        -1.83378
  H        -1.88886         -0.88409        -0.53856
  H        -1.88773          0.87302        -0.52333
9
 step=         414     theta[rad]=           4.3354
  C        -0.02069          0.00515         0.02976
  C         0.02012          0.01051         1.34904
  H         0.90068         -0.10172        -0.53739
  H         0.94880          0.01565         1.89367
  H        -0.88027         -0.12543         1.94238
  C        -1.28922          0.00171        -0.76728
  H        -1.08254         -0.00047        -1.83378
  H        -1.88804         -0.87603        -0.52747
  H        -1.88855          0.88108        -0.53442
9
 step=         415     theta[rad]=           4.3459
  C        -0.02069          0.00758         0.02976
  C         0.02012          0.01549         1.34904
  H         0.90068         -0.14992        -0.53739
  H         0.94880          0.02306         1.89367
  H        -0.88027         -0.18487         1.94238
  C        -1.28922          0.00253        -0.76728
  H        -1.08254         -0.00069        -1.83378
  H        -1.88792         -0.87484        -0.52582
  H        -1.88867          0.88227        -0.53606
9
 step=         416     theta[rad]=           4.3563
  C        -0.02069         -0.01054         0.02976
  C         0.02012         -0.02152         1.34904
  H         0.90068          0.20832        -0.53739
  H         0.94880         -0.03204         1.89367
  H        -0.88027          0.25688         1.94238
  C        -1.28922         -0.00351        -0.76728
  H        -1.08254          0.00096        -1.83378
  H        -1.88882         -0.88372        -0.53806
  H        -1.88777          0.87339        -0.52383
9
 step=         417     theta[rad]=           4.3668
  C        -0.02069         -0.00036         0.02976
  C         0.02012         -0.00073         1.34904
  H         0.90068          0.00704        -0.53739
  H         0.94880         -0.00108         1.89367
  H        -0.88027          0.00868         1.94238
  C        -1.28922         -0.00012        -0.76728
  H        -1.08254          0.00003        -1.83378
  H        -1.88831         -0.87873        -0.53118
  H        -1.88828          0.87838        -0.53070
9
 step=         418     theta[rad]=           4.3773
  C        -0.02069          0.01081         0.02976
  C         0.02012          0.02208         1.34904
  H         0.90068         -0.21380        -0.53739
  H         0.94880          0.03289         1.89367
  H        -0.88027         -0.26364         1.94238
  C        -1.28922          0.00360        -0.76728
  H        -1.08254         -0.00098        -1.83378
  H        -1.88775         -0.87325        -0.52364
  H        -1.88883          0.88386        -0.53824
9
 step=         419     theta[rad]=           4.3878
  C        -0.02069         -0.00666         0.02976
  C         0.02012         -0.01360         1.34904
  H         0.90068          0.13170        -0.53739
  H         0.94880         -0.02026         1.89367
  H        -0.88027          0.16239         1.94238
  C        -1.28922         -0.00222        -0.76728
  H        -1.08254          0.00060        -1.83378
  H        -1.88863         -0.88182        -0.53544
  H        -1.88796          0.87529        -0.52645
9
 step=         420     theta[rad]=           4.3982
  C        -0.02069         -0.00666         0.02976
  C         0.02012         -0.01360         1.34904
  H         0.90068          0.13170        -0.53739
  H         0.94880         -0.02026         1.89367
  H        -0.88027          0.16239         1.94238
  C        -1.28922         -0.00222        -0.76728
  H        -1.08254          0.00060        -1.83378
  H        -1.88863         -0.88182        -0.53544
  H        -1.88796          0.87529        -0.52645
9
 step=         421     theta[rad]=           4.4087
  C        -0.02069          0.01074         0.02976
  C         0.02012          0.02193         1.34904
  H         0.90068         -0.21235        -0.53739
  H         0.94880          0.03266         1.89367
  H        -0.88027         -0.26185         1.94238
  C        -1.28922          0.00358        -0.76728
  H        -1.08254         -0.00097        -1.83378
  H        -1.88776         -0.87329        -0.52369
  H        -1.88883          0.88382        -0.53819
9
 step=         422     theta[rad]=           4.4192
  C        -0.02069          0.00036         0.02976
  C         0.02012          0.00073         1.34904
  H         0.90068         -0.00704        -0.53739
  H         0.94880          0.00108         1.89367
  H        -0.88027         -0.00868         1.94238
  C        -1.28922          0.00012        -0.76728
  H        -1.08254         -0.00003        -1.83378
  H        -1.88828         -0.87838        -0.53070
  H        -1.88831          0.87873        -0.53118
9
 step=         423     theta[rad]=           4.4296
  C        -0.02069         -0.01098         0.02976
  C         0.02012         -0.02242         1.34904
  H         0.90068          0.21702        -0.53739
  H         0.94880         -0.03338         1.89367
  H        -0.88027          0.26760         1.94238
  C        -1.28922         -0.00366        -0.76728
  H        -1.08254          0.00100        -1.83378
  H        -1.88884         -0.88394        -0.53835
  H        -1.88775          0.87317        -0.52353
9
 step=         424     theta[rad]=           4.4401
  C        -0.02069          0.00567         0.02976
  C         0.02012          0.01157         1.34904
  H         0.90068         -0.11203        -0.53739
  H         0.94880          0.01723         1.89367
  H        -0.88027         -0.13814         1.94238
  C        -1.28922          0.00189        -0.76728
  H        -1.08254         -0.00051        -1.83378
  H        -1.88801         -0.87578        -0.52712
  H        -1.88858          0.88133        -0.53477
9
 step=         425     theta[rad]=           4.4506
  C        -0.02069          0.00801         0.02976
  C         0.02012          0.01637         1.34904
  H         0.90068         -0.15843        -0.53739
  H         0.94880          0.02437         1.89367
  H        -0.88027         -0.19536         1.94238
  C        -1.28922          0.00267        -0.76728
  H        -1.08254         -0.00073        -1.83378
  H        -1.88789         -0.87462        -0.52553
  H        -1.88869          0.88248        -0.53635
9
 step=         426     theta[rad]=           4.4611
  C        -0.02069         -0.00976         0.02976
  C         0.02012         -0.01992         1.34904
  H         0.90068          0.19285        -0.53739
  H         0.94880         -0.02966         1.89367
  H        -0.88027          0.23780         1.94238
  C        -1.28922         -0.00325        -0.76728
  H        -1.08254          0.00088        -1.83378
  H        -1.88878         -0.88334        -0.53753
  H        -1.88781          0.87377        -0.52436
9
 step=         427     theta[rad]=           4.4715
  C        -0.02069         -0.00328         0.02976
  C         0.02012         -0.00669         1.34904
  H         0.90068          0.06476        -0.53739
  H         0.94880         -0.00996         1.89367
  H        -0.88027          0.07985         1.94238
  C        -1.28922         -0.00109        -0.76728
  H        -1.08254          0.00030        -1.83378
  H        -1.88846         -0.88016        -0.53315
  H        -1.88813          0.87695        -0.52873
9
 step=         428     theta[rad]=           4.4820
  C        -0.02069          0.01131         0.02976
  C         0.02012          0.02310         1.34904
  H         0.90068         -0.22361        -0.53739
  H         0.94880          0.03440         1.89367
  H        -0.88027         -0.27573         1.94238
  C        -1.28922          0.00377        -0.76728
  H        -1.08254         -0.00103        -1.83378
  H        -1.88773         -0.87301        -0.52331
  H        -1.88886          0.88410        -0.53858
9
 step=         429     theta[rad]=           4.4925
  C        -0.02069         -0.00177         0.02976
  C         0.02012         -0.00362         1.34904
  H         0.90068          0.03505        -0.53739
  H         0.94880         -0.00539         1.89367
  H        -0.88027          0.04322         1.94238
  C        -1.28922         -0.00059        -0.76728
  H        -1.08254          0.00016        -1.83378
  H        -1.88838         -0.87942        -0.53214
  H        -1.88820          0.87768        -0.52975
9
 step=         430     theta[rad]=           4.5029
  C        -0.02069         -0.01058         0.02976
  C         0.02012         -0.02161         1.34904
  H         0.90068          0.20917        -0.53739
  H         0.94880         -0.03217         1.89367
  H        -0.88027          0.25793         1.94238
  C        -1.28922         -0.00352        -0.76728
  H        -1.08254          0.00096        -1.83378
  H        -1.88882         -0.88374        -0.53808
  H        -1.88777          0.87337        -0.52380
9
 step=         431     theta[rad]=           4.5134
  C        -0.02069          0.00607         0.02976
  C         0.02012          0.01240         1.34904
  H         0.90068         -0.12005        -0.53739
  H         0.94880          0.01847         1.89367
  H        -0.88027         -0.14804         1.94238
  C        -1.28922          0.00202        -0.76728
  H        -1.08254         -0.00055        -1.83378
  H        -1.88799         -0.87558        -0.52684
  H        -1.88860          0.88153        -0.53504
9
 step=         432     theta[rad]=           4.5239
  C        -0.02069          0.00826         0.02976
  C         0.02012          0.01687         1.34904
  H         0.90068         -0.16333        -0.53739
  H         0.94880          0.02512         1.89367
  H        -0.88027         -0.20140         1.94238
  C        -1.28922          0.00275        -0.76728
  H        -1.08254         -0.00075        -1.83378
  H        -1.88788         -0.87450        -0.52537
  H        -1.88871          0.88260        -0.53652
9
 step=         433     theta[rad]=           4.5344
  C        -0.02069         -0.00910         0.02976
  C         0.02012         -0.01858         1.34904
  H         0.90068          0.17988        -0.53739
  H         0.94880         -0.02767         1.89367
  H        -0.88027          0.22180         1.94238
  C        -1.28922         -0.00303        -0.76728
  H        -1.08254          0.00083        -1.83378
  H        -1.88875         -0.88301        -0.53708
  H        -1.88784          0.87409        -0.52480
9
 step=         434     theta[rad]=           4.5448
  C        -0.02069         -0.00515         0.02976
  C         0.02012         -0.01051         1.34904
  H         0.90068          0.10172        -0.53739
  H         0.94880         -0.01565         1.89367
  H        -0.88027          0.12543         1.94238
  C        -1.28922         -0.00171        -0.76728
  H        -1.08254          0.00047        -1.83378
  H        -1.88855         -0.88108        -0.53442
  H        -1.88804          0.87603        -0.52747
9
 step=         435     theta[rad]=           4.5553
  C        -0.02069          0.01078         0.02976
  C         0.02012          0.02201         1.34904
  H         0.90068         -0.21309        -0.53739
  H         0.94880          0.03278         1.89367
  H        -0.88027         -0.26276         1.94238
  C        -1.28922          0.00359        -0.76728
  H        -1.08254         -0.00098        -1.83378
  H        -1.88776         -0.87327        -0.52367
  H        -1.88883          0.88384        -0.53822
9
 step=         436     theta[rad]=           4.5658
  C        -0.02069          0.00189         0.02976
  C         0.02012          0.00386         1.34904
  H         0.90068         -0.03737        -0.53739
  H         0.94880          0.00575         1.89367
  H        -0.88027         -0.04607         1.94238
  C        -1.28922          0.00063        -0.76728
  H        -1.08254         -0.00017        -1.83378
  H        -1.88820         -0.87763        -0.52967
  H        -1.88839          0.87948        -0.53222
9
 step=         437     theta[rad]=           4.5763
  C        -0.02069         -0.01133         0.02976
  C         0.02012         -0.02313         1.34904
  H         0.90068          0.22394        -0.53739
  H         0.94880         -0.03445         1.89367
  H        -0.88027          0.27614         1.94238
  C        -1.28922         -0.00377        -0.76728
  H        -1.08254          0.00103        -1.83378
  H        -1.88886         -0.88411        -0.53859
  H        -1.88773          0.87300        -0.52330
9
 step=         438     theta[rad]=           4.5867
  C        -0.02069          0.00107         0.02976
  C         0.02012          0.00218         1.34904
  H         0.90068         -0.02109        -0.53739
  H         0.94880          0.00324         1.89367
  H        -0.88027         -0.02600         1.94238
  C        -1.28922          0.00036        -0.76728
  H        -1.08254         -0.00010        -1.83378
  H        -1.88824         -0.87803        -0.53022
  H        -1.88835          0.87908        -0.53166
9
 step=         439     theta[rad]=           4.5972
  C        -0.02069          0.01109         0.02976
  C         0.02012          0.02264         1.34904
  H         0.90068         -0.21916        -0.53739
  H         0.94880          0.03371         1.89367
  H        -0.88027         -0.27024         1.94238
  C        -1.28922          0.00369        -0.76728
  H        -1.08254         -0.00101        -1.83378
  H        -1.88774         -0.87312        -0.52346
  H        -1.88885          0.88399        -0.53843
9
 step=         440     theta[rad]=           4.6077
  C        -0.02069         -0.00350         0.02976
  C         0.02012         -0.00715         1.34904
  H         0.90068          0.06924        -0.53739
  H         0.94880         -0.01065         1.89367
  H        -0.88027          0.08537         1.94238
  C        -1.28922         -0.00117        -0.76728
  H        -1.08254          0.00032        -1.83378
  H        -1.88847         -0.88027        -0.53331
  H        -1.88812          0.87684        -0.52858
9
 step=         441     theta[rad]=           4.6181
  C        -0.02069         -0.01040         0.02976
  C         0.02012         -0.02124         1.34904
  H         0.90068          0.20563        -0.53739
  H         0.94880         -0.03163         1.89367
  H        -0.88027          0.25356         1.94238
  C        -1.28922         -0.00346        -0.76728
  H        -1.08254          0.00094        -1.83378
  H        -1.88881         -0.88365        -0.53796
  H        -1.88777          0.87345        -0.52392
9
 step=         442     theta[rad]=           4.6286
  C        -0.02069          0.00536         0.02976
  C         0.02012          0.01094         1.34904
  H         0.90068         -0.10588        -0.53739
  H         0.94880          0.01629         1.89367
  H        -0.88027         -0.13056         1.94238
  C        -1.28922          0.00178        -0.76728
  H        -1.08254         -0.00049        -1.83378
  H        -1.88803         -0.87593        -0.52733
  H        -1.88856          0.88118        -0.53456
9
 step=         443     theta[rad]=           4.6391
  C        -0.02069          0.00957         0.02976
  C         0.02012          0.01954         1.34904
  H         0.90068         -0.18918        -0.53739
  H         0.94880          0.02910         1.89367
  H        -0.88027         -0.23327         1.94238
  C        -1.28922          0.00319        -0.76728
  H        -1.08254         -0.00087        -1.83378
  H        -1.88782         -0.87386        -0.52448
  H        -1.88877          0.88325        -0.53740
9
 step=         444     theta[rad]=           4.6496
  C        -0.02069         -0.00666         0.02976
  C         0.02012         -0.01360         1.34904
  H         0.90068          0.13170        -0.53739
  H         0.94880         -0.02026         1.89367
  H        -0.88027          0.16239         1.94238
  C        -1.28922         -0.00222        -0.76728
  H        -1.08254          0.00060        -1.83378
  H        -1.88863         -0.88182        -0.53544
  H        -1.88796          0.87529        -0.52645
9
 step=         445     theta[rad]=           4.6600
  C        -0.02069         -0.00881         0.02976
  C         0.02012         -0.01799         1.34904
  H         0.90068          0.17412        -0.53739
  H         0.94880         -0.02678         1.89367
  H        -0.88027          0.21471         1.94238
  C        -1.28922         -0.00293        -0.76728
  H        -1.08254          0.00080        -1.83378
  H        -1.88873         -0.88287        -0.53689
  H        -1.88785          0.87424        -0.52500
9
 step=         446     theta[rad]=           4.6705
  C        -0.02069          0.00749         0.02976
  C         0.02012          0.01531         1.34904
  H         0.90068         -0.14817        -0.53739
  H         0.94880          0.02279         1.89367
  H        -0.88027         -0.18271         1.94238
  C        -1.28922          0.00250        -0.76728
  H        -1.08254         -0.00068        -1.83378
  H        -1.88792         -0.87488        -0.52588
  H        -1.88867          0.88223        -0.53600
9
 step=         447     theta[rad]=           4.6810
  C        -0.02069          0.00826         0.02976
  C         0.02012          0.01687         1.34904
  H         0.90068         -0.16333        -0.53739
  H         0.94880          0.02512         1.89367
  H        -0.88027         -0.20140         1.94238
  C        -1.28922          0.00275        -0.76728
  H        -1.08254         -0.00075        -1.83378
  H        -1.88788         -0.87450        -0.52537
  H        -1.88871          0.88260        -0.53652
9
 step=         448     theta[rad]=           4.6914
  C        -0.02069         -0.00793         0.02976
  C         0.02012         -0.01619         1.34904
  H         0.90068          0.15676        -0.53739
  H         0.94880         -0.02411         1.89367
  H        -0.88027          0.19330         1.94238
  C        -1.28922         -0.00264        -0.76728
  H        -1.08254          0.00072        -1.83378
  H        -1.88869         -0.88244        -0.53630
  H        -1.88790          0.87467        -0.52559
9
 step=         449     theta[rad]=           4.7019
  C        -0.02069         -0.00801         0.02976
  C         0.02012         -0.01636         1.34904
  H         0.90068          0.15843        -0.53739
  H         0.94880         -0.02437         1.89367
  H        -0.88027          0.19536         1.94238
  C        -1.28922         -0.00267        -0.76728
  H        -1.08254          0.00073        -1.83378
  H        -1.88869         -0.88248        -0.53635
  H        -1.88789          0.87462        -0.52553
9
 step=         450     theta[rad]=           4.7124
  C        -0.02069          0.00801         0.02976
  C         0.02012          0.01637         1.34904
  H         0.90068         -0.15843        -0.53739
  H         0.94880          0.02437         1.89367
  H        -0.88027         -0.19536         1.94238
  C        -1.28922          0.00267        -0.76728
  H        -1.08254         -0.00073        -1.83378
  H        -1.88789         -0.87462        -0.52553
  H        -1.88869          0.88248        -0.53635
9
 step=         451     theta[rad]=           4.7229
  C        -0.02069          0.00810         0.02976
  C         0.02012          0.01654         1.34904
  H         0.90068         -0.16008        -0.53739
  H         0.94880          0.02462         1.89367
  H        -0.88027         -0.19739         1.94238
  C        -1.28922          0.00270        -0.76728
  H        -1.08254         -0.00073        -1.83378
  H        -1.88789         -0.87458        -0.52548
  H        -1.88870          0.88252        -0.53641
9
 step=         452     theta[rad]=           4.7333
  C        -0.02069         -0.00776         0.02976
  C         0.02012         -0.01584         1.34904
  H         0.90068          0.15338        -0.53739
  H         0.94880         -0.02359         1.89367
  H        -0.88027          0.18913         1.94238
  C        -1.28922         -0.00258        -0.76728
  H        -1.08254          0.00070        -1.83378
  H        -1.88868         -0.88236        -0.53618
  H        -1.88791          0.87475        -0.52571
9
 step=         453     theta[rad]=           4.7438
  C        -0.02069         -0.00850         0.02976
  C         0.02012         -0.01736         1.34904
  H         0.90068          0.16807        -0.53739
  H         0.94880         -0.02585         1.89367
  H        -0.88027          0.20724         1.94238
  C        -1.28922         -0.00283        -0.76728
  H        -1.08254          0.00077        -1.83378
  H        -1.88872         -0.88272        -0.53668
  H        -1.88787          0.87439        -0.52520
9
 step=         454     theta[rad]=           4.7543
  C        -0.02069          0.00713         0.02976
  C         0.02012          0.01456         1.34904
  H         0.90068         -0.14100        -0.53739
  H         0.94880          0.02169         1.89367
  H        -0.88027         -0.17387         1.94238
  C        -1.28922          0.00237        -0.76728
  H        -1.08254         -0.00065        -1.83378
  H        -1.88794         -0.87506        -0.52613
  H        -1.88865          0.88205        -0.53576
9
 step=         455     theta[rad]=           4.7647
  C        -0.02069          0.00917         0.02976
  C         0.02012          0.01872         1.34904
  H         0.90068         -0.18126        -0.53739
  H         0.94880          0.02788         1.89367
  H        -0.88027         -0.22351         1.94238
  C        -1.28922          0.00305        -0.76728
  H        -1.08254         -0.00083        -1.83378
  H        -1.88784         -0.87406        -0.52475
  H        -1.88875          0.88305        -0.53713
9
 step=         456     theta[rad]=           4.7752
  C        -0.02069         -0.00607         0.02976
  C         0.02012         -0.01240         1.34904
  H         0.90068          0.12005        -0.53739
  H         0.94880         -0.01847         1.89367
  H        -0.88027          0.14804         1.94238
  C        -1.28922         -0.00202        -0.76728
  H        -1.08254          0.00055        -1.83378
  H        -1.88860         -0.88153        -0.53504
  H        -1.88799          0.87558        -0.52684
9
 step=         457     theta[rad]=           4.7857
  C        -0.02069         -0.00999         0.02976
  C         0.02012         -0.02040         1.34904
  H         0.90068          0.19746        -0.53739
  H         0.94880         -0.03037         1.89367
  H        -0.88027          0.24348         1.94238
  C        -1.28922         -0.00333        -0.76728
  H        -1.08254          0.00091        -1.83378
  H        -1.88879         -0.88345        -0.53768
  H        -1.88780          0.87366        -0.52420
9
 step=         458     theta[rad]=           4.7962
  C        -0.02069          0.00450         0.02976
  C         0.02012          0.00919         1.34904
  H         0.90068         -0.08898        -0.53739
  H         0.94880          0.01369         1.89367
  H        -0.88027         -0.10972         1.94238
  C        -1.28922          0.00150        -0.76728
  H        -1.08254         -0.00041        -1.83378
  H        -1.88807         -0.87635        -0.52790
  H        -1.88852          0.88076        -0.53398
9
 step=         459     theta[rad]=           4.8066
  C        -0.02069          0.01078         0.02976
  C         0.02012          0.02201         1.34904
  H         0.90068         -0.21309        -0.53739
  H         0.94880          0.03278         1.89367
  H        -0.88027         -0.26276         1.94238
  C        -1.28922          0.00359        -0.76728
  H        -1.08254         -0.00098        -1.83378
  H        -1.88776         -0.87327        -0.52367
  H        -1.88883          0.88384        -0.53822
9
 step=         460     theta[rad]=           4.8171
  C        -0.02069         -0.00236         0.02976
  C         0.02012         -0.00481         1.34904
  H         0.90068          0.04658        -0.53739
  H         0.94880         -0.00717         1.89367
  H        -0.88027          0.05744         1.94238
  C        -1.28922         -0.00078        -0.76728
  H        -1.08254          0.00021        -1.83378
  H        -1.88841         -0.87971        -0.53253
  H        -1.88818          0.87740        -0.52935
9
 step=         461     theta[rad]=           4.8276
  C        -0.02069         -0.01128         0.02976
  C         0.02012         -0.02304         1.34904
  H         0.90068          0.22306        -0.53739
  H         0.94880         -0.03431         1.89367
  H        -0.88027          0.27505         1.94238
  C        -1.28922         -0.00376        -0.76728
  H        -1.08254          0.00102        -1.83378
  H        -1.88886         -0.88409        -0.53856
  H        -1.88773          0.87302        -0.52333
9
 step=         462     theta[rad]=           4.8381
  C        -0.02069         -0.00036         0.02976
  C         0.02012         -0.00073         1.34904
  H         0.90068          0.00704        -0.53739
  H         0.94880         -0.00108         1.89367
  H        -0.88027          0.00868         1.94238
  C        -1.28922         -0.00012        -0.76728
  H        -1.08254          0.00003        -1.83378
  H        -1.88831         -0.87873        -0.53118
  H        -1.88828          0.87838        -0.53070
9
 step=         463     theta[rad]=           4.8485
  C        -0.02069          0.01117         0.02976
  C         0.02012          0.02282         1.34904
  H         0.90068         -0.22092        -0.53739
  H         0.94880          0.03398         1.89367
  H        -0.88027         -0.27241         1.94238
  C        -1.28922          0.00372        -0.76728
  H        -1.08254         -0.00101        -1.83378
  H        -1.88774         -0.87307        -0.52340
  H        -1.88885          0.88403        -0.53849
9
 step=         464     theta[rad]=           4.8590
  C        -0.02069          0.00350         0.02976
  C         0.02012          0.00715         1.34904
  H         0.90068         -0.06924        -0.53739
  H         0.94880          0.01065         1.89367
  H        -0.88027         -0.08537         1.94238
  C        -1.28922          0.00117        -0.76728
  H        -1.08254         -0.00032        -1.83378
  H        -1.88812         -0.87684        -0.52858
  H        -1.88847          0.88027        -0.53331
9
 step=         465     theta[rad]=           4.8695
  C        -0.02069         -0.01010         0.02976
  C         0.02012         -0.02062         1.34904
  H         0.90068          0.19963        -0.53739
  H         0.94880         -0.03071         1.89367
  H        -0.88027          0.24617         1.94238
  C        -1.28922         -0.00336        -0.76728
  H        -1.08254          0.00092        -1.83378
  H        -1.88880         -0.88350        -0.53776
  H        -1.88779          0.87360        -0.52413
9
 step=         466     theta[rad]=           4.8799
  C        -0.02069         -0.00676         0.02976
  C         0.02012         -0.01380         1.34904
  H         0.90068          0.13359        -0.53739
  H         0.94880         -0.02055         1.89367
  H        -0.88027          0.16472         1.94238
  C        -1.28922         -0.00225        -0.76728
  H        -1.08254          0.00061        -1.83378
  H        -1.88863         -0.88187        -0.53550
  H        -1.88796          0.87524        -0.52638
9
 step=         467     theta[rad]=           4.8904
  C        -0.02069          0.00776         0.02976
  C         0.02012          0.01584         1.34904
  H         0.90068         -0.15338        -0.53739
  H         0.94880          0.02359         1.89367
  H        -0.88027         -0.18912         1.94238
  C        -1.28922          0.00258        -0.76728
  H        -1.08254         -0.00070        -1.83378
  H        -1.88791         -0.87475        -0.52571
  H        -1.88868          0.88236        -0.53618
9
 step=         468     theta[rad]=           4.9009
  C        -0.02069          0.00957         0.02976
  C         0.02012          0.01954         1.34904
  H         0.90068         -0.18918        -0.53739
  H         0.94880          0.02910         1.89367
  H        -0.88027         -0.23327         1.94238
  C        -1.28922          0.00319        -0.76728
  H        -1.08254         -0.00087        -1.83378
  H        -1.88782         -0.87386        -0.52448
  H        -1.88877          0.88325        -0.53740
9
 step=         469     theta[rad]=           4.9114
  C        -0.02069         -0.00406         0.02976
  C         0.02012         -0.00829         1.34904
  H         0.90068          0.08029        -0.53739
  H         0.94880         -0.01235         1.89367
  H        -0.88027          0.09901         1.94238
  C        -1.28922         -0.00135        -0.76728
  H        -1.08254          0.00037        -1.83378
  H        -1.88850         -0.88054        -0.53368
  H        -1.88809          0.87656        -0.52820
9
 step=         470     theta[rad]=           4.9218
  C        -0.02069         -0.01119         0.02976
  C         0.02012         -0.02286         1.34904
  H         0.90068          0.22130        -0.53739
  H         0.94880         -0.03404         1.89367
  H        -0.88027          0.27288         1.94238
  C        -1.28922         -0.00373        -0.76728
  H        -1.08254          0.00101        -1.83378
  H        -1.88885         -0.88404        -0.53850
  H        -1.88774          0.87307        -0.52339
9
 step=         471     theta[rad]=           4.9323
  C        -0.02069         -0.00071         0.02976
  C         0.02012         -0.00145         1.34904
  H         0.90068          0.01407        -0.53739
  H         0.94880         -0.00216         1.89367
  H        -0.88027          0.01735         1.94238
  C        -1.28922         -0.00024        -0.76728
  H        -1.08254          0.00006        -1.83378
  H        -1.88833         -0.87890        -0.53142
  H        -1.88826          0.87820        -0.53046
9
 step=         472     theta[rad]=           4.9428
  C        -0.02069          0.01085         0.02976
  C         0.02012          0.02216         1.34904
  H         0.90068         -0.21449        -0.53739
  H         0.94880          0.03299         1.89367
  H        -0.88027         -0.26449         1.94238
  C        -1.28922          0.00361        -0.76728
  H        -1.08254         -0.00098        -1.83378
  H        -1.88775         -0.87323        -0.52362
  H        -1.88883          0.88387        -0.53827
9
 step=         473     theta[rad]=           4.9532
  C        -0.02069          0.00577         0.02976
  C         0.02012          0.01178         1.34904
  H         0.90068         -0.11405        -0.53739
  H         0.94880          0.01754         1.89367
  H        -0.88027         -0.14064         1.94238
  C        -1.28922          0.00192        -0.76728
  H        -1.08254         -0.00052        -1.83378
  H        -1.88801         -0.87573        -0.52705
  H        -1.88858          0.88138        -0.53484
9
 step=         474     theta[rad]=           4.9637
  C        -0.02069         -0.00801         0.02976
  C         0.02012         -0.01636         1.34904
  H         0.90068          0.15843        -0.53739
  H         0.94880         -0.02437         1.89367
  H        -0.88027          0.19536         1.94238
  C        -1.28922         -0.00267        -0.76728
  H        -1.08254          0.00073        -1.83378
  H        -1.88869         -0.88248        -0.53635
  H        -1.88789          0.87462        -0.52553
9
 step=         475     theta[rad]=           4.9742
  C        -0.02069         -0.00982         0.02976
  C         0.02012         -0.02004         1.34904
  H         0.90068          0.19404        -0.53739
  H         0.94880         -0.02985         1.89367
  H        -0.88027          0.23926         1.94238
  C        -1.28922         -0.00327        -0.76728
  H        -1.08254          0.00089        -1.83378
  H        -1.88878         -0.88337        -0.53757
  H        -1.88780          0.87374        -0.52432
9
 step=         476     theta[rad]=           4.9847
  C        -0.02069          0.00282         0.02976
  C         0.02012          0.00576         1.34904
  H         0.90068         -0.05572        -0.53739
  H         0.94880          0.00857         1.89367
  H        -0.88027         -0.06871         1.94238
  C        -1.28922          0.00094        -0.76728
  H        -1.08254         -0.00026        -1.83378
  H        -1.88815         -0.87717        -0.52904
  H        -1.88843          0.87994        -0.53285
9
 step=         477     theta[rad]=           4.9951
  C        -0.02069          0.01133         0.02976
  C         0.02012          0.02313         1.34904
  H         0.90068         -0.22394        -0.53739
  H         0.94880          0.03445         1.89367
  H        -0.88027         -0.27614         1.94238
  C        -1.28922          0.00377        -0.76728
  H        -1.08254         -0.00103        -1.83378
  H        -1.88773         -0.87300        -0.52330
  H        -1.88886          0.88411        -0.53859
9
 step=         478     theta[rad]=           5.0056
  C        -0.02069          0.00361         0.02976
  C         0.02012          0.00738         1.34904
  H         0.90068         -0.07146        -0.53739
  H         0.94880          0.01099         1.89367
  H        -0.88027         -0.08812         1.94238
  C        -1.28922          0.00120        -0.76728
  H        -1.08254         -0.00033        -1.83378
  H        -1.88811         -0.87678        -0.52850
  H        -1.88847          0.88033        -0.53338
9
 step=         479     theta[rad]=           5.0161
  C        -0.02069         -0.00917         0.02976
  C         0.02012         -0.01872         1.34904
  H         0.90068          0.18126        -0.53739
  H         0.94880         -0.02788         1.89367
  H        -0.88027          0.22351         1.94238
  C        -1.28922         -0.00305        -0.76728
  H        -1.08254          0.00083        -1.83378
  H        -1.88875         -0.88305        -0.53713
  H        -1.88784          0.87406        -0.52475
9
 step=         480     theta[rad]=           5.0265
  C        -0.02069         -0.00917         0.02976
  C         0.02012         -0.01872         1.34904
  H         0.90068          0.18126        -0.53739
  H         0.94880         -0.02788         1.89367
  H        -0.88027          0.22351         1.94238
  C        -1.28922         -0.00305        -0.76728
  H        -1.08254          0.00083        -1.83378
  H        -1.88875         -0.88305        -0.53713
  H        -1.88784          0.87406        -0.52475
9
 step=         481     theta[rad]=           5.0370
  C        -0.02069          0.00339         0.02976
  C         0.02012          0.00692         1.34904
  H         0.90068         -0.06700        -0.53739
  H         0.94880          0.01031         1.89367
  H        -0.88027         -0.08262         1.94238
  C        -1.28922          0.00113        -0.76728
  H        -1.08254         -0.00031        -1.83378
  H        -1.88812         -0.87689        -0.52865
  H        -1.88846          0.88022        -0.53323
9
 step=         482     theta[rad]=           5.0475
  C        -0.02069          0.01133         0.02976
  C         0.02012          0.02313         1.34904
  H         0.90068         -0.22394        -0.53739
  H         0.94880          0.03445         1.89367
  H        -0.88027         -0.27614         1.94238
  C        -1.28922          0.00377        -0.76728
  H        -1.08254         -0.00103        -1.83378
  H        -1.88773         -0.87300        -0.52330
  H        -1.88886          0.88411        -0.53859
9
 step=         483     theta[rad]=           5.0580
  C        -0.02069          0.00417         0.02976
  C         0.02012          0.00852         1.34904
  H         0.90068         -0.08248        -0.53739
  H         0.94880          0.01269         1.89367
  H        -0.88027         -0.10170         1.94238
  C        -1.28922          0.00139        -0.76728
  H        -1.08254         -0.00038        -1.83378
  H        -1.88809         -0.87651        -0.52813
  H        -1.88850          0.88060        -0.53376
9
 step=         484     theta[rad]=           5.0684
  C        -0.02069         -0.00842         0.02976
  C         0.02012         -0.01720         1.34904
  H         0.90068          0.16651        -0.53739
  H         0.94880         -0.02561         1.89367
  H        -0.88027          0.20531         1.94238
  C        -1.28922         -0.00280        -0.76728
  H        -1.08254          0.00076        -1.83378
  H        -1.88871         -0.88268        -0.53663
  H        -1.88787          0.87442        -0.52526
9
 step=         485     theta[rad]=           5.0789
  C        -0.02069         -0.01010         0.02976
  C         0.02012         -0.02062         1.34904
  H         0.90068          0.19963        -0.53739
  H         0.94880         -0.03071         1.89367
  H        -0.88027          0.24617         1.94238
  C        -1.28922         -0.00336        -0.76728
  H        -1.08254          0.00092        -1.83378
  H        -1.88880         -0.88350        -0.53776
  H        -1.88779          0.87360        -0.52413
9
 step=         486     theta[rad]=           5.0894
  C        -0.02069          0.00107         0.02976
  C         0.02012          0.00218         1.34904
  H         0.90068         -0.02109        -0.53739
  H         0.94880          0.00324         1.89367
  H        -0.88027         -0.02600         1.94238
  C        -1.28922          0.00036        -0.76728
  H        -1.08254         -0.00010        -1.83378
  H        -1.88824         -0.87803        -0.53022
  H        -1.88835          0.87908        -0.53166
9
 step=         487     theta[rad]=           5.0999
  C        -0.02069          0.01085         0.02976
  C         0.02012          0.02216         1.34904
  H         0.90068         -0.21449        -0.53739
  H         0.94880          0.03299         1.89367
  H        -0.88027         -0.26449         1.94238
  C        -1.28922          0.00361        -0.76728
  H        -1.08254         -0.00098        -1.83378
  H        -1.88775         -0.87323        -0.52362
  H        -1.88883          0.88387        -0.53827
9
 step=         488     theta[rad]=           5.1103
  C        -0.02069          0.00722         0.02976
  C         0.02012          0.01475         1.34904
  H         0.90068         -0.14282        -0.53739
  H         0.94880          0.02197         1.89367
  H        -0.88027         -0.17611         1.94238
  C        -1.28922          0.00241        -0.76728
  H        -1.08254         -0.00065        -1.83378
  H        -1.88793         -0.87501        -0.52607
  H        -1.88865          0.88210        -0.53582
9
 step=         489     theta[rad]=           5.1208
  C        -0.02069         -0.00515         0.02976
  C         0.02012         -0.01051         1.34904
  H         0.90068          0.10172        -0.53739
  H         0.94880         -0.01565         1.89367
  H        -0.88027          0.12543         1.94238
  C        -1.28922         -0.00171        -0.76728
  H        -1.08254          0.00047        -1.83378
  H        -1.88855         -0.88108        -0.53442
  H        -1.88804          0.87603        -0.52747
9
 step=         490     theta[rad]=           5.1313
  C        -0.02069         -0.01132         0.02976
  C         0.02012         -0.02311         1.34904
  H         0.90068          0.22375        -0.53739
  H         0.94880         -0.03442         1.89367
  H        -0.88027          0.27590         1.94238
  C        -1.28922         -0.00377        -0.76728
  H        -1.08254          0.00103        -1.83378
  H        -1.88886         -0.88410        -0.53858
  H        -1.88773          0.87300        -0.52330
9
 step=         491     theta[rad]=           5.1417
  C        -0.02069         -0.00417         0.02976
  C         0.02012         -0.00852         1.34904
  H         0.90068          0.08248        -0.53739
  H         0.94880         -0.01269         1.89367
  H        -0.88027          0.10170         1.94238
  C        -1.28922         -0.00139        -0.76728
  H        -1.08254          0.00038        -1.83378
  H        -1.88850         -0.88060        -0.53376
  H        -1.88809          0.87651        -0.52813
9
 step=         492     theta[rad]=           5.1522
  C        -0.02069          0.00776         0.02976
  C         0.02012          0.01584         1.34904
  H         0.90068         -0.15338        -0.53739
  H         0.94880          0.02359         1.89367
  H        -0.88027         -0.18912         1.94238
  C        -1.28922          0.00258        -0.76728
  H        -1.08254         -0.00070        -1.83378
  H        -1.88791         -0.87475        -0.52571
  H        -1.88868          0.88236        -0.53618
9
 step=         493     theta[rad]=           5.1627
  C        -0.02069          0.01081         0.02976
  C         0.02012          0.02208         1.34904
  H         0.90068         -0.21380        -0.53739
  H         0.94880          0.03289         1.89367
  H        -0.88027         -0.26364         1.94238
  C        -1.28922          0.00360        -0.76728
  H        -1.08254         -0.00098        -1.83378
  H        -1.88775         -0.87325        -0.52364
  H        -1.88883          0.88386        -0.53824
9
 step=         494     theta[rad]=           5.1732
  C        -0.02069          0.00177         0.02976
  C         0.02012          0.00362         1.34904
  H         0.90068         -0.03505        -0.53739
  H         0.94880          0.00539         1.89367
  H        -0.88027         -0.04322         1.94238
  C        -1.28922          0.00059        -0.76728
  H        -1.08254         -0.00016        -1.83378
  H        -1.88820         -0.87768        -0.52975
  H        -1.88838          0.87942        -0.53214
9
 step=         495     theta[rad]=           5.1836
  C        -0.02069         -0.00917         0.02976
  C         0.02012         -0.01872         1.34904
  H         0.90068          0.18126        -0.53739
  H         0.94880         -0.02788         1.89367
  H        -0.88027          0.22351         1.94238
  C        -1.28922         -0.00305        -0.76728
  H        -1.08254          0.00083        -1.83378
  H        -1.88875         -0.88305        -0.53713
  H        -1.88784          0.87406        -0.52475
9
 step=         496     theta[rad]=           5.1941
  C        -0.02069         -0.01015         0.02976
  C         0.02012         -0.02073         1.34904
  H         0.90068          0.20069        -0.53739
  H         0.94880         -0.03087         1.89367
  H        -0.88027          0.24747         1.94238
  C        -1.28922         -0.00338        -0.76728
  H        -1.08254          0.00092        -1.83378
  H        -1.88880         -0.88353        -0.53779
  H        -1.88779          0.87358        -0.52409
9
 step=         497     theta[rad]=           5.2046
  C        -0.02069         -0.00036         0.02976
  C         0.02012         -0.00073         1.34904
  H         0.90068          0.00704        -0.53739
  H         0.94880         -0.00108         1.89367
  H        -0.88027          0.00868         1.94238
  C        -1.28922         -0.00012        -0.76728
  H        -1.08254          0.00003        -1.83378
  H        -1.88831         -0.87873        -0.53118
  H        -1.88828          0.87838        -0.53070
9
 step=         498     theta[rad]=           5.2150
  C        -0.02069          0.00976         0.02976
  C         0.02012          0.01992         1.34904
  H         0.90068         -0.19285        -0.53739
  H         0.94880          0.02966         1.89367
  H        -0.88027         -0.23780         1.94238
  C        -1.28922          0.00325        -0.76728
  H        -1.08254         -0.00088        -1.83378
  H        -1.88781         -0.87377        -0.52436
  H        -1.88878          0.88334        -0.53753
9
 step=         499     theta[rad]=           5.2255
  C        -0.02069          0.00982         0.02976
  C         0.02012          0.02004         1.34904
  H         0.90068         -0.19404        -0.53739
  H         0.94880          0.02985         1.89367
  H        -0.88027         -0.23926         1.94238
  C        -1.28922          0.00327        -0.76728
  H        -1.08254         -0.00089        -1.83378
  H        -1.88780         -0.87374        -0.52432
  H        -1.88878          0.88337        -0.53757
9
 step=         500     theta[rad]=           5.2360
  C        -0.02069         -0.00000         0.02976
  C         0.02012          0.00000         1.34904
  H         0.90068         -0.00000        -0.53739
  H         0.94880         -0.00000         1.89367
  H        -0.88027          0.00000         1.94238
  C        -1.28922         -0.00000        -0.76728
  H        -1.08254          0.00000        -1.83378
  H        -1.88829         -0.87855        -0.53094
  H        -1.88829          0.87855        -0.53094
9
 step=         501     theta[rad]=           5.2465
  C        -0.02069         -0.00976         0.02976
  C         0.02012         -0.01992         1.34904
  H         0.90068          0.19285        -0.53739
  H         0.94880         -0.02966         1.89367
  H        -0.88027          0.23780         1.94238
  C        -1.28922         -0.00325        -0.76728
  H        -1.08254          0.00088        -1.83378
  H        -1.88878         -0.88334        -0.53753
  H        -1.88781          0.87377        -0.52436
9
 step=         502     theta[rad]=           5.2569
  C        -0.02069         -0.00999         0.02976
  C         0.02012         -0.02040         1.34904
  H         0.90068          0.19746        -0.53739
  H         0.94880         -0.03037         1.89367
  H        -0.88027          0.24348         1.94238
  C        -1.28922         -0.00333        -0.76728
  H        -1.08254          0.00091        -1.83378
  H        -1.88879         -0.88345        -0.53768
  H        -1.88780          0.87366        -0.52420
9
 step=         503     theta[rad]=           5.2674
  C        -0.02069         -0.00071         0.02976
  C         0.02012         -0.00145         1.34904
  H         0.90068          0.01407        -0.53739
  H         0.94880         -0.00216         1.89367
  H        -0.88027          0.01735         1.94238
  C        -1.28922         -0.00024        -0.76728
  H        -1.08254          0.00006        -1.83378
  H        -1.88833         -0.87890        -0.53142
  H        -1.88826          0.87820        -0.53046
9
 step=         504     theta[rad]=           5.2779
  C        -0.02069          0.00917         0.02976
  C         0.02012          0.01872         1.34904
  H         0.90068         -0.18126        -0.53739
  H         0.94880          0.02788         1.89367
  H        -0.88027         -0.22351         1.94238
  C        -1.28922          0.00305        -0.76728
  H        -1.08254         -0.00083        -1.83378
  H        -1.88784         -0.87406        -0.52475
  H        -1.88875          0.88305        -0.53713
9
 step=         505     theta[rad]=           5.2883
  C        -0.02069          0.01058         0.02976
  C         0.02012          0.02161         1.34904
  H         0.90068         -0.20917        -0.53739
  H         0.94880          0.03217         1.89367
  H        -0.88027         -0.25793         1.94238
  C        -1.28922          0.00352        -0.76728
  H        -1.08254         -0.00096        -1.83378
  H        -1.88777         -0.87337        -0.52380
  H        -1.88882          0.88374        -0.53808
9
 step=         506     theta[rad]=           5.2988
  C        -0.02069          0.00247         0.02976
  C         0.02012          0.00505         1.34904
  H         0.90068         -0.04888        -0.53739
  H         0.94880          0.00752         1.89367
  H        -0.88027         -0.06027         1.94238
  C        -1.28922          0.00082        -0.76728
  H        -1.08254         -0.00022        -1.83378
  H        -1.88817         -0.87734        -0.52927
  H        -1.88842          0.87977        -0.53261
9
 step=         507     theta[rad]=           5.3093
  C        -0.02069         -0.00776         0.02976
  C         0.02012         -0.01584         1.34904
  H         0.90068          0.15338        -0.53739
  H         0.94880         -0.02359         1.89367
  H        -0.88027          0.18913         1.94238
  C        -1.28922         -0.00258        -0.76728
  H        -1.08254          0.00070        -1.83378
  H        -1.88868         -0.88236        -0.53618
  H        -1.88791          0.87475        -0.52571
9
 step=         508     theta[rad]=           5.3198
  C        -0.02069         -0.01121         0.02976
  C         0.02012         -0.02290         1.34904
  H         0.90068          0.22165        -0.53739
  H         0.94880         -0.03409         1.89367
  H        -0.88027          0.27331         1.94238
  C        -1.28922         -0.00373        -0.76728
  H        -1.08254          0.00102        -1.83378
  H        -1.88885         -0.88405        -0.53851
  H        -1.88773          0.87306        -0.52337
9
 step=         509     theta[rad]=           5.3302
  C        -0.02069         -0.00515         0.02976
  C         0.02012         -0.01051         1.34904
  H         0.90068          0.10172        -0.53739
  H         0.94880         -0.01565         1.89367
  H        -0.88027          0.12543         1.94238
  C        -1.28922         -0.00171        -0.76728
  H        -1.08254          0.00047        -1.83378
  H        -1.88855         -0.88108        -0.53442
  H        -1.88804          0.87603        -0.52747
9
 step=         510     theta[rad]=           5.3407
  C        -0.02069          0.00515         0.02976
  C         0.02012          0.01051         1.34904
  H         0.90068         -0.10172        -0.53739
  H         0.94880          0.01565         1.89367
  H        -0.88027         -0.12543         1.94238
  C        -1.28922          0.00171        -0.76728
  H        -1.08254         -0.00047        -1.83378
  H        -1.88804         -0.87603        -0.52747
  H        -1.88855          0.88108        -0.53442
9
 step=         511     theta[rad]=           5.3512
  C        -0.02069          0.01117         0.02976
  C         0.02012          0.02282         1.34904
  H         0.90068         -0.22092        -0.53739
  H         0.94880          0.03398         1.89367
  H        -0.88027         -0.27241         1.94238
  C        -1.28922          0.00372        -0.76728
  H        -1.08254         -0.00101        -1.83378
  H        -1.88774         -0.87307        -0.52340
  H        -1.88885          0.88403        -0.53849
9
 step=         512     theta[rad]=           5.3617
  C        -0.02069          0.00826         0.02976
  C         0.02012          0.01687         1.34904
  H         0.90068         -0.16333        -0.53739
  H         0.94880          0.02512         1.89367
  H        -0.88027         -0.20140         1.94238
  C        -1.28922          0.00275        -0.76728
  H        -1.08254         -0.00075        -1.83378
  H        -1.88788         -0.87450        -0.52537
  H        -1.88871          0.88260        -0.53652
9
 step=         513     theta[rad]=           5.3721
  C        -0.02069         -0.00107         0.02976
  C         0.02012         -0.00218         1.34904
  H         0.90068          0.02109        -0.53739
  H         0.94880         -0.00324         1.89367
  H        -0.88027          0.02600         1.94238
  C        -1.28922         -0.00036        -0.76728
  H        -1.08254          0.00010        -1.83378
  H        -1.88835         -0.87908        -0.53166
  H        -1.88824          0.87803        -0.53022
9
 step=         514     theta[rad]=           5.3826
  C        -0.02069         -0.00950         0.02976
  C         0.02012         -0.01941         1.34904
  H         0.90068          0.18791        -0.53739
  H         0.94880         -0.02890         1.89367
  H        -0.88027          0.23171         1.94238
  C        -1.28922         -0.00316        -0.76728
  H        -1.08254          0.00086        -1.83378
  H        -1.88877         -0.88321        -0.53736
  H        -1.88782          0.87389        -0.52453
9
 step=         515     theta[rad]=           5.3931
  C        -0.02069         -0.01078         0.02976
  C         0.02012         -0.02201         1.34904
  H         0.90068          0.21309        -0.53739
  H         0.94880         -0.03278         1.89367
  H        -0.88027          0.26276         1.94238
  C        -1.28922         -0.00359        -0.76728
  H        -1.08254          0.00098        -1.83378
  H        -1.88883         -0.88384        -0.53822
  H        -1.88776          0.87327        -0.52367
9
 step=         516     theta[rad]=           5.4035
  C        -0.02069         -0.00417         0.02976
  C         0.02012         -0.00852         1.34904
  H         0.90068          0.08248        -0.53739
  H         0.94880         -0.01269         1.89367
  H        -0.88027          0.10170         1.94238
  C        -1.28922         -0.00139        -0.76728
  H        -1.08254          0.00038        -1.83378
  H        -1.88850         -0.88060        -0.53376
  H        -1.88809          0.87651        -0.52813
9
 step=         517     theta[rad]=           5.4140
  C        -0.02069          0.00536         0.02976
  C         0.02012          0.01094         1.34904
  H         0.90068         -0.10588        -0.53739
  H         0.94880          0.01629         1.89367
  H        -0.88027         -0.13056         1.94238
  C        -1.28922          0.00178        -0.76728
  H        -1.08254         -0.00049        -1.83378
  H        -1.88803         -0.87593        -0.52733
  H        -1.88856          0.88118        -0.53456
9
 step=         518     theta[rad]=           5.4245
  C        -0.02069          0.01106         0.02976
  C         0.02012          0.02259         1.34904
  H         0.90068         -0.21866        -0.53739
  H         0.94880          0.03363         1.89367
  H        -0.88027         -0.26962         1.94238
  C        -1.28922          0.00368        -0.76728
  H        -1.08254         -0.00100        -1.83378
  H        -1.88774         -0.87313        -0.52348
  H        -1.88884          0.88398        -0.53841
9
 step=         519     theta[rad]=           5.4350
  C        -0.02069          0.00917         0.02976
  C         0.02012          0.01872         1.34904
  H         0.90068         -0.18126        -0.53739
  H         0.94880          0.02788         1.89367
  H        -0.88027         -0.22351         1.94238
  C        -1.28922          0.00305        -0.76728
  H        -1.08254         -0.00083        -1.83378
  H        -1.88784         -0.87406        -0.52475
  H        -1.88875          0.88305        -0.53713
9
 step=         520     theta[rad]=           5.4454
  C        -0.02069          0.00118         0.02976
  C         0.02012          0.00242         1.34904
  H         0.90068         -0.02342        -0.53739
  H         0.94880          0.00360         1.89367
  H        -0.88027         -0.02888         1.94238
  C        -1.28922          0.00039        -0.76728
  H        -1.08254         -0.00011        -1.83378
  H        -1.88823         -0.87797        -0.53014
  H        -1.88835          0.87913        -0.53174
9
 step=         521     theta[rad]=           5.4559
  C        -0.02069         -0.00749         0.02976
  C         0.02012         -0.01531         1.34904
  H         0.90068          0.14817        -0.53739
  H         0.94880         -0.02279         1.89367
  H        -0.88027          0.18271         1.94238
  C        -1.28922         -0.00250        -0.76728
  H        -1.08254          0.00068        -1.83378
  H        -1.88867         -0.88223        -0.53600
  H        -1.88792          0.87488        -0.52588
9
 step=         522     theta[rad]=           5.4664
  C        -0.02069         -0.01133         0.02976
  C         0.02012         -0.02313         1.34904
  H         0.90068          0.22394        -0.53739
  H         0.94880         -0.03445         1.89367
  H        -0.88027          0.27614         1.94238
  C        -1.28922         -0.00377        -0.76728
  H        -1.08254          0.00103        -1.83378
  H        -1.88886         -0.88411        -0.53859
  H        -1.88773          0.87300        -0.52330
9
 step=         523     theta[rad]=           5.4768
  C        -0.02069         -0.00810         0.02976
  C         0.02012         -0.01654         1.34904
  H         0.90068          0.16008        -0.53739
  H         0.94880         -0.02462         1.89367
  H        -0.88027          0.19739         1.94238
  C        -1.28922         -0.00270        -0.76728
  H        -1.08254          0.00073        -1.83378
  H        -1.88870         -0.88252        -0.53641
  H        -1.88789          0.87458        -0.52548
9
 step=         524     theta[rad]=           5.4873
  C        -0.02069         -0.00000         0.02976
  C         0.02012          0.00000         1.34904
  H         0.90068         -0.00000        -0.53739
  H         0.94880         -0.00000         1.89367
  H        -0.88027          0.00000         1.94238
  C        -1.28922         -0.00000        -0.76728
  H        -1.08254          0.00000        -1.83378
  H        -1.88829         -0.87855        -0.53094
  H        -1.88829          0.87855        -0.53094
9
 step=         525     theta[rad]=           5.4978
  C        -0.02069          0.00801         0.02976
  C         0.02012          0.01637         1.34904
  H         0.90068         -0.15843        -0.53739
  H         0.94880          0.02437         1.89367
  H        -0.88027         -0.19536         1.94238
  C        -1.28922          0.00267        -0.76728
  H        -1.08254         -0.00073        -1.83378
  H        -1.88789         -0.87462        -0.52553
  H        -1.88869          0.88248        -0.53635
9
 step=         526     theta[rad]=           5.5083
  C        -0.02069          0.01133         0.02976
  C         0.02012          0.02314         1.34904
  H         0.90068         -0.22404        -0.53739
  H         0.94880          0.03446         1.89367
  H        -0.88027         -0.27626         1.94238
  C        -1.28922          0.00377        -0.76728
  H        -1.08254         -0.00103        -1.83378
  H        -1.88773         -0.87300        -0.52329
  H        -1.88886          0.88411        -0.53859
9
 step=         527     theta[rad]=           5.5187
  C        -0.02069          0.00826         0.02976
  C         0.02012          0.01687         1.34904
  H         0.90068         -0.16333        -0.53739
  H         0.94880          0.02512         1.89367
  H        -0.88027         -0.20140         1.94238
  C        -1.28922          0.00275        -0.76728
  H        -1.08254         -0.00075        -1.83378
  H        -1.88788         -0.87450        -0.52537
  H        -1.88871          0.88260        -0.53652
9
 step=         528     theta[rad]=           5.5292
  C        -0.02069          0.00071         0.02976
  C         0.02012          0.00145         1.34904
  H         0.90068         -0.01407        -0.53739
  H         0.94880          0.00216         1.89367
  H        -0.88027         -0.01735         1.94238
  C        -1.28922          0.00024        -0.76728
  H        -1.08254         -0.00006        -1.83378
  H        -1.88826         -0.87820        -0.53046
  H        -1.88833          0.87890        -0.53142
9
 step=         529     theta[rad]=           5.5397
  C        -0.02069         -0.00713         0.02976
  C         0.02012         -0.01456         1.34904
  H         0.90068          0.14100        -0.53739
  H         0.94880         -0.02169         1.89367
  H        -0.88027          0.17387         1.94238
  C        -1.28922         -0.00237        -0.76728
  H        -1.08254          0.00065        -1.83378
  H        -1.88865         -0.88205        -0.53576
  H        -1.88794          0.87506        -0.52613
9
 step=         530     theta[rad]=           5.5501
  C        -0.02069         -0.01119         0.02976
  C         0.02012         -0.02286         1.34904
  H         0.90068          0.22130        -0.53739
  H         0.94880         -0.03404         1.89367
  H        -0.88027          0.27288         1.94238
  C        -1.28922         -0.00373        -0.76728
  H        -1.08254          0.00101        -1.83378
  H        -1.88885         -0.88404        -0.53850
  H        -1.88774          0.87307        -0.52339
9
 step=         531     theta[rad]=           5.5606
  C        -0.02069         -0.00957         0.02976
  C         0.02012         -0.01954         1.34904
  H         0.90068          0.18918        -0.53739
  H         0.94880         -0.02910         1.89367
  H        -0.88027          0.23327         1.94238
  C        -1.28922         -0.00319        -0.76728
  H        -1.08254          0.00087        -1.83378
  H        -1.88877         -0.88325        -0.53740
  H        -1.88782          0.87386        -0.52448
9
 step=         532     theta[rad]=           5.5711
  C        -0.02069         -0.00328         0.02976
  C         0.02012         -0.00669         1.34904
  H         0.90068          0.06476        -0.53739
  H         0.94880         -0.00996         1.89367
  H        -0.88027          0.07985         1.94238
  C        -1.28922         -0.00109        -0.76728
  H        -1.08254          0.00030        -1.83378
  H        -1.88846         -0.88016        -0.53315
  H        -1.88813          0.87695        -0.52873
9
 step=         533     theta[rad]=           5.5816
  C        -0.02069          0.00450         0.02976
  C         0.02012          0.00919         1.34904
  H         0.90068         -0.08898        -0.53739
  H         0.94880          0.01369         1.89367
  H        -0.88027         -0.10972         1.94238
  C        -1.28922          0.00150        -0.76728
  H        -1.08254         -0.00041        -1.83378
  H        -1.88807         -0.87635        -0.52790
  H        -1.88852          0.88076        -0.53398
9
 step=         534     theta[rad]=           5.5920
  C        -0.02069          0.01010         0.02976
  C         0.02012          0.02062         1.34904
  H         0.90068         -0.19963        -0.53739
  H         0.94880          0.03071         1.89367
  H        -0.88027         -0.24617         1.94238
  C        -1.28922          0.00336        -0.76728
  H        -1.08254         -0.00092        -1.83378
  H        -1.88779         -0.87360        -0.52413
  H        -1.88880          0.88350        -0.53776
9
 step=         535     theta[rad]=           5.6025
  C        -0.02069          0.01109         0.02976
  C         0.02012          0.02264         1.34904
  H         0.90068         -0.21916        -0.53739
  H         0.94880          0.03371         1.89367
  H        -0.88027         -0.27024         1.94238
  C        -1.28922          0.00369        -0.76728
  H        -1.08254         -0.00101        -1.83378
  H        -1.88774         -0.87312        -0.52346
  H        -1.88885          0.88399        -0.53843
9
 step=         536     theta[rad]=           5.6130
  C        -0.02069          0.00722         0.02976
  C         0.02012          0.01475         1.34904
  H         0.90068         -0.14282        -0.53739
  H         0.94880          0.02197         1.89367
  H        -0.88027         -0.17611         1.94238
  C        -1.28922          0.00241        -0.76728
  H        -1.08254         -0.00065        -1.83378
  H        -1.88793         -0.87501        -0.52607
  H        -1.88865          0.88210        -0.53582
9
 step=         537     theta[rad]=           5.6235
  C        -0.02069          0.00036         0.02976
  C         0.02012          0.00073         1.34904
  H         0.90068         -0.00704        -0.53739
  H         0.94880          0.00108         1.89367
  H        -0.88027         -0.00868         1.94238
  C        -1.28922          0.00012        -0.76728
  H        -1.08254         -0.00003        -1.83378
  H        -1.88828         -0.87838        -0.53070
  H        -1.88831          0.87873        -0.53118
9
 step=         538     theta[rad]=           5.6339
  C        -0.02069         -0.00657         0.02976
  C         0.02012         -0.01341         1.34904
  H         0.90068          0.12979        -0.53739
  H         0.94880         -0.01996         1.89367
  H        -0.88027          0.16004         1.94238
  C        -1.28922         -0.00219        -0.76728
  H        -1.08254          0.00060        -1.83378
  H        -1.88862         -0.88177        -0.53537
  H        -1.88797          0.87533        -0.52651
9
 step=         539     theta[rad]=           5.6444
  C        -0.02069         -0.01078         0.02976
  C         0.02012         -0.02201         1.34904
  H         0.90068          0.21309        -0.53739
  H         0.94880         -0.03278         1.89367
  H        -0.88027          0.26276         1.94238
  C        -1.28922         -0.00359        -0.76728
  H        -1.08254          0.00098        -1.83378
  H        -1.88883         -0.88384        -0.53822
  H        -1.88776          0.87327        -0.52367
9
 step=         540     theta[rad]=           5.6549
  C        -0.02069         -0.01078         0.02976
  C         0.02012         -0.02201         1.34904
  H         0.90068          0.21309        -0.53739
  H         0.94880         -0.03278         1.89367
  H        -0.88027          0.26276         1.94238
  C        -1.28922         -0.00359        -0.76728
  H        -1.08254          0.00098        -1.83378
  H        -1.88883         -0.88384        -0.53822
  H        -1.88776          0.87327        -0.52367
9
 step=         541     theta[rad]=           5.6653
  C        -0.02069         -0.00676         0.02976
  C         0.02012         -0.01380         1.34904
  H         0.90068          0.13359        -0.53739
  H         0.94880         -0.02055         1.89367
  H        -0.88027          0.16472         1.94238
  C        -1.28922         -0.00225        -0.76728
  H        -1.08254          0.00061        -1.83378
  H        -1.88863         -0.88187        -0.53550
  H        -1.88796          0.87524        -0.52638
9
 step=         542     theta[rad]=           5.6758
  C        -0.02069         -0.00036         0.02976
  C         0.02012         -0.00073         1.34904
  H         0.90068          0.00704        -0.53739
  H         0.94880         -0.00108         1.89367
  H        -0.88027          0.00868         1.94238
  C        -1.28922         -0.00012        -0.76728
  H        -1.08254          0.00003        -1.83378
  H        -1.88831         -0.87873        -0.53118
  H        -1.88828          0.87838        -0.53070
9
 step=         543     theta[rad]=           5.6863
  C        -0.02069          0.00607         0.02976
  C         0.02012          0.01240         1.34904
  H         0.90068         -0.12005        -0.53739
  H         0.94880          0.01847         1.89367
  H        -0.88027         -0.14804         1.94238
  C        -1.28922          0.00202        -0.76728
  H        -1.08254         -0.00055        -1.83378
  H        -1.88799         -0.87558        -0.52684
  H        -1.88860          0.88153        -0.53504
9
 step=         544     theta[rad]=           5.6968
  C        -0.02069          0.01035         0.02976
  C         0.02012          0.02114         1.34904
  H         0.90068         -0.20468        -0.53739
  H         0.94880          0.03148         1.89367
  H        -0.88027         -0.25239         1.94238
  C        -1.28922          0.00345        -0.76728
  H        -1.08254         -0.00094        -1.83378
  H        -1.88778         -0.87348        -0.52395
  H        -1.88881          0.88363        -0.53793
9
 step=         545     theta[rad]=           5.7072
  C        -0.02069          0.01119         0.02976
  C         0.02012          0.02286         1.34904
  H         0.90068         -0.22130        -0.53739
  H         0.94880          0.03404         1.89367
  H        -0.88027         -0.27288         1.94238
  C        -1.28922          0.00373        -0.76728
  H        -1.08254         -0.00101        -1.83378
  H        -1.88774         -0.87307        -0.52339
  H        -1.88885          0.88404        -0.53850
9
 step=         546     theta[rad]=           5.7177
  C        -0.02069          0.00850         0.02976
  C         0.02012          0.01736         1.34904
  H         0.90068         -0.16807        -0.53739
  H         0.94880          0.02585         1.89367
  H        -0.88027         -0.20724         1.94238
  C        -1.28922          0.00283        -0.76728
  H        -1.08254         -0.00077        -1.83378
  H        -1.88787         -0.87439        -0.52520
  H        -1.88872          0.88272        -0.53668
9
 step=         547     theta[rad]=           5.7282
  C        -0.02069          0.00328         0.02976
  C         0.02012          0.00669         1.34904
  H         0.90068         -0.06476        -0.53739
  H         0.94880          0.00996         1.89367
  H        -0.88027         -0.07985         1.94238
  C        -1.28922          0.00109        -0.76728
  H        -1.08254         -0.00030        -1.83378
  H        -1.88813         -0.87695        -0.52873
  H        -1.88846          0.88016        -0.53315
9
 step=         548     theta[rad]=           5.7386
  C        -0.02069         -0.00282         0.02976
  C         0.02012         -0.00576         1.34904
  H         0.90068          0.05572        -0.53739
  H         0.94880         -0.00857         1.89367
  H        -0.88027          0.06871         1.94238
  C        -1.28922         -0.00094        -0.76728
  H        -1.08254          0.00026        -1.83378
  H        -1.88843         -0.87994        -0.53285
  H        -1.88815          0.87717        -0.52904
9
 step=         549     theta[rad]=           5.7491
  C        -0.02069         -0.00801         0.02976
  C         0.02012         -0.01636         1.34904
  H         0.90068          0.15843        -0.53739
  H         0.94880         -0.02437         1.89367
  H        -0.88027          0.19536         1.94238
  C        -1.28922         -0.00267        -0.76728
  H        -1.08254          0.00073        -1.83378
  H        -1.88869         -0.88248        -0.53635
  H        -1.88789          0.87462        -0.52553
9
 step=         550     theta[rad]=           5.7596
  C        -0.02069         -0.01095         0.02976
  C         0.02012         -0.02236         1.34904
  H         0.90068          0.21642        -0.53739
  H         0.94880         -0.03329         1.89367
  H        -0.88027          0.26686         1.94238
  C        -1.28922         -0.00365        -0.76728
  H        -1.08254          0.00099        -1.83378
  H        -1.88884         -0.88392        -0.53833
  H        -1.88775          0.87319        -0.52355
9
 step=         551     theta[rad]=           5.7701
  C        -0.02069         -0.01098         0.02976
  C         0.02012         -0.02242         1.34904
  H         0.90068          0.21702        -0.53739
  H         0.94880         -0.03338         1.89367
  H        -0.88027          0.26760         1.94238
  C        -1.28922         -0.00366        -0.76728
  H        -1.08254          0.00100        -1.83378
  H        -1.88884         -0.88394        -0.53835
  H        -1.88775          0.87317        -0.52353
9
 step=         552     theta[rad]=           5.7805
  C        -0.02069         -0.00826         0.02976
  C         0.02012         -0.01687         1.34904
  H         0.90068          0.16333        -0.53739
  H         0.94880         -0.02512         1.89367
  H        -0.88027          0.20140         1.94238
  C        -1.28922         -0.00275        -0.76728
  H        -1.08254          0.00075        -1.83378
  H        -1.88871         -0.88260        -0.53652
  H        -1.88788          0.87450        -0.52537
9
 step=         553     theta[rad]=           5.7910
  C        -0.02069         -0.00361         0.02976
  C         0.02012         -0.00738         1.34904
  H         0.90068          0.07146        -0.53739
  H         0.94880         -0.01099         1.89367
  H        -0.88027          0.08812         1.94238
  C        -1.28922         -0.00120        -0.76728
  H        -1.08254          0.00033        -1.83378
  H        -1.88847         -0.88033        -0.53338
  H        -1.88811          0.87678        -0.52850
9
 step=         554     theta[rad]=           5.8015
  C        -0.02069          0.00177         0.02976
  C         0.02012          0.00362         1.34904
  H         0.90068         -0.03505        -0.53739
  H         0.94880          0.00539         1.89367
  H        -0.88027         -0.04322         1.94238
  C        -1.28922          0.00059        -0.76728
  H        -1.08254         -0.00016        -1.83378
  H        -1.88820         -0.87768        -0.52975
  H        -1.88838          0.87942        -0.53214
9
 step=         555     theta[rad]=           5.8119
  C        -0.02069          0.00666         0.02976
  C         0.02012          0.01360         1.34904
  H         0.90068         -0.13170        -0.53739
  H         0.94880          0.02026         1.89367
  H        -0.88027         -0.16239         1.94238
  C        -1.28922          0.00222        -0.76728
  H        -1.08254         -0.00060        -1.83378
  H        -1.88796         -0.87529        -0.52645
  H        -1.88863          0.88182        -0.53544
9
 step=         556     theta[rad]=           5.8224
  C        -0.02069          0.01004         0.02976
  C         0.02012          0.02051         1.34904
  H         0.90068         -0.19856        -0.53739
  H         0.94880          0.03054         1.89367
  H        -0.88027         -0.24484         1.94238
  C        -1.28922          0.00334        -0.76728
  H        -1.08254         -0.00091        -1.83378
  H        -1.88779         -0.87363        -0.52416
  H        -1.88879          0.88348        -0.53772
9
 step=         557     theta[rad]=           5.8329
  C        -0.02069          0.01133         0.02976
  C         0.02012          0.02313         1.34904
  H         0.90068         -0.22394        -0.53739
  H         0.94880          0.03445         1.89367
  H        -0.88027         -0.27614         1.94238
  C        -1.28922          0.00377        -0.76728
  H        -1.08254         -0.00103        -1.83378
  H        -1.88773         -0.87300        -0.52330
  H        -1.88886          0.88411        -0.53859
9
 step=         558     theta[rad]=           5.8434
  C        -0.02069          0.01040         0.02976
  C         0.02012          0.02124         1.34904
  H         0.90068         -0.20563        -0.53739
  H         0.94880          0.03163         1.89367
  H        -0.88027         -0.25356         1.94238
  C        -1.28922          0.00346        -0.76728
  H        -1.08254         -0.00094        -1.83378
  H        -1.88777         -0.87345        -0.52392
  H        -1.88881          0.88365        -0.53796
9
 step=         559     theta[rad]=           5.8538
  C        -0.02069          0.00758         0.02976
  C         0.02012          0.01549         1.34904
  H         0.90068         -0.14992        -0.53739
  H         0.94880          0.02306         1.89367
  H        -0.88027         -0.18487         1.94238
  C        -1.28922          0.00253        -0.76728
  H        -1.08254         -0.00069        -1.83378
  H        -1.88792         -0.87484        -0.52582
  H        -1.88867          0.88227        -0.53606
9
 step=         560     theta[rad]=           5.8643
  C        -0.02069          0.00350         0.02976
  C         0.02012          0.00715         1.34904
  H         0.90068         -0.06924        -0.53739
  H         0.94880          0.01065         1.89367
  H        -0.88027         -0.08537         1.94238
  C        -1.28922          0.00117        -0.76728
  H        -1.08254         -0.00032        -1.83378
  H        -1.88812         -0.87684        -0.52858
  H        -1.88847          0.88027        -0.53331
9
 step=         561     theta[rad]=           5.8748
  C        -0.02069         -0.00107         0.02976
  C         0.02012         -0.00218         1.34904
  H         0.90068          0.02109        -0.53739
  H         0.94880         -0.00324         1.89367
  H        -0.88027          0.02600         1.94238
  C        -1.28922         -0.00036        -0.76728
  H        -1.08254          0.00010        -1.83378
  H        -1.88835         -0.87908        -0.53166
  H        -1.88824          0.87803        -0.53022
9
 step=         562     theta[rad]=           5.8853
  C        -0.02069         -0.00536         0.02976
  C         0.02012         -0.01094         1.34904
  H         0.90068          0.10588        -0.53739
  H         0.94880         -0.01629         1.89367
  H        -0.88027          0.13056         1.94238
  C        -1.28922         -0.00178        -0.76728
  H        -1.08254          0.00049        -1.83378
  H        -1.88856         -0.88118        -0.53456
  H        -1.88803          0.87593        -0.52733
9
 step=         563     theta[rad]=           5.8957
  C        -0.02069         -0.00873         0.02976
  C         0.02012         -0.01783         1.34904
  H         0.90068          0.17264        -0.53739
  H         0.94880         -0.02655         1.89367
  H        -0.88027          0.21288         1.94238
  C        -1.28922         -0.00291        -0.76728
  H        -1.08254          0.00079        -1.83378
  H        -1.88873         -0.88283        -0.53684
  H        -1.88786          0.87427        -0.52505
9
 step=         564     theta[rad]=           5.9062
  C        -0.02069         -0.01078         0.02976
  C         0.02012         -0.02201         1.34904
  H         0.90068          0.21309        -0.53739
  H         0.94880         -0.03278         1.89367
  H        -0.88027          0.26276         1.94238
  C        -1.28922         -0.00359        -0.76728
  H        -1.08254          0.00098        -1.83378
  H        -1.88883         -0.88384        -0.53822
  H        -1.88776          0.87327        -0.52367
9
 step=         565     theta[rad]=           5.9167
  C        -0.02069         -0.01132         0.02976
  C         0.02012         -0.02311         1.34904
  H         0.90068          0.22375        -0.53739
  H         0.94880         -0.03442         1.89367
  H        -0.88027          0.27590         1.94238
  C        -1.28922         -0.00377        -0.76728
  H        -1.08254          0.00103        -1.83378
  H        -1.88886         -0.88410        -0.53858
  H        -1.88773          0.87300        -0.52330
9
 step=         566     theta[rad]=           5.9271
  C        -0.02069         -0.01040         0.02976
  C         0.02012         -0.02124         1.34904
  H         0.90068          0.20563        -0.53739
  H         0.94880         -0.03163         1.89367
  H        -0.88027          0.25356         1.94238
  C        -1.28922         -0.00346        -0.76728
  H        -1.08254          0.00094        -1.83378
  H        -1.88881         -0.88365        -0.53796
  H        -1.88777          0.87345        -0.52392
9
 step=         567     theta[rad]=           5.9376
  C        -0.02069         -0.00826         0.02976
  C         0.02012         -0.01687         1.34904
  H         0.90068          0.16333        -0.53739
  H         0.94880         -0.02512         1.89367
  H        -0.88027          0.20140         1.94238
  C        -1.28922         -0.00275        -0.76728
  H        -1.08254          0.00075        -1.83378
  H        -1.88871         -0.88260        -0.53652
  H        -1.88788          0.87450        -0.52537
9
 step=         568     theta[rad]=           5.9481
  C        -0.02069         -0.00525         0.02976
  C         0.02012         -0.01072         1.34904
  H         0.90068          0.10380        -0.53739
  H         0.94880         -0.01597         1.89367
  H        -0.88027          0.12800         1.94238
  C        -1.28922         -0.00175        -0.76728
  H        -1.08254          0.00048        -1.83378
  H        -1.88856         -0.88113        -0.53449
  H        -1.88803          0.87598        -0.52740
9
 step=         569     theta[rad]=           5.9586
  C        -0.02069         -0.00177         0.02976
  C         0.02012         -0.00362         1.34904
  H         0.90068          0.03505        -0.53739
  H         0.94880         -0.00539         1.89367
  H        -0.88027          0.04322         1.94238
  C        -1.28922         -0.00059        -0.76728
  H        -1.08254          0.00016        -1.83378
  H        -1.88838         -0.87942        -0.53214
  H        -1.88820          0.87768        -0.52975
9
 step=         570     theta[rad]=           5.9690
  C        -0.02069          0.00177         0.02976
  C         0.02012          0.00362         1.34904
  H         0.90068         -0.03505        -0.53739
  H         0.94880          0.00539         1.89367
  H        -0.88027         -0.04322         1.94238
  C        -1.28922          0.00059        -0.76728
  H        -1.08254         -0.00016        -1.83378
  H        -1.88820         -0.87768        -0.52975
  H        -1.88838          0.87942        -0.53214
9
 step=         571     theta[rad]=           5.9795
  C        -0.02069          0.00504         0.02976
  C         0.02012          0.01029         1.34904
  H         0.90068         -0.09962        -0.53739
  H         0.94880          0.01532         1.89367
  H        -0.88027         -0.12284         1.94238
  C        -1.28922          0.00168        -0.76728
  H        -1.08254         -0.00046        -1.83378
  H        -1.88804         -0.87608        -0.52754
  H        -1.88854          0.88102        -0.53434
9
 step=         572     theta[rad]=           5.9900
  C        -0.02069          0.00776         0.02976
  C         0.02012          0.01584         1.34904
  H         0.90068         -0.15338        -0.53739
  H         0.94880          0.02359         1.89367
  H        -0.88027         -0.18912         1.94238
  C        -1.28922          0.00258        -0.76728
  H        -1.08254         -0.00070        -1.83378
  H        -1.88791         -0.87475        -0.52571
  H        -1.88868          0.88236        -0.53618
9
 step=         573     theta[rad]=           6.0004
  C        -0.02069          0.00976         0.02976
  C         0.02012          0.01992         1.34904
  H         0.90068         -0.19285        -0.53739
  H         0.94880          0.02966         1.89367
  H        -0.88027         -0.23780         1.94238
  C        -1.28922          0.00325        -0.76728
  H        -1.08254         -0.00088        -1.83378
  H        -1.88781         -0.87377        -0.52436
  H        -1.88878          0.88334        -0.53753
9
 step=         574     theta[rad]=           6.0109
  C        -0.02069          0.01095         0.02976
  C         0.02012          0.02236         1.34904
  H         0.90068         -0.21642        -0.53739
  H         0.94880          0.03329         1.89367
  H        -0.88027         -0.26686         1.94238
  C        -1.28922          0.00365        -0.76728
  H        -1.08254         -0.00099        -1.83378
  H        -1.88775         -0.87319        -0.52355
  H        -1.88884          0.88392        -0.53833
9
 step=         575     theta[rad]=           6.0214
  C        -0.02069          0.01133         0.02976
  C         0.02012          0.02314         1.34904
  H         0.90068         -0.22405        -0.53739
  H         0.94880          0.03446         1.89367
  H        -0.88027         -0.27628         1.94238
  C        -1.28922          0.00377        -0.76728
  H        -1.08254         -0.00103        -1.83378
  H        -1.88773         -0.87300        -0.52329
  H        -1.88886          0.88411        -0.53859
9
 step=         576     theta[rad]=           6.0319
  C        -0.02069          0.01098         0.02976
  C         0.02012          0.02242         1.34904
  H         0.90068         -0.21702        -0.53739
  H         0.94880          0.03338         1.89367
  H        -0.88027         -0.26760         1.94238
  C        -1.28922          0.00366        -0.76728
  H        -1.08254         -0.00100        -1.83378
  H        -1.88775         -0.87317        -0.52353
  H        -1.88884          0.88394        -0.53835
9
 step=         577     theta[rad]=           6.0423
  C        -0.02069          0.00999         0.02976
  C         0.02012          0.02040         1.34904
  H         0.90068         -0.19746        -0.53739
  H         0.94880          0.03037         1.89367
  H        -0.88027         -0.24348         1.94238
  C        -1.28922          0.00333        -0.76728
  H        -1.08254         -0.00091        -1.83378
  H        -1.88780         -0.87366        -0.52420
  H        -1.88879          0.88345        -0.53768
9
 step=         578     theta[rad]=           6.0528
  C        -0.02069          0.00850         0.02976
  C         0.02012          0.01736         1.34904
  H         0.90068         -0.16807        -0.53739
  H         0.94880          0.02585         1.89367
  H        -0.88027         -0.20724         1.94238
  C        -1.28922          0.00283        -0.76728
  H        -1.08254         -0.00077        -1.83378
  H        -1.88787         -0.87439        -0.52520
  H        -1.88872          0.88272        -0.53668
9
 step=         579     theta[rad]=           6.0633
  C        -0.02069          0.00666         0.02976
  C         0.02012          0.01360         1.34904
  H         0.90068         -0.13170        -0.53739
  H         0.94880          0.02026         1.89367
  H        -0.88027         -0.16239         1.94238
  C        -1.28922          0.00222        -0.76728
  H        -1.08254         -0.00060        -1.83378
  H        -1.88796         -0.87529        -0.52645
  H        -1.88863          0.88182        -0.53544
9
 step=         580     theta[rad]=           6.0737
  C        -0.02069          0.00461         0.02976
  C         0.02012          0.00941         1.34904
  H         0.90068         -0.09113        -0.53739
  H         0.94880          0.01402         1.89367
  H        -0.88027         -0.11237         1.94238
  C        -1.28922          0.00153        -0.76728
  H        -1.08254         -0.00042        -1.83378
  H        -1.88806         -0.87629        -0.52783
  H        -1.88852          0.88081        -0.53405
9
 step=         581     theta[rad]=           6.0842
  C        -0.02069          0.00247         0.02976
  C         0.02012          0.00505         1.34904
  H         0.90068         -0.04888        -0.53739
  H         0.94880          0.00752         1.89367
  H        -0.88027         -0.06027         1.94238
  C        -1.28922          0.00082        -0.76728
  H        -1.08254         -0.00022        -1.83378
  H        -1.88817         -0.87734        -0.52927
  H        -1.88842          0.87977        -0.53261
9
 step=         582     theta[rad]=           6.0947
  C        -0.02069          0.00036         0.02976
  C         0.02012          0.00073         1.34904
  H         0.90068         -0.00704        -0.53739
  H         0.94880          0.00108         1.89367
  H        -0.88027         -0.00868         1.94238
  C        -1.28922          0.00012        -0.76728
  H        -1.08254         -0.00003        -1.83378
  H        -1.88828         -0.87838        -0.53070
  H        -1.88831          0.87873        -0.53118
9
 step=         583     theta[rad]=           6.1052
  C        -0.02069         -0.00166         0.02976
  C         0.02012         -0.00338         1.34904
  H         0.90068          0.03273        -0.53739
  H         0.94880         -0.00503         1.89367
  H        -0.88027          0.04036         1.94238
  C        -1.28922         -0.00055        -0.76728
  H        -1.08254          0.00015        -1.83378
  H        -1.88838         -0.87937        -0.53206
  H        -1.88821          0.87774        -0.52982
9
 step=         584     theta[rad]=           6.1156
  C        -0.02069         -0.00350         0.02976
  C         0.02012         -0.00715         1.34904
  H         0.90068          0.06924        -0.53739
  H         0.94880         -0.01065         1.89367
  H        -0.88027          0.08537         1.94238
  C        -1.28922         -0.00117        -0.76728
  H        -1.08254          0.00032        -1.83378
  H        -1.88847         -0.88027        -0.53331
  H        -1.88812          0.87684        -0.52858
9
 step=         585     theta[rad]=           6.1261
  C        -0.02069         -0.00515         0.02976
  C         0.02012         -0.01051         1.34904
  H         0.90068          0.10172        -0.53739
  H         0.94880         -0.01565         1.89367
  H        -0.88027          0.12543         1.94238
  C        -1.28922         -0.00171        -0.76728
  H        -1.08254          0.00047        -1.83378
  H        -1.88855         -0.88108        -0.53442
  H        -1.88804          0.87603        -0.52747
9
 step=         586     theta[rad]=           6.1366
  C        -0.02069         -0.00657         0.02976
  C         0.02012         -0.01341         1.34904
  H         0.90068          0.12979        -0.53739
  H         0.94880         -0.01996         1.89367
  H        -0.88027          0.16004         1.94238
  C        -1.28922         -0.00219        -0.76728
  H        -1.08254          0.00060        -1.83378
  H        -1.88862         -0.88177        -0.53537
  H        -1.88797          0.87533        -0.52651
9
 step=         587     theta[rad]=           6.1470
  C        -0.02069         -0.00776         0.02976
  C         0.02012         -0.01584         1.34904
  H         0.90068          0.15338        -0.53739
  H         0.94880         -0.02359         1.89367
  H        -0.88027          0.18913         1.94238
  C        -1.28922         -0.00258        -0.76728
  H        -1.08254          0.00070        -1.83378
  H        -1.88868         -0.88236        -0.53618
  H        -1.88791          0.87475        -0.52571
9
 step=         588     theta[rad]=           6.1575
  C        -0.02069         -0.00873         0.02976
  C         0.02012         -0.01783         1.34904
  H         0.90068          0.17264        -0.53739
  H         0.94880         -0.02655         1.89367
  H        -0.88027          0.21288         1.94238
  C        -1.28922         -0.00291        -0.76728
  H        -1.08254          0.00079        -1.83378
  H        -1.88873         -0.88283        -0.53684
  H        -1.88786          0.87427        -0.52505
9
 step=         589     theta[rad]=           6.1680
  C        -0.02069         -0.00950         0.02976
  C         0.02012         -0.01941         1.34904
  H         0.90068          0.18791        -0.53739
  H         0.94880         -0.02890         1.89367
  H        -0.88027          0.23171         1.94238
  C        -1.28922         -0.00316        -0.76728
  H        -1.08254          0.00086        -1.83378
  H        -1.88877         -0.88321        -0.53736
  H        -1.88782          0.87389        -0.52453
9
 step=         590     theta[rad]=           6.1785
  C        -0.02069         -0.01010         0.02976
  C         0.02012         -0.02062         1.34904
  H         0.90068          0.19963        -0.53739
  H         0.94880         -0.03071         1.89367
  H        -0.88027          0.24617         1.94238
  C        -1.28922         -0.00336        -0.76728
  H        -1.08254          0.00092        -1.83378
  H        -1.88880         -0.88350        -0.53776
  H        -1.88779          0.87360        -0.52413
9
 step=         591     theta[rad]=           6.1889
  C        -0.02069         -0.01054         0.02976
  C         0.02012         -0.02152         1.34904
  H         0.90068          0.20832        -0.53739
  H         0.94880         -0.03204         1.89367
  H        -0.88027          0.25688         1.94238
  C        -1.28922         -0.00351        -0.76728
  H        -1.08254          0.00096        -1.83378
  H        -1.88882         -0.88372        -0.53806
  H        -1.88777          0.87339        -0.52383
9
 step=         592     theta[rad]=           6.1994
  C        -0.02069         -0.01085         0.02976
  C         0.02012         -0.02216         1.34904
  H         0.90068          0.21449        -0.53739
  H         0.94880         -0.03299         1.89367
  H        -0.88027          0.26449         1.94238
  C        -1.28922         -0.00361        -0.76728
  H        -1.08254          0.00098        -1.83378
  H        -1.88883         -0.88387        -0.53827
  H        -1.88775          0.87323        -0.52362
9
 step=         593     theta[rad]=           6.2099
  C        -0.02069         -0.01106         0.02976
  C         0.02012         -0.02259         1.34904
  H         0.90068          0.21866        -0.53739
  H         0.94880         -0.03363         1.89367
  H        -0.88027          0.26962         1.94238
  C        -1.28922         -0.00368        -0.76728
  H        -1.08254          0.00100        -1.83378
  H        -1.88884         -0.88398        -0.53841
  H        -1.88774          0.87313        -0.52348
9
 step=         594     theta[rad]=           6.2204
  C        -0.02069         -0.01119         0.02976
  C         0.02012         -0.02286         1.34904
  H         0.90068          0.22130        -0.53739
  H         0.94880         -0.03404         1.89367
  H        -0.88027          0.27288         1.94238
  C        -1.28922         -0.00373        -0.76728
  H        -1.08254          0.00101        -1.83378
  H        -1.88885         -0.88404        -0.53850
  H        -1.88774          0.87307        -0.52339
9
 step=         595     theta[rad]=           6.2308
  C        -0.02069         -0.01127         0.02976
  C         0.02012         -0.02302         1.34904
  H         0.90068          0.22283        -0.53739
  H         0.94880         -0.03427         1.89367
  H        -0.88027          0.27476         1.94238
  C        -1.28922         -0.00375        -0.76728
  H        -1.08254          0.00102        -1.83378
  H        -1.88886         -0.88408        -0.53855
  H        -1.88773          0.87303        -0.52333
9
 step=         596     theta[rad]=           6.2413
  C        -0.02069         -0.01131         0.02976
  C         0.02012         -0.02310         1.34904
  H         0.90068          0.22361        -0.53739
  H         0.94880         -0.03440         1.89367
  H        -0.88027          0.27573         1.94238
  C        -1.28922         -0.00377        -0.76728
  H        -1.08254          0.00103        -1.83378
  H        -1.88886         -0.88410        -0.53858
  H        -1.88773          0.87301        -0.52331
9
 step=         597     theta[rad]=           6.2518
  C        -0.02069         -0.01133         0.02976
  C         0.02012         -0.02313         1.34904
  H         0.90068          0.22394        -0.53739
  H         0.94880         -0.03445         1.89367
  H        -0.88027          0.27614         1.94238
  C        -1.28922         -0.00377        -0.76728
  H        -1.08254          0.00103        -1.83378
  H        -1.88886         -0.88411        -0.53859
  H        -1.88773          0.87300        -0.52330
9
 step=         598     theta[rad]=           6.2622
  C        -0.02069         -0.01133         0.02976
  C         0.02012         -0.02314         1.34904
  H         0.90068          0.22404        -0.53739
  H         0.94880         -0.03446         1.89367
  H        -0.88027          0.27626         1.94238
  C        -1.28922         -0.00377        -0.76728
  H        -1.08254          0.00103        -1.83378
  H        -1.88886         -0.88411        -0.53859
  H        -1.88773          0.87300        -0.52329
9
 step=         599     theta[rad]=           6.2727
  C        -0.02069         -0.01133         0.02976
  C         0.02012         -0.02314         1.34904
  H         0.90068          0.22405        -0.53739
  H         0.94880         -0.03446         1.89367
  H        -0.88027          0.27628         1.94238
  C        -1.28922         -0.00377        -0.76728
  H        -1.08254          0.00103        -1.83378
  H        -1.88886         -0.88411        -0.53859
  H        -1.88773          0.87300        -0.52329
9
 step=         600     theta[rad]=           6.2832
  C        -0.02069         -0.01133         0.02976
  C         0.02012         -0.02314         1.34904
  H         0.90068          0.22405        -0.53739
  H         0.94880         -0.03446         1.89367
  H        -0.88027          0.27628         1.94238
  C        -1.28922         -0.00377        -0.76728
  H        -1.08254          0.00103        -1.83378
  H        -1.88886         -0.88411        -0.53859
  H        -1.88773          0.87300        -0.52329
