8
step=          63  t[fs]=       63.00   Vpot[Eh]=        0.00000000   Tkin[Eh]=    0.03874698   dE[kJ]=           0.0000   T[K]=   1019.6
  C         0.03048          0.60332        -1.15515         17.140392          7.504330        -0.633152
  C         0.65326         -0.27467         0.06243          3.714574         -2.139312        -1.430225
  O         0.15988         -0.38422         1.08706         -3.525343         -5.757902        -8.550258
  H         0.94549          1.07250        -1.63201         -1.358297          1.645717         6.364940
  H        -0.33837         -0.11543        -1.87801          1.763294         -3.561088         0.397211
  H        -0.80263          1.22812        -0.69709         -3.789171          2.318155         3.921431
  O         4.01223         -0.26486         4.11122         -2.741210         -1.885030        -0.768663
  O         5.01446          0.26468         3.62736        -11.204239          1.875130         0.698717
