10
step=        1339  t[fs]=      937.30   Vpot[Eh]=        0.00000000   Tkin[Eh]=    0.03991476   dE[kJ]=           0.0000   T[K]=    840.3
  C         2.35736         -0.91018        -2.16035         -2.211773          6.139806        -8.118238
  C         1.98931         -0.20693        -3.20961         10.411275          4.734179         1.515407
  H         1.73126         -1.90279        -1.88104          0.165986          0.099766        -0.410391
  H         1.03956         -0.39940        -3.82357         -3.365723         -3.716975        -1.482146
  H         2.44964          0.66098        -3.57854         -2.742770         -2.989248         3.313635
  C         3.58171         -0.73422        -1.34283          1.758438         -6.738282        -9.013221
  H         3.65488         -1.63209        -0.84868          0.425620          0.888693         2.909369
  H         4.65233         -0.88401        -2.05068          0.706082         -1.679983        -1.989268
  H         3.59717          0.14894        -0.63875          3.961154          0.509665         3.727633
  C        -4.01496          2.18772        10.50379         -9.108290          2.752380         9.547220
