6
Coordinates from ORCA-job ch3-O2_r2scan-3c_opt E -190.188597832139
  C          -0.01959920799547      0.05839757509735      0.04323127688056
  H           0.12691036671081      0.10274276104475      1.12649314607848
  H           0.88898078398029     -0.26347438623210     -0.46753852631025
  H          -0.37164750316787      1.02352773740889     -0.33189342481622
  O          -1.07393348768115     -0.91583185404859     -0.21611624196979
  O          -0.64577195184662     -1.94059383327029     -0.92904822986278
