4
 step=           0 Ene =           -9.04631174 GradMax =            0.06888154
  O      0.05611301       0.22647282     -0.07718638
  O      0.22803214       0.12659915      1.42240571
  H      0.80962288      -0.16006871     -0.39944209
  H     -0.59093202       0.56266873      1.67422676
4
 step=           1 Ene =           -9.05249120 GradMax =            0.03685540
  O      0.03960842       0.23519715     -0.06418291
  O      0.22490283       0.12892083      1.39074443
  H      0.82408663      -0.16798452     -0.38714913
  H     -0.58576188       0.55953854      1.68059161
4
 step=           2 Ene =           -9.05464080 GradMax =            0.00174833
  O      0.02985746       0.24068170     -0.04874205
  O      0.21740660       0.13384611      1.35475150
  H      0.83687078      -0.17531349     -0.37844351
  H     -0.58129885       0.55645768      1.69243806
4
 step=           3 Ene =           -9.05466797 GradMax =            0.00054415
  O      0.03305756       0.23922268     -0.04861461
  O      0.21546908       0.13504505      1.35720724
  H      0.83780062      -0.17597493     -0.38470691
  H     -0.58349126       0.55737920      1.69611828
4
 step=           4 Ene =           -9.05466947 GradMax =            0.00020621
  O      0.03396878       0.23897844     -0.04798692
  O      0.21522887       0.13539680      1.35764978
  H      0.83780988      -0.17620409     -0.38630281
  H     -0.58417153       0.55750085      1.69664396
