8
step=           0  t[fs]=        0.00   Vpot[Eh]=     -302.81167558   Tkin[Eh]=    0.02626264   dE[kJ]=           0.0000   T[K]=    691.1
  C        -0.56663          0.10607        -1.10006         13.525445          0.376561         7.657184
  C         0.36339         -0.25940         0.00237          2.439851          0.116105        -5.858602
  O         0.29070          0.08437         1.08288         -4.655210         -9.527708         2.522646
  H        -0.22664         -0.68528        -1.97654          2.188290          5.298053        -1.113922
  H        -1.52846         -0.06948        -0.67161         -0.326063          0.047680        -1.260672
  H        -0.43706          1.24266        -1.45966          0.653164          3.689309        -1.946635
  O         4.30710         -0.09078         4.06830        -11.614113         -4.618376         2.927643
  O         5.38045          0.09078         3.67193         -2.211364          4.618376        -2.927643
8
step=           1  t[fs]=        1.00   Vpot[Eh]=     -302.81517973   Tkin[Eh]=    0.02961140   dE[kJ]=          -0.4080   T[K]=    779.2
  C        -0.55231          0.10640        -1.09387         15.111530          0.719750         4.718960
  C         0.36610         -0.25961        -0.00489          3.070568         -0.412084        -8.287044
  O         0.28724          0.07768         1.08621         -4.623159         -8.626361         6.054983
  H        -0.20886         -0.61088        -1.98064          0.860421          7.039516         0.309393
  H        -1.53744         -0.06929        -0.68855         -1.001970          0.005479        -1.666373
  H        -0.43077          1.27293        -1.47874          0.409929          1.273782        -1.128898
  O         4.29754         -0.09437         4.07082        -13.640854         -4.964504         3.677665
  O         5.37974          0.09437         3.66941         -0.186464          4.964422        -3.678687
8
step=           2  t[fs]=        2.00   Vpot[Eh]=     -302.82215887   Tkin[Eh]=    0.03614907   dE[kJ]=          -1.5671   T[K]=    951.2
  C        -0.53670          0.10749        -1.09071         15.897492          1.896727         1.878702
  C         0.36947         -0.26021        -0.01404          3.748517         -0.640589        -9.500495
  O         0.28382          0.07154         1.09188         -4.511288         -8.075560         8.619277
  H        -0.20633         -0.51910        -1.96924         -0.278259          8.053595         1.253572
  H        -1.55211         -0.06935        -0.71095         -1.211317          0.014835        -2.184293
  H        -0.42738          1.27273        -1.48631          0.184032         -1.248851        -0.064678
  O         4.28681         -0.09817         4.07377        -14.657160         -5.141966         4.055037
  O         5.38018          0.09817         3.66646          0.827983          5.141810        -4.057121
8
step=           3  t[fs]=        3.00   Vpot[Eh]=     -302.82617712   Tkin[Eh]=    0.03984530   dE[kJ]=          -2.4125   T[K]=   1048.5
  C        -0.52081          0.11015        -1.09015         15.529570          3.876845        -0.127013
  C         0.37353         -0.26088        -0.02371          4.455878         -0.552919        -9.286642
  O         0.28053          0.06566         1.09903         -4.306118         -7.924476         9.972989
  H        -0.21543         -0.42075        -1.95105         -0.962248          7.956301         1.099190
  H        -1.56603         -0.06894        -0.74011         -0.900865          0.077746        -2.771945
  H        -0.42642          1.24345        -1.48026          0.014836         -3.433273         1.116609
  O         4.27574         -0.10202         4.07686        -14.627174         -5.133983         4.043109
  O         5.38097          0.10202         3.66338          0.796122          5.133758        -4.046298
8
step=           4  t[fs]=        4.00   Vpot[Eh]=     -302.82340373   Tkin[Eh]=    0.03743140   dE[kJ]=          -1.4687   T[K]=    985.0
  C        -0.50593          0.11517        -1.09096         13.925404          6.366092        -0.652732
  C         0.37830         -0.26131        -0.03244          5.180430         -0.210869        -7.731546
  O         0.27742          0.05975         1.10671         -4.014483         -8.142052        10.122775
  H        -0.22904         -0.33127        -1.94329         -0.993356          6.574507        -0.660670
  H        -1.57338         -0.06751        -0.77639         -0.197097          0.168760        -3.335711
  H        -0.42703          1.19168        -1.45995         -0.067954         -4.756153         2.262226
  O         4.26506         -0.10580         4.07979        -13.650862         -4.948955         3.676064
  O         5.38136          0.10580         3.66044         -0.182082          4.948671        -3.680407
8
step=           5  t[fs]=        5.00   Vpot[Eh]=     -302.81890620   Tkin[Eh]=    0.03305917   dE[kJ]=          -1.1397   T[K]=    869.9
  C        -0.49322          0.12277        -1.09144         11.481453          8.222494         0.008919
  C         0.38379         -0.26130        -0.03903          5.904999          0.286465        -5.120929
  O         0.27455          0.05355         1.11409         -3.653756         -8.648472         9.253726
  H        -0.23888         -0.26555        -1.96664         -0.536161          4.390195        -3.508841
  H        -1.57069         -0.06495        -0.81886          0.668509          0.250211        -3.769544
  H        -0.42803          1.13117        -1.42686         -0.030192         -4.500556         3.142209
  O         4.25543         -0.10938         4.08232        -11.909844         -4.612688         3.019379
  O         5.38070          0.10938         3.65790         -1.925006          4.612352        -3.024919
8
step=           6  t[fs]=        6.00   Vpot[Eh]=     -302.81541955   Tkin[Eh]=    0.02951781   dE[kJ]=          -1.2834   T[K]=    776.7
  C        -0.48318          0.13146        -1.09094          8.959049          7.919339         0.451440
  C         0.39000         -0.26074        -0.04259          6.598242          0.835438        -1.822109
  O         0.27198          0.04689         1.12048         -3.241440         -9.343279         7.648127
  H        -0.24170         -0.22763        -2.02612         -0.060130          2.348578        -5.810577
  H        -1.55760         -0.06161        -0.86538          1.425366          0.277399        -3.983067
  H        -0.42775          1.08543        -1.38577          0.155676         -2.037093         3.522960
  O         4.24734         -0.11266         4.08428         -9.622764         -4.161026         2.153442
  O         5.37850          0.11266         3.65594         -4.214000          4.160645        -2.160215
8
step=           7  t[fs]=        7.00   Vpot[Eh]=     -302.81396433   Tkin[Eh]=    0.02851165   dE[kJ]=          -0.1043   T[K]=    750.3
  C        -0.47547          0.13846        -1.09055          6.987714          5.437263        -0.580302
  C         0.39687         -0.25964        -0.04264          7.215083          1.344171         1.781497
  O         0.26973          0.03966         1.12546         -2.794161        -10.122798         5.624930
  H        -0.24030         -0.21010        -2.10382          0.161899          1.034867        -6.386164
  H        -1.53704         -0.05840        -0.91289          1.814581          0.202154        -3.926602
  H        -0.42435          1.08308        -1.34369          0.453560          2.104766         3.494667
  O         4.24112         -0.11557         4.08553         -7.018725         -3.635006         1.163670
  O         5.37443          0.11557         3.65469         -6.819952          3.634582        -1.171696
8
step=           8  t[fs]=        8.00   Vpot[Eh]=     -302.81846886   Tkin[Eh]=    0.03239334   dE[kJ]=          -1.7396   T[K]=    852.4
  C        -0.46934          0.14224        -1.09209          5.869310          2.885261        -3.372685
  C         0.40429         -0.25808        -0.03906          7.710508          1.746045         5.303797
  O         0.26783          0.03183         1.12884         -2.334822        -10.891984         3.506748
  H        -0.23788         -0.20320        -2.17688          0.196732          0.444616        -5.334629
  H        -1.51476         -0.05683        -0.95807          1.658452         -0.004617        -3.608547
  H        -0.41704          1.13512        -1.30327          0.740408          5.821144         3.514602
  O         4.23691         -0.11807         4.08601         -4.326511         -3.078735         0.136399
  O         5.36835          0.11807         3.65420         -9.514076          3.078268        -0.145685
8
step=           9  t[fs]=        9.00   Vpot[Eh]=     -302.82101550   Tkin[Eh]=    0.03487163   dE[kJ]=          -1.9191   T[K]=    917.6
  C        -0.46385          0.14417        -1.09723          5.619988          2.171502        -7.387232
  C         0.41214         -0.25618        -0.03213          8.050170          2.007908         8.358540
  O         0.26626          0.02346         1.13068         -1.897748        -11.570626         1.603252
  H        -0.23565         -0.19961        -2.22975          0.192838          0.362736        -3.286397
  H        -1.49789         -0.05851        -0.99808          0.974689         -0.317658        -3.090378
  H        -0.40687          1.22050        -1.26072          0.902554          7.346651         3.812750
  O         4.23468         -0.12015         4.08573         -1.773334         -2.539150        -0.841609
  O         5.36028          0.12015         3.65447        -12.069157          2.538637         0.831074
8
step=          10  t[fs]=       10.00   Vpot[Eh]=     -302.81927551   Tkin[Eh]=    0.03352885   dE[kJ]=          -0.8762   T[K]=    882.3
  C        -0.45820          0.14654        -1.10673          5.946732          3.361993       -11.700058
  C         0.42024         -0.25410        -0.02250          8.220443          2.116984        10.585958
  O         0.26500          0.01462         1.13123         -1.527642        -12.093885         0.196822
  H        -0.23333         -0.19464        -2.25447          0.247558          0.594827        -0.802211
  H        -1.49175         -0.06433        -1.03103          0.043733         -0.649761        -2.454128
  H        -0.39573          1.30856        -1.21326          0.913563          6.670411         4.185378
  O         4.23427         -0.12185         4.08476          0.413700         -2.066389        -1.682634
  O         5.35040          0.12184         3.65544        -14.258086          2.065821         1.670874
8
step=          11  t[fs]=       11.00   Vpot[Eh]=     -302.81808191   Tkin[Eh]=    0.03246681   dE[kJ]=          -0.5308   T[K]=    854.4
  C        -0.45206          0.15083        -1.12041          6.370955          5.628903       -15.493810
  C         0.42843         -0.25199        -0.01115          8.242411          2.061074        11.702571
  O         0.26399          0.00547         1.13097         -1.274128        -12.413981        -0.478066
  H        -0.22981         -0.18556        -2.24869          0.418786          0.988250         1.668179
  H        -1.49685         -0.07385        -1.05601         -0.712878         -0.891126        -1.768791
  H        -0.38531          1.37797        -1.16191          0.801128          4.627516         4.382868
  O         4.23530         -0.12322         4.08323          2.010117         -1.713342        -2.298993
  O         5.33907          0.12322         3.65696        -15.856391          1.712706         2.286042
8
step=          12  t[fs]=       12.00   Vpot[Eh]=     -302.81933393   Tkin[Eh]=    0.03353664   dE[kJ]=          -1.0091   T[K]=    882.5
  C        -0.44558          0.15769        -1.13742          6.471359          8.318597       -18.107228
  C         0.43657         -0.25002         0.00069          8.170126          1.827789        11.550443
  O         0.26311         -0.00384         1.13052         -1.182101        -12.506728        -0.268418
  H        -0.22344         -0.17131        -2.21509          0.765201          1.386348         3.637388
  H        -1.50858         -0.08537        -1.07278         -0.978004         -0.964768        -1.087113
  H        -0.37682          1.41780        -1.10979          0.601570          1.939483         4.289026
  O         4.23726         -0.12439         4.08134          2.807301         -1.532781        -2.608130
  O         5.32682          0.12439         3.65884        -16.655453          1.532062         2.594033
8
step=          13  t[fs]=       13.00   Vpot[Eh]=     -302.82048061   Tkin[Eh]=    0.03442087   dE[kJ]=          -1.6982   T[K]=    905.8
  C        -0.43924          0.16731        -1.15628          6.000640         11.167286       -18.836799
  C         0.44462         -0.24837         0.01173          8.069117          1.418994        10.142131
  O         0.26223         -0.01313         1.13057         -1.277801        -12.380326         0.850712
  H        -0.21174         -0.15284        -2.16282          1.387184          1.574151         4.444989
  H        -1.51994         -0.09663        -1.08167         -0.675625         -0.856116        -0.461632
  H        -0.37110          1.42376        -1.06066          0.346505         -0.923171         3.875796
  O         4.23948         -0.12550         4.07935          2.641967         -1.570366        -2.544058
  O         5.31430          0.12550         3.66082        -16.491987          1.569549         2.528862
8
step=          14  t[fs]=       14.00   Vpot[Eh]=     -302.81860611   Tkin[Eh]=    0.03279239   dE[kJ]=          -1.0523   T[K]=    862.9
  C        -0.43369          0.17982        -1.17474          4.849291         14.105736       -17.041416
  C         0.45256         -0.24721         0.02078          7.987906          0.864367         7.696992
  O         0.26121         -0.02225         1.13178         -1.553336        -12.080785         2.733688
  H        -0.19069         -0.13415        -2.11015          2.426083          1.302315         3.412999
  H        -1.52453         -0.10558        -1.08368          0.076096         -0.606549         0.050822
  H        -0.36864          1.39601        -1.01830          0.065837         -3.584152         3.163165
  O         4.24119         -0.12673         4.07755          1.442636         -1.852834        -2.075693
  O         5.30229          0.12673         3.66260        -15.294513          1.851902         2.059442
8
step=          15  t[fs]=       15.00   Vpot[Eh]=     -302.81807846   Tkin[Eh]=    0.03263947   dE[kJ]=          -0.0684   T[K]=    858.9
  C        -0.42964          0.19526        -1.19004          3.144341         16.752846       -13.005533
  C         0.46044         -0.24665         0.02698          7.933954          0.225004         4.638938
  O         0.25992         -0.03110         1.13464         -1.956470        -11.687722         5.058120
  H        -0.15447         -0.12209        -2.08225          3.871550          0.558422         0.683417
  H        -1.51814         -0.11095        -1.08048          1.064448         -0.292448         0.404904
  H        -0.36955          1.33915        -0.98599         -0.204097         -5.555043         2.237418
  O         4.24162         -0.12826         4.07626         -0.718433         -2.373671        -1.227842
  O         5.29155          0.12825         3.66388        -13.135294          2.372612         1.210578
8
step=          16  t[fs]=       16.00   Vpot[Eh]=     -302.82279350   Tkin[Eh]=    0.03630616   dE[kJ]=          -2.8209   T[K]=    955.4
  C        -0.42746          0.21301        -1.20051          1.493388         17.918471        -8.596168
  C         0.46828         -0.24676         0.02997          7.865454         -0.414740         1.515083
  O         0.25830         -0.03964         1.13931         -2.396836        -11.296851         7.381238
  H        -0.09930         -0.12096        -2.09402          5.269718         -0.162913        -2.185835
  H        -1.49940         -0.11248        -1.07412          2.034692         -0.009352         0.586219
  H        -0.37346          1.26487        -0.96548         -0.410843         -6.033417         1.317710
  O         4.24012         -0.13026         4.07573         -3.593852         -3.082324        -0.094647
  O         5.28275          0.13025         3.66440        -10.261720          3.081127         0.076400
8
step=          17  t[fs]=       17.00   Vpot[Eh]=     -302.82024810   Tkin[Eh]=    0.03370878   dE[kJ]=          -2.9573   T[K]=    887.0
  C        -0.42668          0.23076        -1.20708          0.722102         16.125429        -5.890884
  C         0.47602         -0.24748         0.02998          7.705498         -0.962317        -1.156768
  O         0.25636         -0.04790         1.14561         -2.771837        -10.994747         9.250230
  H        -0.03007         -0.12594        -2.13385          5.979682         -0.277200        -3.566536
  H        -1.47011         -0.11117        -1.06664          2.714433          0.138642         0.614053
  H        -0.37925          1.19671        -0.95488         -0.492464         -4.028465         0.769115
  O         4.23628         -0.13284         4.07612         -6.780832         -3.885161         1.166929
  O         5.27629          0.13284         3.66399         -7.076583          3.883820        -1.186139
8
step=          18  t[fs]=       18.00   Vpot[Eh]=     -302.81137907   Tkin[Eh]=    0.02623432   dE[kJ]=           0.7041   T[K]=    690.3
  C        -0.42603          0.24495        -1.21218          1.315509         11.422386        -5.344907
  C         0.48354         -0.24867         0.02768          7.371203         -1.333506        -3.025273
  O         0.25418         -0.05599         1.15306         -2.996794        -10.839426        10.321148
  H         0.04187         -0.12751        -2.17821          5.763603          0.304181        -3.222108
  H        -1.43532         -0.10921        -1.05963          2.853266          0.054985         0.529987
  H        -0.38508          1.16976        -0.94732         -0.447531          0.392867         0.761319
  O         4.23003         -0.13604         4.07746         -9.802709         -4.662865         2.368391
  O         5.27223          0.13603         3.66263         -4.056546          4.661378        -2.388558
8
step=          19  t[fs]=       19.00   Vpot[Eh]=     -302.81310038   Tkin[Eh]=    0.02725211   dE[kJ]=          -1.1430   T[K]=    717.1
  C        -0.42407          0.25339        -1.21766          3.344146          6.378684        -5.857498
  C         0.49063         -0.25012         0.02399          6.802902         -1.468152        -3.950257
  O         0.25190         -0.06402         1.16097         -3.022733        -10.853988        10.428765
  H         0.10599         -0.11876        -2.20992          4.807427          1.296038        -1.799676
  H        -1.40275         -0.10987        -1.05412          2.318250         -0.307140         0.380954
  H        -0.38981          1.20599        -0.93691         -0.388893          4.956188         0.818842
  O         4.22170         -0.13978         4.07964        -12.224104         -5.299057         3.335212
  O         5.27026          0.13977         3.66044         -1.636994          5.297426        -3.356343
8
step=          20  t[fs]=       20.00   Vpot[Eh]=     -302.81771935   Tkin[Eh]=    0.03148689   dE[kJ]=          -2.1517   T[K]=    828.6
  C        -0.41941          0.25759        -1.22378          6.481487          3.599794        -6.187275
  C         0.49702         -0.25158         0.01985          5.979925         -1.339916        -3.963158
  O         0.24968         -0.07213         1.16858         -2.838872        -11.029506         9.579745
  H         0.15536         -0.09691        -2.22070          3.401725          2.398849         0.061892
  H        -1.38059         -0.11646        -1.05063          1.257118         -0.871933         0.186132
  H        -0.39426          1.28677        -0.92799         -0.418441          7.244480         0.344775
  O         4.21185         -0.14392         4.08242        -13.747190         -5.707138         3.945801
  O         5.26979          0.14391         3.65764         -0.115754          5.705370        -3.967913
8
step=          21  t[fs]=       21.00   Vpot[Eh]=     -302.81744188   Tkin[Eh]=    0.03156884   dE[kJ]=          -1.2080   T[K]=    830.7
  C        -0.41123          0.26052        -1.22992          9.974191          3.319538        -5.841232
  C         0.50247         -0.25277         0.01613          4.921135         -0.960285        -3.201479
  O         0.24768         -0.08043         1.17521         -2.465569        -11.332575         7.902036
  H         0.18630         -0.06213        -2.20845          1.817006          3.406019         1.907988
  H        -1.37308         -0.13045        -1.04973          0.140171         -1.424799        -0.090026
  H        -0.39969          1.37701        -0.92877         -0.522143          6.994000        -0.654166
  O         4.20125         -0.14827         4.08551        -14.250260         -5.843996         4.148046
  O         5.27009          0.14826         3.65454          0.385469          5.842098        -4.171168
8
step=          22  t[fs]=       22.00   Vpot[Eh]=     -302.81551882   Tkin[Eh]=    0.02974097   dE[kJ]=          -0.9581   T[K]=    782.6
  C        -0.39965          0.26417        -1.23536         12.938931          4.514939        -4.693673
  C         0.50677         -0.25348         0.01351          3.677052         -0.375094        -1.862011
  O         0.24601         -0.08899         1.18033         -1.945031        -11.716233         5.596739
  H         0.19825         -0.01651        -2.17566          0.345758          4.161002         3.326507
  H        -1.37729         -0.15010        -1.05276         -0.507954         -1.730688        -0.503572
  H        -0.40659          1.45188        -0.94343         -0.642118          5.148091        -1.839821
  O         4.19066         -0.15261         4.08859        -13.768363         -5.708530         3.952705
  O         5.27037          0.15260         3.65144         -0.098277          5.706514        -3.976873
8
step=          23  t[fs]=       23.00   Vpot[Eh]=     -302.81351376   Tkin[Eh]=    0.02765822   dE[kJ]=          -1.1621   T[K]=    727.8
  C        -0.38559          0.26947        -1.23922         14.693838          6.412987        -2.499773
  C         0.50976         -0.25352         0.01245          2.319639          0.350341        -0.177980
  O         0.24478         -0.09786         1.18354         -1.333738        -12.130845         2.904866
  H         0.19446          0.03610        -2.12992         -0.629609          4.513098         3.811841
  H        -1.38507         -0.17131        -1.06162         -0.439360         -1.677315        -1.064139
  H        -0.41485          1.49854        -0.97220         -0.742282          2.533858        -2.949562
  O         4.18077         -0.15676         4.09139        -12.443587         -5.330964         3.414231
  O         5.26994          0.15674         3.64862         -1.424902          5.328840        -3.439484
8
step=          24  t[fs]=       24.00   Vpot[Eh]=     -302.81107601   Tkin[Eh]=    0.02542751   dE[kJ]=          -0.6185   T[K]=    669.1
  C        -0.37054          0.27687        -1.24031         14.877364          8.661805         1.056321
  C         0.51137         -0.25278         0.01316          0.933603          1.147299         1.594801
  O         0.24403         -0.10703         1.18465         -0.696602        -12.530287         0.086304
  H         0.18339          0.09004        -2.08567         -0.692569          4.349614         2.837374
  H        -1.38766         -0.18969        -1.07788          0.262529         -1.301957        -1.717258
  H        -0.42411          1.51169        -1.01306         -0.813988         -0.324251        -3.831168
  O         4.17215         -0.16054         4.09367        -10.474477         -4.760341         2.610824
  O         5.26825          0.16053         3.64632         -3.395860          4.758119        -2.637199
8
step=          25  t[fs]=       25.00   Vpot[Eh]=     -302.81226844   Tkin[Eh]=    0.02703141   dE[kJ]=           0.4619   T[K]=    711.3
  C        -0.35612          0.28663        -1.23713         13.682023         10.937481         5.762677
  C         0.51161         -0.25124         0.01560         -0.391621          1.955097         3.193021
  O         0.24375         -0.11649         1.18367         -0.101476        -12.874909        -2.590786
  H         0.17811          0.13878        -2.06294          0.222957          3.721133         0.413840
  H        -1.37887         -0.20204        -1.10216          1.332563         -0.729988        -2.375142
  H        -0.43407          1.49089        -1.06265         -0.872263         -3.006500        -4.376086
  O         4.16519         -0.16384         4.09527         -8.080644         -4.054999         1.630326
  O         5.26489          0.16382         3.64470         -5.791540          4.052686        -1.657851
8
step=          26  t[fs]=       26.00   Vpot[Eh]=     -302.82197008   Tkin[Eh]=    0.03601052   dE[kJ]=          -1.4352   T[K]=    947.6
  C        -0.34343          0.29854        -1.22889         12.108279         12.621843        10.300501
  C         0.51059         -0.24891         0.01948         -1.571750          2.728749         4.364927
  O         0.24388         -0.12618         1.18080          0.386811        -13.134276        -4.858154
  H         0.18865          0.17788        -2.07590          1.457549          2.876224        -2.339586
  H        -1.35620         -0.20693        -1.13395          2.455185         -0.121031        -2.949923
  H        -0.44471          1.44072        -1.11637         -0.962045         -4.969107        -4.489070
  O         4.16013         -0.16657         4.09610         -5.484966         -3.277530         0.563046
  O         5.25963          0.16655         3.64386         -8.389063          3.275128        -0.591740
8
step=          27  t[fs]=       27.00   Vpot[Eh]=     -302.82998960   Tkin[Eh]=    0.04316245   dE[kJ]=          -3.7130   T[K]=   1135.8
  C        -0.33213          0.31163        -1.21672         11.397085         12.831910        13.081835
  C         0.50850         -0.24584         0.02425         -2.538833          3.443653         4.886452
  O         0.24432         -0.13603         1.17644          0.712149        -13.289937        -6.465316
  H         0.21252          0.20668        -2.11817          2.154762          2.052189        -3.960979
  H        -1.32091         -0.20490        -1.17180          3.328629          0.351789        -3.379712
  H        -0.45678          1.37358        -1.16862         -1.177922         -5.387110        -4.132410
  O         4.15703         -0.16871         4.09611         -2.908443         -2.493320        -0.500354
  O         5.25241          0.16869         3.64382        -10.967429          2.490825         0.470484
8
step=          28  t[fs]=       28.00   Vpot[Eh]=     -302.82490171   Tkin[Eh]=    0.03881242   dE[kJ]=          -1.7758   T[K]=   1021.3
  C        -0.32085          0.32397        -1.20297         12.166097         10.851093        13.680035
  C         0.50556         -0.24209         0.02916         -3.249833          4.094462         4.582555
  O         0.24494         -0.14595         1.17118          0.833662        -13.337712        -7.212399
  H         0.23952          0.22633        -2.16941          2.078996          1.328798        -3.943745
  H        -1.27762         -0.19862        -1.21374          3.711016          0.520918        -3.646864
  H        -0.47251          1.31354        -1.21393         -1.662227         -3.454966        -3.428542
  O         4.15580         -0.17028         4.09535         -0.571079         -1.770764        -1.468576
  O         5.24332          0.17026         3.64456        -13.306631          1.768171         1.437536
8
step=          29  t[fs]=       29.00   Vpot[Eh]=     -302.81696234   Tkin[Eh]=    0.03185068   dE[kJ]=           0.7910   T[K]=    838.1
  C        -0.30803          0.33313        -1.18962         14.252643          7.252181        12.727593
  C         0.50206         -0.23772         0.03333         -3.686565          4.681403         3.374450
  O         0.24556         -0.15587         1.16571          0.733950        -13.288339        -6.995342
  H         0.26160          0.23805        -2.21127          1.518535          0.711639        -2.681780
  H        -1.23330         -0.19260        -1.25789          3.488907          0.278689        -3.774319
  H        -0.49602          1.29202        -1.24956         -2.427926          0.367130        -2.618409
  O         4.15618         -0.17135         4.09393          1.307653         -1.181398        -2.249568
  O         5.23262          0.17132         3.64596        -15.187197          1.178695         2.217376
8
step=          30  t[fs]=       30.00   Vpot[Eh]=     -302.81868310   Tkin[Eh]=    0.03286025   dE[kJ]=          -1.0762   T[K]=    864.7
  C        -0.29261          0.33833        -1.17776         16.847722          4.197625        10.850134
  C         0.49826         -0.23281         0.03585         -3.853134          5.193686         1.336980
  O         0.24603         -0.16571         1.16078          0.427551        -13.164463        -5.853349
  H         0.27537          0.24313        -2.23272          0.812518          0.210109        -0.734964
  H        -1.19526         -0.19204        -1.30284          2.774759         -0.328547        -3.789290
  H        -0.52983          1.32221        -1.27574         -3.128041          3.894416        -1.776194
  O         4.15775         -0.17204         4.09201          2.515339         -0.797913        -2.753221
  O         5.22073          0.17201         3.64785        -16.396714          0.795088         2.719904
8
step=          31  t[fs]=       31.00   Vpot[Eh]=     -302.82184179   Tkin[Eh]=    0.03575274   dE[kJ]=          -1.7751   T[K]=    940.8
  C        -0.27465          0.34145        -1.16812         18.914480          3.249001         8.317684
  C         0.49442         -0.22744         0.03598         -3.786189          5.612406        -1.275120
  O         0.24620         -0.17545         1.15701         -0.032590        -12.994774        -3.997597
  H         0.28078          0.24301        -2.22862          0.196240         -0.156795         1.456528
  H        -1.16780         -0.20036        -1.34735          1.926143         -1.059392        -3.668418
  H        -0.56986          1.38396        -1.29149         -3.334882          5.352516        -0.798675
  O         4.15992         -0.17253         4.08983          2.866417         -0.687743        -2.899578
  O         5.20823          0.17250         3.65000        -16.749619          0.684781         2.865176
8
step=          32  t[fs]=       32.00   Vpot[Eh]=     -302.82098365   Tkin[Eh]=    0.03508445   dE[kJ]=          -1.2767   T[K]=    923.2
  C        -0.25514          0.34477        -1.16128         19.773385          4.076316         5.396375
  C         0.49076         -0.22169         0.03332         -3.562680          5.923114        -4.056498
  O         0.24598         -0.18504         1.15483         -0.559578        -12.806638        -1.791814
  H         0.28000          0.23943        -2.19833         -0.152124         -0.373925         3.505745
  H        -1.14978         -0.21705        -1.38944          1.350079         -1.606642        -3.331677
  H        -0.60856          1.44857        -1.29459         -2.964053          4.790891         0.313310
  O         4.16201         -0.17306         4.08769          2.238757         -0.900551        -2.634291
  O         5.19582          0.17303         3.65212        -16.123785          0.897435         2.598850
8
step=          33  t[fs]=       33.00   Vpot[Eh]=     -302.81786787   Tkin[Eh]=    0.03203663   dE[kJ]=          -1.0983   T[K]=    843.0
  C        -0.23547          0.34952        -1.15743         19.192133          5.721373         2.581360
  C         0.48736         -0.21570         0.02794         -3.279627          6.116571        -6.535433
  O         0.24537         -0.19449         1.15434         -1.054757        -12.618173         0.327224
  H         0.27719          0.23419        -2.14586         -0.036965         -0.452277         4.944224
  H        -1.13593         -0.23829        -1.42600          1.245067         -1.791513        -2.717781
  H        -0.63984          1.49706        -1.28409         -2.178994          3.027306         1.436836
  O         4.16325         -0.17387         4.08591          0.623603         -1.450171        -1.950151
  O         5.18425          0.17384         3.65387        -14.510460          1.446885         1.913721
8
step=          34  t[fs]=       34.00   Vpot[Eh]=     -302.81373795   Tkin[Eh]=    0.02795581   dE[kJ]=          -0.9693   T[K]=    735.6
  C        -0.21711          0.35611        -1.15617         17.152064          7.603519         0.570830
  C         0.48426         -0.20958         0.02038         -3.015728          6.181692        -8.285788
  O         0.24441         -0.20381         1.15532         -1.438139        -12.432888         1.963026
  H         0.27913          0.22875        -2.08161          0.784659         -0.450199         5.187975
  H        -1.12039         -0.25935        -1.45360          1.557724         -1.616484        -1.853574
  H        -0.66000          1.52003        -1.26068         -1.151889          0.717834         2.454896
  O         4.16294         -0.17522         4.08479         -1.829693         -2.296751        -0.906954
  O         5.17424          0.17518         3.65496        -12.058999          2.293277         0.869588
8
step=          35  t[fs]=       35.00   Vpot[Eh]=     -302.81066587   Tkin[Eh]=    0.02534054   dE[kJ]=           0.2300   T[K]=    666.8
  C        -0.20149          0.36459        -1.15630         13.793593          9.499663        -0.106056
  C         0.48139         -0.20345         0.01153         -2.803171          6.099550        -9.017378
  O         0.24323         -0.21299         1.15726         -1.668776        -12.240206         2.854769
  H         0.29571          0.22356        -2.02339          2.462551         -0.448511         3.862914
  H        -1.09915         -0.27645        -1.46975          2.115439         -1.189245        -0.847333
  H        -0.66703          1.51400        -1.22614         -0.009097         -1.717573         3.291342
  O         4.16053         -0.17729         4.08456         -4.804264         -3.339532         0.363215
  O         5.16631          0.17725         3.65516         -9.086275          3.335854        -0.401473
8
step=          36  t[fs]=       36.00   Vpot[Eh]=     -302.81521029   Tkin[Eh]=    0.02988782   dE[kJ]=           0.2375   T[K]=    786.5
  C        -0.18979          0.37493        -1.15638          9.753798         11.162553         0.178339
  C         0.47871         -0.19749         0.00251         -2.626711          5.843876        -8.615997
  O         0.24193         -0.22201         1.15956         -1.745561        -12.022385         2.916167
  H         0.33726          0.21816        -1.99042          4.661078         -0.421938         1.503517
  H        -1.07045         -0.28742        -1.47360          2.733816         -0.649953         0.156974
  H        -0.66021          1.47949        -1.18298          1.115979         -3.908258         3.900122
  O         4.15579         -0.18019         4.08533         -7.864033         -4.429872         1.675397
  O         5.16072          0.18014         3.65436         -6.028365          4.425976        -1.714520
8
step=          37  t[fs]=       37.00   Vpot[Eh]=     -302.82646866   Tkin[Eh]=    0.04010313   dE[kJ]=          -2.5010   T[K]=   1055.3
  C        -0.18217          0.38670        -1.15595          6.322640         12.024345         0.208811
  C         0.47619         -0.19188        -0.00554         -2.442102          5.390757        -7.147339
  O         0.24063         -0.23087         1.16160         -1.696300        -11.762478         2.216109
  H         0.40575          0.21360        -1.98790          6.475280         -0.175393        -0.517648
  H        -1.03462         -0.29179        -1.46605          3.238590         -0.148685         1.013536
  H        -0.64068          1.42174        -1.13407          1.996165         -5.324426         4.266512
  O         4.14884         -0.18388         4.08706        -10.553453         -5.404257         2.833758
  O         5.15735          0.18383         3.65261         -3.340820          5.400137        -2.873739
8
step=          38  t[fs]=       38.00   Vpot[Eh]=     -302.83020867   Tkin[Eh]=    0.04338894   dE[kJ]=          -3.6935   T[K]=   1141.8
  C        -0.17726          0.39875        -1.15596          4.799550         11.284886        -0.827103
  C         0.47387         -0.18681        -0.01165         -2.196159          4.731775        -4.837270
  O         0.23941         -0.23951         1.16286         -1.565934        -11.448787         0.928364
  H         0.49013          0.21402        -2.00264          7.144733          0.449746        -1.266035
  H        -0.99400         -0.29093        -1.44968          3.458404          0.158870         1.592633
  H        -0.61309          1.35379        -1.08225          2.255560         -5.172146         4.450266
  O         4.14010         -0.18822         4.08955        -12.506599         -6.123834         3.678633
  O         5.15575          0.18817         3.65009         -1.389556          6.119490        -3.719487
8
step=          39  t[fs]=       39.00   Vpot[Eh]=     -302.82086627   Tkin[Eh]=    0.03511582   dE[kJ]=          -0.8861   T[K]=    924.1
  C        -0.17266          0.40906        -1.15759          5.735715          8.500137        -2.817936
  C         0.47184         -0.18250        -0.01513         -1.835121          3.878232        -2.012365
  O         0.23830         -0.24790         1.16298         -1.408052        -11.077503        -0.717746
  H         0.57442          0.22421        -2.01778          6.596773          1.403188        -0.840592
  H        -0.95297         -0.28804        -1.42845          3.245461          0.136897         1.802269
  H        -0.58744          1.29964        -1.02901          1.563265         -2.836391         4.628133
  O         4.13023         -0.19299         4.09253        -13.516093         -6.502486         4.117231
  O         5.15528          0.19294         3.64708         -0.381948          6.497928        -4.158995
8
step=          40  t[fs]=       40.00   Vpot[Eh]=     -302.81342887   Tkin[Eh]=    0.02830540   dE[kJ]=           0.7600   T[K]=    744.8
  C        -0.16590          0.41559        -1.16154          8.540071          4.666005        -5.212910
  C         0.47023         -0.17913        -0.01564         -1.303489          2.856079         0.977697
  O         0.23731         -0.25598         1.16179         -1.280191        -10.654963        -2.469331
  H         0.64586          0.24715        -2.02249          5.179373          2.513728         0.242793
  H        -0.91738         -0.28770        -1.40713          2.546466         -0.264424         1.620762
  H        -0.57618          1.28683        -0.97300          0.217693          0.888332         4.883712
  O         4.11999         -0.19789         4.09567        -13.541457         -6.513876         4.128490
  O         5.15519          0.19784         3.64390         -0.358465          6.509118        -4.171212
8
step=          41  t[fs]=       41.00   Vpot[Eh]=     -302.81633338   Tkin[Eh]=    0.03040451   dE[kJ]=          -1.3546   T[K]=    800.1
  C        -0.15574          0.41831        -1.16791         11.758819          1.932052        -7.269517
  C         0.46925         -0.17684        -0.01319         -0.558015          1.710216         3.796701
  O         0.23640         -0.26374         1.15931         -1.238742        -10.198411        -4.066860
  H         0.69669          0.28356        -2.01205          3.284277          3.611458         1.547670
  H        -0.89286         -0.29429        -1.39019          1.500502         -0.914887         1.122262
  H        -0.58230          1.32061        -0.91372         -0.845044          3.864508         4.913480
  O         4.11009         -0.20268         4.09867        -12.672362         -6.181255         3.748129
  O         5.15475          0.20262         3.64088         -1.229436          6.176317        -3.791865
8
step=          42  t[fs]=       42.00   Vpot[Eh]=     -302.81925576   Tkin[Eh]=    0.03319191   dE[kJ]=          -1.7090   T[K]=    873.4
  C        -0.14260          0.41942        -1.17595         14.173737          1.343287        -8.381367
  C         0.46913         -0.17574        -0.00811          0.409745          0.514044         6.119894
  O         0.23547         -0.27115         1.15574         -1.333149         -9.734685        -5.259161
  H         0.72339          0.33240        -1.98595          1.255951          4.570650         2.757532
  H        -0.88196         -0.30930        -1.38063          0.450931         -1.488904         0.454158
  H        -0.59613          1.37806        -0.85700         -1.053549          4.800709         4.353752
  O         4.10115         -0.20709         4.10125        -11.077281         -5.560288         3.046970
  O         5.15336          0.20703         3.63826         -2.826387          5.555187        -3.091777
8
step=          43  t[fs]=       43.00   Vpot[Eh]=     -302.81821314   Tkin[Eh]=    0.03227879   dE[kJ]=          -1.3690   T[K]=    849.4
  C        -0.12766          0.42097        -1.18452         15.261104          2.244788        -8.323090
  C         0.47006         -0.17582        -0.00106          1.582466         -0.644651         7.650466
  O         0.23441         -0.27822         1.15149         -1.604202         -9.296312        -5.825956
  H         0.72634          0.39146        -1.94695         -0.534722          5.316122         3.570096
  H        -0.88221         -0.32943        -1.37947         -0.229379         -1.641036        -0.242673
  H        -0.60717          1.43394        -0.81094         -0.569735          4.026339         3.217084
  O         4.09362         -0.21095         4.10320         -8.960712         -4.723867         2.112689
  O         5.15054          0.21088         3.63628         -4.944821          4.718618        -2.158617
8
step=          44  t[fs]=       44.00   Vpot[Eh]=     -302.81448636   Tkin[Eh]=    0.02863529   dE[kJ]=          -1.1503   T[K]=    753.5
  C        -0.11237          0.42386        -1.19244         14.764495          3.679049        -6.986415
  C         0.47226         -0.17702         0.00704          2.949230         -1.691471         8.169704
  O         0.23308         -0.28498         1.14708         -2.084238         -8.915286        -5.610435
  H         0.71077          0.45790        -1.90167         -1.614626          5.837316         3.628628
  H        -0.88737         -0.34804        -1.38636         -0.354567         -1.223751        -0.896858
  H        -0.60958          1.47311        -0.78106          0.247100          2.319532         1.742464
  O         4.08782         -0.21411         4.10439         -6.537402         -3.752565         1.038688
  O         5.14600          0.21404         3.63505         -7.369992          3.747176        -1.085777
8
step=          45  t[fs]=       45.00   Vpot[Eh]=     -302.80985385   Tkin[Eh]=    0.02435352   dE[kJ]=          -0.2294   T[K]=    640.9
  C        -0.09841          0.42826        -1.19836         12.547402          5.071452        -4.283248
  C         0.47591         -0.17918         0.01512          4.518137         -2.582470         7.596488
  O         0.23131         -0.29148         1.14314         -2.791473         -8.614547        -4.561325
  H         0.68822          0.52926        -1.86129         -1.533690          6.215474         2.635108
  H        -0.89058         -0.35832        -1.40064          0.031060         -0.319763        -1.498667
  H        -0.60133          1.48870        -0.76980          1.137821          0.235382         0.159923
  O         4.08389         -0.21653         4.10474         -4.021605         -2.730236        -0.080723
  O         5.13958          0.21645         3.63466         -9.887652          2.724708         0.032445
8
step=          46  t[fs]=       46.00   Vpot[Eh]=     -302.80983476   Tkin[Eh]=    0.02468424   dE[kJ]=           0.6890   T[K]=    649.6
  C        -0.08751          0.43391        -1.20092          9.026954          6.172019        -0.556004
  C         0.48121         -0.18213         0.02209          6.293261         -3.311065         6.038404
  O         0.22893         -0.29779         1.14029         -3.715125         -8.398841        -2.775459
  H         0.67456          0.60463        -1.83946         -0.360263          6.549528         0.746389
  H        -0.88664         -0.35559        -1.42174          0.745136          0.862751        -2.061195
  H        -0.58272          1.47867        -0.77728          1.921158         -1.868719        -1.342659
  O         4.08184         -0.21818         4.10427         -1.625562         -1.743342        -1.151055
  O         5.13130          0.21810         3.63510        -12.285560          1.737670         1.101579
8
step=          47  t[fs]=       47.00   Vpot[Eh]=     -302.81865637   Tkin[Eh]=    0.03291575   dE[kJ]=          -0.8603   T[K]=    866.2
  C        -0.08052          0.44048        -1.19946          5.494516          6.993818         3.142450
  C         0.48838         -0.18573         0.02709          8.231646         -3.904456         3.805860
  O         0.22579         -0.30397         1.13901         -4.798507         -8.250327        -0.517232
  H         0.67972          0.68388        -1.84367          1.020678          6.732012        -1.211285
  H        -0.87299         -0.33796        -1.44930          1.554673          2.076545        -2.600236
  H        -0.55598          1.44458        -0.80150          2.409987         -3.641762        -2.568893
  O         4.08148         -0.21912         4.10303          0.439114         -0.881565        -2.077041
  O         5.12131          0.21904         3.63630        -14.352106          0.875735         2.026377
8
step=          48  t[fs]=       48.00   Vpot[Eh]=     -302.82802813   Tkin[Eh]=    0.04148979   dE[kJ]=          -2.9547   T[K]=   1091.8
  C        -0.07662          0.44777        -1.19470          3.417970          7.557684         5.652693
  C         0.49752         -0.18987         0.02963         10.214359         -4.404695         1.352980
  O         0.22180         -0.31006         1.13952         -5.934663         -8.133264         1.813708
  H         0.69866          0.76356        -1.86806          1.648950          6.462121        -2.361552
  H        -0.84994         -0.30656        -1.48313          2.225976          3.071004        -3.140644
  H        -0.52583          1.39270        -0.83793          2.342277         -4.546842        -3.265360
  O         4.08249         -0.21949         4.10118          1.963575         -0.236970        -2.763570
  O         5.10995          0.21940         3.63812        -15.878444          0.230963         2.711745
8
step=          49  t[fs]=       49.00   Vpot[Eh]=     -302.82688420   Tkin[Eh]=    0.04044686   dE[kJ]=          -2.6896   T[K]=   1064.3
  C        -0.07375          0.45546        -1.18826          3.573870          7.471113         6.469293
  C         0.50861         -0.19446         0.02977         12.056483         -4.844068        -0.842908
  O         0.21696         -0.31607         1.14171         -6.983325         -8.006388         3.773426
  H         0.71864          0.83643        -1.89942          1.322126          5.590647        -2.469862
  H        -0.82044         -0.26546        -1.52344          2.568454          3.625274        -3.726224
  H        -0.50069          1.33725        -0.87859          1.379145         -3.830369        -3.150780
  O         4.08440         -0.21947         4.09892          2.753388          0.100811        -3.120884
  O         5.09769          0.21938         3.64033        -16.670141         -0.107019         3.067939
8
step=          50  t[fs]=       50.00   Vpot[Eh]=     -302.81818532   Tkin[Eh]=    0.03294615   dE[kJ]=           0.4562   T[K]=    867.0
  C        -0.06954          0.46257        -1.18188          5.879975          6.383911         5.828336
  C         0.52141         -0.19947         0.02796         13.556916         -5.235364        -2.399050
  O         0.21141         -0.32197         1.14514         -7.805039         -7.836607         4.989240
  H         0.72987          0.89554        -1.92636          0.393788          4.244964        -1.795926
  H        -0.78930         -0.22098        -1.57109          2.500103          3.620384        -4.396773
  H        -0.49327          1.30227        -0.91231         -0.607102         -1.170853        -2.171811
  O         4.08659         -0.21934         4.09654          2.655018          0.056245        -3.076638
  O         5.08515          0.21924         3.64268        -16.573659         -0.062681         3.022622
8
step=          51  t[fs]=       51.00   Vpot[Eh]=     -302.81806691   Tkin[Eh]=    0.03269225   dE[kJ]=           0.1005   T[K]=    860.3
  C        -0.06210          0.46810        -1.17672          9.244199          5.201224         4.498552
  C         0.53547         -0.20483         0.02501         14.562223         -5.583781        -3.094051
  O         0.20535         -0.32773         1.14913         -8.296100         -7.606498         5.244457
  H         0.72794          0.93664        -1.94182         -0.731710          2.658825        -0.672998
  H        -0.76142         -0.17999        -1.62724          2.123486          3.133326        -5.113104
  H        -0.51502          1.30960        -0.92986         -2.981565          2.203591        -0.807823
  O         4.08835         -0.21939         4.09435          1.597694         -0.412637        -2.595310
  O         5.07304          0.21929         3.64483        -15.518226          0.405949         2.540278
8
step=          52  t[fs]=       52.00   Vpot[Eh]=     -302.82533567   Tkin[Eh]=    0.03909452   dE[kJ]=          -2.1745   T[K]=   1028.8
  C        -0.05123          0.47287        -1.17297         11.996269          5.432393         3.209461
  C         0.55026         -0.21053         0.02183         14.997618         -5.894978        -2.882520
  O         0.19907         -0.33329         1.15294         -8.405720         -7.314375         4.499057
  H         0.71260          0.95830        -1.94225         -1.748440          1.058583         0.630192
  H        -0.73918         -0.14701        -1.69180          1.720802          2.445591        -5.685160
  H        -0.56366          1.35430        -0.93138         -4.638103          4.279748         0.284972
  O         4.08896         -0.21995         4.09268         -0.358479         -1.290802        -1.700796
  O         5.06207          0.21984         3.64646        -13.563947          1.283839         1.644794
8
step=          53  t[fs]=       53.00   Vpot[Eh]=     -302.82733640   Tkin[Eh]=    0.04109264   dE[kJ]=          -2.1813   T[K]=   1081.3
  C        -0.03834          0.47887        -1.17036         13.072150          7.260687         2.169411
  C         0.56518         -0.21651         0.01930         14.854189         -6.164245        -1.873894
  O         0.19285         -0.33861         1.15582         -8.133645         -6.971348         2.858498
  H         0.68666          0.96163        -1.92694         -2.390707         -0.325255         1.855346
  H        -0.72080         -0.12226        -1.76145          1.585495          1.872992        -5.833644
  H        -0.62451          1.41064        -0.92313         -5.063160          4.334422         0.881219
  O         4.08781         -0.22131         4.09182         -2.991951         -2.488996        -0.491402
  O         5.05287          0.22120         3.64728        -10.932370          2.481742         0.434467
8
step=          54  t[fs]=       54.00   Vpot[Eh]=     -302.82226255   Tkin[Eh]=    0.03624955   dE[kJ]=          -1.5754   T[K]=    953.9
  C        -0.02533          0.48726        -1.16867         12.286442          9.675049         1.425418
  C         0.57969         -0.22274         0.01812         14.172440         -6.369485        -0.283049
  O         0.18697         -0.34366         1.15719         -7.521669         -6.597760         0.522853
  H         0.65616          0.95063        -1.89845         -2.353924         -1.218727         2.666711
  H        -0.70175         -0.10280        -1.82952          1.823637          1.560356        -5.378830
  H        -0.68319          1.45662        -0.91057         -4.480710          2.958121         1.104752
  O         4.08451         -0.22365         4.09195         -5.935481         -3.846623         0.866096
  O         5.04581          0.22354         3.64710         -7.990735          3.839069        -0.923949
8
step=          55  t[fs]=       55.00   Vpot[Eh]=     -302.81361340   Tkin[Eh]=    0.02792996   dE[kJ]=          -0.7102   T[K]=    735.0
  C        -0.01399          0.49804        -1.16753          9.784676         11.698731         1.268585
  C         0.59326         -0.22913         0.01874         13.036164         -6.481294         1.627437
  O         0.18166         -0.34842         1.15660         -6.644724         -6.217963        -2.258424
  H         0.63109          0.93286        -1.86399         -1.314708         -1.337481         2.668890
  H        -0.67775         -0.08542        -1.88843          2.338252          1.460883        -4.348749
  H        -0.73029          1.48047        -0.89705         -3.271547          0.884979         1.101044
  O         4.07898         -0.22703         4.09310         -8.748978         -5.161905         2.168990
  O         5.04098          0.22691         3.64590         -5.179137          5.154050        -2.227772
8
step=          56  t[fs]=       56.00   Vpot[Eh]=     -302.80739897   Tkin[Eh]=    0.02226522   dE[kJ]=           0.7330   T[K]=    585.9
  C        -0.00594          0.51044        -1.16616          5.937728         12.902215         1.924100
  C         0.60551         -0.23558         0.02134         11.562400         -6.478146         3.592243
  O         0.17709         -0.35290         1.15383         -5.599986         -5.855558        -5.215722
  H         0.62512          0.91905        -1.83545          0.790604         -0.601817         1.724569
  H        -0.64655         -0.06831        -1.93218          2.954650          1.449392        -2.924565
  H        -0.76042          1.47751        -0.88458         -1.715381         -1.407937         0.959127
  O         4.07150         -0.23133         4.09517        -11.025781         -6.240166         3.227446
  O         5.03811          0.23120         3.64379         -2.904234          6.232018        -3.287196
8
step=          57  t[fs]=       57.00   Vpot[Eh]=     -302.81143220   Tkin[Eh]=    0.02615346   dE[kJ]=           0.3523   T[K]=    688.2
  C        -0.00223          0.52360        -1.16372          1.703634         13.490888         2.967166
  C         0.61617         -0.24197         0.02586          9.887922         -6.352923         5.365269
  O         0.17333         -0.35713         1.14884         -4.497008         -5.532291        -8.074188
  H         0.64976          0.91865        -1.82328          3.351348          0.599415         0.401911
  H        -0.60800         -0.05121        -1.95747          3.515439          1.402776        -1.346714
  H        -0.77078          1.44723        -0.87441         -0.029417         -3.599441         0.747332
  O         4.06259         -0.23631         4.09791        -12.483453         -6.938354         3.907187
  O         5.03666          0.23618         3.64101         -1.448467          6.929928        -3.967964
8
step=          58  t[fs]=       58.00   Vpot[Eh]=     -302.82326157   Tkin[Eh]=    0.03712304   dE[kJ]=          -1.9051   T[K]=    976.9
  C        -0.00257          0.53716        -1.16028         -1.485083         13.891121         3.544828
  C         0.62510         -0.24817         0.03197          8.160204         -6.106286         6.716409
  O         0.17040         -0.36113         1.14182         -3.452490         -5.268589       -10.563305
  H         0.70424          0.93320        -1.82596          5.299778          1.625401        -0.327461
  H        -0.56356         -0.03519        -1.96397          3.901833          1.213622         0.129491
  H        -0.76111          1.39254        -0.86694          1.509586         -5.346584         0.561915
  O         4.05293         -0.24165         4.10098        -13.002251         -7.187316         4.148621
  O         5.03596          0.24151         3.63789         -0.931577          7.178631        -4.210500
8
step=          59  t[fs]=       59.00   Vpot[Eh]=     -302.83025948   Tkin[Eh]=    0.04356051   dE[kJ]=          -3.3765   T[K]=   1146.3
  C        -0.00517          0.55112        -1.15670         -2.431615         14.038057         3.236187
  C         0.63234         -0.25406         0.03916          6.533033         -5.735487         7.427951
  O         0.16820         -0.36496         1.13313         -2.586667         -5.084081       -12.430947
  H         0.77487          0.95703        -1.83101          5.972764          2.143862        -0.002864
  H        -0.51588         -0.02256        -1.95441          4.026518          0.782834         1.248484
  H        -0.73515          1.32102        -0.86114          2.421710         -6.136261         0.584252
  O         4.04325         -0.24700         4.10408        -12.609283         -6.988428         3.960777
  O         5.03528          0.24685         3.63475         -1.326460          6.979505        -4.023841
8
step=          60  t[fs]=       60.00   Vpot[Eh]=     -302.82416758   Tkin[Eh]=    0.03778989   dE[kJ]=          -2.5330   T[K]=    994.4
  C        -0.00738          0.56498        -1.15387         -0.466874         13.300877         2.161047
  C         0.63805         -0.25953         0.04669          5.157113         -5.234322         7.317315
  O         0.16655         -0.36869         1.12333         -2.013735         -4.997230       -13.465854
  H         0.84524          0.98381        -1.82603          5.420441          2.232934         1.142512
  H        -0.46850         -0.01671        -1.93450          3.840495          0.034895         1.800459
  H        -0.70394          1.24768        -0.85315          2.000226         -5.328013         1.108852
  O         4.03418         -0.25204         4.10688        -11.432691         -6.394494         3.400857
  O         5.03398          0.25189         3.63190         -2.504975          6.385353        -3.465187
8
step=          61  t[fs]=       61.00   Vpot[Eh]=     -302.81200502   Tkin[Eh]=    0.02704559   dE[kJ]=           1.1907   T[K]=    711.7
  C        -0.00610          0.57747        -1.15242          4.288126         11.383440         0.616576
  C         0.64255         -0.26443         0.05366          4.160839         -4.605074         6.281675
  O         0.16520         -0.37240         1.11310         -1.822888         -5.022065       -13.532909
  H         0.90283          1.00974        -1.80403          4.018120          2.089979         2.672643
  H        -0.42522         -0.02173        -1.91191          3.368167         -1.018869         1.728052
  H        -0.68793          1.19524        -0.83497         -0.072769         -2.818073         2.299629
  O         4.02624         -0.25651         4.10913         -9.654391         -5.488265         2.552538
  O         5.03155          0.25635         3.62960         -4.285205          5.478926        -2.618204
8
step=          62  t[fs]=       62.00   Vpot[Eh]=     -302.81264364   Tkin[Eh]=    0.02729241   dE[kJ]=           0.1620   T[K]=    718.2
  C         0.00111          0.58753        -1.15264         10.165447          9.220976        -0.773094
  C         0.64629         -0.26865         0.05914          3.620056         -3.865124         4.341018
  O         0.16384         -0.37616         1.10320         -2.052352         -5.163739       -12.616247
  H         0.94009          1.03315        -1.76293          2.162174          1.864027         4.231679
  H        -0.38899         -0.04077        -1.89370          2.736733         -2.199351         1.221907
  H        -0.70566          1.18115        -0.79886         -2.690521          0.152738         3.661798
  O         4.01982         -0.26021         4.11067         -7.476628         -4.366360         1.510247
  O         5.02761          0.26004         3.62801         -6.464908          4.356833        -1.577307
8
step=          63  t[fs]=       63.00   Vpot[Eh]=     -302.82179305   Tkin[Eh]=    0.03548356   dE[kJ]=          -2.3539   T[K]=    933.7
  C         0.01404          0.59574        -1.15395         14.825405          7.968855        -1.262241
  C         0.64973         -0.27209         0.06226          3.515821         -3.036764         1.664489
  O         0.16215         -0.38008         1.09434         -2.662560         -5.415741       -10.855161
  H         0.95388          1.05374        -1.70414          0.228478          1.666640         5.545898
  H        -0.36061         -0.07365        -1.88306          2.144005         -3.162791         0.664679
  H        -0.75144          1.19884        -0.74852         -4.107662          1.989511         4.310829
  O         4.01512         -0.26301         4.11138         -5.104595         -3.130546         0.370888
  O         5.02194          0.26283         3.62725         -8.838893          3.120835        -0.439381
8
step=          64  t[fs]=       64.00   Vpot[Eh]=     -302.82501543   Tkin[Eh]=    0.03874698   dE[kJ]=          -2.2461   T[K]=   1019.6
  C         0.03048          0.60332        -1.15515         17.140392          7.504330        -0.633152
  C         0.65326         -0.27467         0.06243          3.714574         -2.139312        -1.430225
  O         0.15988         -0.38422         1.08706         -3.525343         -5.757902        -8.550258
  H         0.94549          1.07250        -1.63201         -1.358297          1.645717         6.364940
  H        -0.33837         -0.11543        -1.87801          1.763294         -3.561088         0.397211
  H        -0.80263          1.22812        -0.69709         -3.789171          2.318155         3.921431
  O         4.01223         -0.26486         4.11122         -2.741210         -1.885030        -0.768663
  O         5.01446          0.26468         3.62736        -11.204239          1.875130         0.698717
