6
 step=           0 Ene =          -40.89899517 GradMax =            0.02429060
  C      0.00000000       0.00000000      0.00000000
  H      0.00000000       0.00000000      1.07000000
  H      1.00880700       0.00000000     -0.35666300
  H     -0.50440300      -0.87365100     -0.35666700
  H     -0.59868100       1.03695100     -0.42333700
  H     -1.19334600       1.91513000     -0.75086600
6
 step=           1 Ene =          -40.89947617 GradMax =            0.02205570
  C      0.00277636      -0.00364342      0.00124954
  H     -0.00316313       0.00536682      1.07955979
  H      1.01802397       0.00396817     -0.36235190
  H     -0.51309430      -0.87786036     -0.36274444
  H     -0.60441823       1.04446841     -0.42591198
  H     -1.18774768       1.90613040     -0.74733402
6
 step=           2 Ene =          -40.90056212 GradMax =            0.02033053
  C      0.00391832      -0.00547137      0.00196520
  H     -0.00910823       0.01552464      1.08920152
  H      1.02532029       0.01414724     -0.37116524
  H     -0.52552543      -0.87893816     -0.37144960
  H     -0.60354041       1.04020015     -0.42360845
  H     -1.17868754       1.89296750     -0.74247644
6
 step=           3 Ene =          -40.90093861 GradMax =            0.01835696
  C      0.00451363      -0.00665193      0.00247765
  H     -0.01447596       0.02478073      1.09783305
  H      1.03146821       0.02392045     -0.37932399
  H     -0.53673892      -0.87980872     -0.37935393
  H     -0.60517119       1.03927654     -0.42246617
  H     -1.16721877       1.87691292     -0.73669962
6
 step=           4 Ene =          -40.90091506 GradMax =            0.01635286
  C      0.00461768      -0.00754571      0.00298815
  H     -0.01944474       0.03337544      1.10369612
  H      1.03439495       0.03413757     -0.38661572
  H     -0.54612392      -0.87886479     -0.38598346
  H     -0.60772161       1.03869338     -0.42120721
  H     -1.15334535       1.85863411     -0.73041088
6
 step=           5 Ene =          -40.90066254 GradMax =            0.01448918
  C      0.00440112      -0.00860046      0.00371050
  H     -0.02369868       0.04076094      1.10635366
  H      1.03352510       0.04470954     -0.39278245
  H     -0.55305303      -0.87611462     -0.39089410
  H     -0.61156446       1.03855277     -0.41976231
  H     -1.13723306       1.83912185     -0.72415830
6
 step=           6 Ene =          -40.90024830 GradMax =            0.01302465
  C      0.00409665      -0.01026592      0.00483784
  H     -0.02649255       0.04568941      1.10603745
  H      1.02917967       0.05462640     -0.39731916
  H     -0.55665432      -0.87258647     -0.39349557
  H     -0.61752636       1.04000024     -0.41854070
  H     -1.12022608       1.82096635     -0.71905285
