6
 step=           0     theta[rad]=           0.0000
  C         0.00005         -0.00000        -0.02680
  C         0.08656          0.00000         1.47020
  O         1.01528         -0.00000         2.21453
  H        -0.89084         -0.00000        -0.29708
  H         0.39265          0.69642        -0.31645
  H         0.39265         -0.69642        -0.31644
6
 step=           1     theta[rad]=           0.0105
  C         0.00005         -0.00000        -0.02680
  C         0.08656          0.00000         1.47020
  O         1.01528         -0.00000         2.21453
  H        -0.89084         -0.00000        -0.29709
  H         0.39266          0.69643        -0.31645
  H         0.39266         -0.69643        -0.31645
6
 step=           2     theta[rad]=           0.0209
  C         0.00005         -0.00000        -0.02679
  C         0.08656          0.00000         1.47020
  O         1.01528         -0.00000         2.21453
  H        -0.89091         -0.00000        -0.29710
  H         0.39270          0.69651        -0.31649
  H         0.39270         -0.69651        -0.31648
6
 step=           3     theta[rad]=           0.0314
  C         0.00004         -0.00000        -0.02677
  C         0.08656          0.00000         1.47020
  O         1.01528         -0.00000         2.21453
  H        -0.89113         -0.00000        -0.29717
  H         0.39286          0.69679        -0.31660
  H         0.39286         -0.69679        -0.31660
6
 step=           4     theta[rad]=           0.0419
  C         0.00002         -0.00000        -0.02671
  C         0.08655          0.00000         1.47020
  O         1.01528         -0.00000         2.21453
  H        -0.89166         -0.00000        -0.29732
  H         0.39324          0.69746        -0.31689
  H         0.39324         -0.69745        -0.31689
6
 step=           5     theta[rad]=           0.0524
  C        -0.00001         -0.00000        -0.02659
  C         0.08655          0.00000         1.47020
  O         1.01528         -0.00000         2.21452
  H        -0.89268         -0.00000        -0.29762
  H         0.39398          0.69875        -0.31744
  H         0.39398         -0.69875        -0.31744
6
 step=           6     theta[rad]=           0.0628
  C        -0.00007         -0.00000        -0.02639
  C         0.08655          0.00000         1.47020
  O         1.01528         -0.00000         2.21452
  H        -0.89444         -0.00000        -0.29814
  H         0.39525          0.70098        -0.31839
  H         0.39524         -0.70097        -0.31839
6
 step=           7     theta[rad]=           0.0733
  C        -0.00017         -0.00000        -0.02606
  C         0.08654          0.00000         1.47021
  O         1.01528         -0.00000         2.21452
  H        -0.89723         -0.00000        -0.29896
  H         0.39725          0.70449        -0.31989
  H         0.39725         -0.70449        -0.31989
6
 step=           8     theta[rad]=           0.0838
  C        -0.00032         -0.00000        -0.02559
  C         0.08654          0.00000         1.47021
  O         1.01528         -0.00000         2.21451
  H        -0.90135         -0.00000        -0.30016
  H         0.40022          0.70970        -0.32211
  H         0.40021         -0.70970        -0.32211
6
 step=           9     theta[rad]=           0.0942
  C        -0.00052         -0.00000        -0.02492
  C         0.08653          0.00000         1.47022
  O         1.01528         -0.00000         2.21451
  H        -0.90716         -0.00000        -0.30187
  H         0.40439          0.71703        -0.32524
  H         0.40439         -0.71703        -0.32524
6
 step=          10     theta[rad]=           0.1047
  C        -0.00079         -0.00000        -0.02401
  C         0.08651          0.00000         1.47023
  O         1.01528         -0.00000         2.21450
  H        -0.91499         -0.00000        -0.30416
  H         0.41003          0.72693        -0.32946
  H         0.41003         -0.72693        -0.32946
6
 step=          11     theta[rad]=           0.1152
  C        -0.00115         -0.00000        -0.02283
  C         0.08649          0.00000         1.47024
  O         1.01528         -0.00000         2.21449
  H        -0.92520         -0.00000        -0.30715
  H         0.41737          0.73982        -0.33496
  H         0.41737         -0.73981        -0.33496
6
 step=          12     theta[rad]=           0.1257
  C        -0.00160         -0.00000        -0.02134
  C         0.08647          0.00000         1.47025
  O         1.01528         -0.00000         2.21447
  H        -0.93807         -0.00000        -0.31093
  H         0.42663          0.75607        -0.34189
  H         0.42663         -0.75607        -0.34189
6
 step=          13     theta[rad]=           0.1361
  C        -0.00215         -0.00000        -0.01952
  C         0.08644          0.00000         1.47026
  O         1.01528         -0.00000         2.21445
  H        -0.95383         -0.00000        -0.31555
  H         0.43797          0.77598        -0.35039
  H         0.43797         -0.77597        -0.35039
6
 step=          14     theta[rad]=           0.1466
  C        -0.00281         -0.00000        -0.01736
  C         0.08640          0.00000         1.47028
  O         1.01528         -0.00000         2.21443
  H        -0.97259         -0.00000        -0.32104
  H         0.45147          0.79967        -0.36049
  H         0.45147         -0.79967        -0.36049
6
 step=          15     theta[rad]=           0.1571
  C        -0.00357         -0.00000        -0.01485
  C         0.08636          0.00000         1.47030
  O         1.01528         -0.00000         2.21441
  H        -0.99430         -0.00000        -0.32741
  H         0.46709          0.82708        -0.37219
  H         0.46709         -0.82708        -0.37219
6
 step=          16     theta[rad]=           0.1676
  C        -0.00442         -0.00000        -0.01203
  C         0.08632          0.00000         1.47033
  O         1.01528         -0.00000         2.21438
  H        -1.01870         -0.00000        -0.33456
  H         0.48464          0.85789        -0.38533
  H         0.48464         -0.85789        -0.38533
6
 step=          17     theta[rad]=           0.1780
  C        -0.00535          0.00000        -0.00896
  C         0.08626          0.00000         1.47035
  O         1.01528         -0.00000         2.21435
  H        -1.04527         -0.00000        -0.34235
  H         0.50376          0.89145        -0.39965
  H         0.50376         -0.89145        -0.39965
6
 step=          18     theta[rad]=           0.1885
  C        -0.00633          0.00000        -0.00573
  C         0.08621          0.00000         1.47038
  O         1.01528         -0.00000         2.21432
  H        -1.07323          0.00000        -0.35054
  H         0.52387          0.92676        -0.41472
  H         0.52387         -0.92676        -0.41472
6
 step=          19     theta[rad]=           0.1990
  C        -0.00732          0.00000        -0.00246
  C         0.08616          0.00000         1.47041
  O         1.01528         -0.00000         2.21429
  H        -1.10147          0.00000        -0.35882
  H         0.54419          0.96242        -0.42993
  H         0.54419         -0.96243        -0.42993
6
 step=          20     theta[rad]=           0.2094
  C        -0.00826          0.00000         0.00067
  C         0.08611          0.00000         1.47043
  O         1.01529         -0.00000         2.21426
  H        -1.12858          0.00000        -0.36676
  H         0.56369          0.99666        -0.44454
  H         0.56370         -0.99666        -0.44454
6
 step=          21     theta[rad]=           0.2199
  C        -0.00911          0.00000         0.00348
  C         0.08606          0.00000         1.47046
  O         1.01529         -0.00000         2.21423
  H        -1.15289          0.00000        -0.37389
  H         0.58118          1.02735        -0.45763
  H         0.58118         -1.02736        -0.45763
6
 step=          22     theta[rad]=           0.2304
  C        -0.00980          0.00000         0.00575
  C         0.08602          0.00000         1.47048
  O         1.01529         -0.00000         2.21421
  H        -1.17253          0.00000        -0.37964
  H         0.59531          1.05216        -0.46822
  H         0.59531         -1.05216        -0.46822
6
 step=          23     theta[rad]=           0.2409
  C        -0.01026          0.00000         0.00726
  C         0.08600          0.00000         1.47049
  O         1.01529         -0.00000         2.21419
  H        -1.18560          0.00000        -0.38348
  H         0.60471          1.06867        -0.47526
  H         0.60472         -1.06867        -0.47526
6
 step=          24     theta[rad]=           0.2513
  C        -0.01042          0.00000         0.00780
  C         0.08599          0.00000         1.47050
  O         1.01529         -0.00000         2.21419
  H        -1.19030          0.00000        -0.38485
  H         0.60810          1.07461        -0.47779
  H         0.60810         -1.07461        -0.47779
6
 step=          25     theta[rad]=           0.2618
  C        -0.01025          0.00000         0.00721
  C         0.08600          0.00000         1.47049
  O         1.01529         -0.00000         2.21419
  H        -1.18520          0.00000        -0.38336
  H         0.60443          1.06816        -0.47504
  H         0.60443         -1.06817        -0.47504
6
 step=          26     theta[rad]=           0.2723
  C        -0.00969          0.00000         0.00539
  C         0.08603          0.00000         1.47048
  O         1.01529         -0.00000         2.21421
  H        -1.16945          0.00000        -0.37874
  H         0.59310          1.04827        -0.46656
  H         0.59310         -1.04828        -0.46656
6
 step=          27     theta[rad]=           0.2827
  C        -0.00877          0.00000         0.00234
  C         0.08608          0.00000         1.47045
  O         1.01529         -0.00000         2.21424
  H        -1.14307          0.00000        -0.37101
  H         0.57412          1.01496        -0.45234
  H         0.57412         -1.01496        -0.45234
6
 step=          28     theta[rad]=           0.2932
  C        -0.00751          0.00000        -0.00181
  C         0.08615          0.00000         1.47041
  O         1.01528         -0.00000         2.21428
  H        -1.10715          0.00000        -0.36048
  H         0.54827          0.96959        -0.43299
  H         0.54827         -0.96959        -0.43299
6
 step=          29     theta[rad]=           0.3037
  C        -0.00601          0.00000        -0.00679
  C         0.08623          0.00000         1.47037
  O         1.01528         -0.00000         2.21433
  H        -1.06399          0.00000        -0.34783
  H         0.51723          0.91509        -0.40974
  H         0.51723         -0.91509        -0.40974
6
 step=          30     theta[rad]=           0.3142
  C        -0.00437         -0.00000        -0.01221
  C         0.08632          0.00000         1.47033
  O         1.01528         -0.00000         2.21438
  H        -1.01715         -0.00000        -0.33410
  H         0.48352          0.85593        -0.38450
  H         0.48352         -0.85593        -0.38450
6
 step=          31     theta[rad]=           0.3246
  C        -0.00276         -0.00000        -0.01752
  C         0.08640          0.00000         1.47028
  O         1.01528         -0.00000         2.21444
  H        -0.97120         -0.00000        -0.32064
  H         0.45047          0.79791        -0.35974
  H         0.45047         -0.79791        -0.35974
6
 step=          32     theta[rad]=           0.3351
  C        -0.00137         -0.00000        -0.02211
  C         0.08648          0.00000         1.47024
  O         1.01528         -0.00000         2.21448
  H        -0.93142         -0.00000        -0.30898
  H         0.42185          0.74767        -0.33831
  H         0.42185         -0.74767        -0.33831
6
 step=          33     theta[rad]=           0.3456
  C        -0.00038         -0.00000        -0.02538
  C         0.08653          0.00000         1.47021
  O         1.01528         -0.00000         2.21451
  H        -0.90315         -0.00000        -0.30069
  H         0.40151          0.71197        -0.32308
  H         0.40151         -0.71197        -0.32308
6
 step=          34     theta[rad]=           0.3560
  C         0.00005         -0.00000        -0.02678
  C         0.08656          0.00000         1.47020
  O         1.01528         -0.00000         2.21453
  H        -0.89104         -0.00000        -0.29714
  H         0.39280          0.69668        -0.31656
  H         0.39280         -0.69668        -0.31656
6
 step=          35     theta[rad]=           0.3665
  C        -0.00020         -0.00000        -0.02596
  C         0.08654          0.00000         1.47021
  O         1.01528         -0.00000         2.21452
  H        -0.89817         -0.00000        -0.29923
  H         0.39792          0.70568        -0.32039
  H         0.39792         -0.70567        -0.32039
6
 step=          36     theta[rad]=           0.3770
  C        -0.00115         -0.00000        -0.02283
  C         0.08649          0.00000         1.47024
  O         1.01528         -0.00000         2.21449
  H        -0.92520         -0.00000        -0.30715
  H         0.41737          0.73982        -0.33496
  H         0.41737         -0.73981        -0.33496
6
 step=          37     theta[rad]=           0.3875
  C        -0.00271         -0.00000        -0.01768
  C         0.08641          0.00000         1.47028
  O         1.01528         -0.00000         2.21444
  H        -0.96981         -0.00000        -0.32023
  H         0.44947          0.79616        -0.35900
  H         0.44947         -0.79616        -0.35900
6
 step=          38     theta[rad]=           0.3979
  C        -0.00469          0.00000        -0.01113
  C         0.08630          0.00000         1.47033
  O         1.01528         -0.00000         2.21437
  H        -1.02648         -0.00000        -0.33684
  H         0.49024          0.86772        -0.38953
  H         0.49024         -0.86772        -0.38953
6
 step=          39     theta[rad]=           0.4084
  C        -0.00680          0.00000        -0.00415
  C         0.08619          0.00000         1.47039
  O         1.01528         -0.00000         2.21430
  H        -1.08684          0.00000        -0.35453
  H         0.53366          0.94395        -0.42205
  H         0.53366         -0.94395        -0.42205
6
 step=          40     theta[rad]=           0.4189
  C        -0.00869          0.00000         0.00208
  C         0.08608          0.00000         1.47045
  O         1.01529         -0.00000         2.21424
  H        -1.14076          0.00000        -0.37033
  H         0.57246          1.01204        -0.45110
  H         0.57246         -1.01204        -0.45110
6
 step=          41     theta[rad]=           0.4294
  C        -0.00999          0.00000         0.00638
  C         0.08601          0.00000         1.47048
  O         1.01529         -0.00000         2.21420
  H        -1.17799          0.00000        -0.38124
  H         0.59924          1.05905        -0.47116
  H         0.59924         -1.05906        -0.47116
6
 step=          42     theta[rad]=           0.4398
  C        -0.01042          0.00000         0.00779
  C         0.08599          0.00000         1.47050
  O         1.01529         -0.00000         2.21419
  H        -1.19023          0.00000        -0.38483
  H         0.60805          1.07451        -0.47775
  H         0.60805         -1.07452        -0.47775
6
 step=          43     theta[rad]=           0.4503
  C        -0.00983          0.00000         0.00583
  C         0.08602          0.00000         1.47048
  O         1.01529         -0.00000         2.21421
  H        -1.17326          0.00000        -0.37986
  H         0.59584          1.05309        -0.46861
  H         0.59584         -1.05309        -0.46861
6
 step=          44     theta[rad]=           0.4608
  C        -0.00826          0.00000         0.00067
  C         0.08611          0.00000         1.47043
  O         1.01529         -0.00000         2.21426
  H        -1.12858          0.00000        -0.36676
  H         0.56369          0.99666        -0.44454
  H         0.56370         -0.99666        -0.44454
6
 step=          45     theta[rad]=           0.4712
  C        -0.00601          0.00000        -0.00679
  C         0.08623          0.00000         1.47037
  O         1.01528         -0.00000         2.21433
  H        -1.06399          0.00000        -0.34783
  H         0.51723          0.91509        -0.40974
  H         0.51723         -0.91509        -0.40974
6
 step=          46     theta[rad]=           0.4817
  C        -0.00351         -0.00000        -0.01502
  C         0.08636          0.00000         1.47030
  O         1.01528         -0.00000         2.21441
  H        -0.99281         -0.00000        -0.32697
  H         0.46602          0.82520        -0.37139
  H         0.46602         -0.82520        -0.37139
6
 step=          47     theta[rad]=           0.4922
  C        -0.00137         -0.00000        -0.02211
  C         0.08648          0.00000         1.47024
  O         1.01528         -0.00000         2.21448
  H        -0.93142         -0.00000        -0.30898
  H         0.42185          0.74767        -0.33831
  H         0.42185         -0.74767        -0.33831
6
 step=          48     theta[rad]=           0.5027
  C        -0.00011         -0.00000        -0.02626
  C         0.08655          0.00000         1.47021
  O         1.01528         -0.00000         2.21452
  H        -0.89554         -0.00000        -0.29846
  H         0.39604          0.70236        -0.31898
  H         0.39603         -0.70236        -0.31898
6
 step=          49     theta[rad]=           0.5131
  C        -0.00013         -0.00000        -0.02621
  C         0.08655          0.00000         1.47021
  O         1.01528         -0.00000         2.21452
  H        -0.89594         -0.00000        -0.29858
  H         0.39632          0.70286        -0.31919
  H         0.39632         -0.70286        -0.31919
6
 step=          50     theta[rad]=           0.5236
  C        -0.00148         -0.00000        -0.02173
  C         0.08647          0.00000         1.47024
  O         1.01528         -0.00000         2.21448
  H        -0.93469         -0.00000        -0.30994
  H         0.42420          0.75181        -0.34007
  H         0.42420         -0.75180        -0.34007
6
 step=          51     theta[rad]=           0.5341
  C        -0.00388         -0.00000        -0.01380
  C         0.08634          0.00000         1.47031
  O         1.01528         -0.00000         2.21440
  H        -1.00333         -0.00000        -0.33005
  H         0.47359          0.83849        -0.37706
  H         0.47358         -0.83849        -0.37706
6
 step=          52     theta[rad]=           0.5445
  C        -0.00670          0.00000        -0.00450
  C         0.08619          0.00000         1.47039
  O         1.01528         -0.00000         2.21431
  H        -1.08385          0.00000        -0.35365
  H         0.53151          0.94017        -0.42044
  H         0.53151         -0.94017        -0.42044
6
 step=          53     theta[rad]=           0.5550
  C        -0.00911          0.00000         0.00348
  C         0.08606          0.00000         1.47046
  O         1.01529         -0.00000         2.21423
  H        -1.15289          0.00000        -0.37389
  H         0.58118          1.02735        -0.45763
  H         0.58118         -1.02736        -0.45763
6
 step=          54     theta[rad]=           0.5655
  C        -0.01036          0.00000         0.00759
  C         0.08599          0.00000         1.47049
  O         1.01529         -0.00000         2.21419
  H        -1.18846          0.00000        -0.38431
  H         0.60677          1.07228        -0.47680
  H         0.60678         -1.07228        -0.47680
6
 step=          55     theta[rad]=           0.5760
  C        -0.00997          0.00000         0.00631
  C         0.08602          0.00000         1.47048
  O         1.01529         -0.00000         2.21420
  H        -1.17736          0.00000        -0.38106
  H         0.59879          1.05826        -0.47082
  H         0.59879         -1.05826        -0.47082
6
 step=          56     theta[rad]=           0.5864
  C        -0.00799          0.00000        -0.00023
  C         0.08612          0.00000         1.47043
  O         1.01528         -0.00000         2.21427
  H        -1.12080          0.00000        -0.36448
  H         0.55810          0.98683        -0.44035
  H         0.55810         -0.98684        -0.44035
6
 step=          57     theta[rad]=           0.5969
  C        -0.00502          0.00000        -0.01004
  C         0.08628          0.00000         1.47034
  O         1.01528         -0.00000         2.21436
  H        -1.03587         -0.00000        -0.33959
  H         0.49699          0.87957        -0.39458
  H         0.49699         -0.87957        -0.39458
6
 step=          58     theta[rad]=           0.6074
  C        -0.00206         -0.00000        -0.01982
  C         0.08644          0.00000         1.47026
  O         1.01528         -0.00000         2.21446
  H        -0.95130         -0.00000        -0.31480
  H         0.43615          0.77277        -0.34902
  H         0.43615         -0.77277        -0.34902
6
 step=          59     theta[rad]=           0.6178
  C        -0.00020         -0.00000        -0.02596
  C         0.08654          0.00000         1.47021
  O         1.01528         -0.00000         2.21452
  H        -0.89817         -0.00000        -0.29923
  H         0.39792          0.70568        -0.32039
  H         0.39792         -0.70567        -0.32039
6
 step=          60     theta[rad]=           0.6283
  C        -0.00020         -0.00000        -0.02596
  C         0.08654          0.00000         1.47021
  O         1.01528         -0.00000         2.21452
  H        -0.89817         -0.00000        -0.29923
  H         0.39792          0.70568        -0.32039
  H         0.39792         -0.70567        -0.32039
6
 step=          61     theta[rad]=           0.6388
  C        -0.00215         -0.00000        -0.01952
  C         0.08644          0.00000         1.47026
  O         1.01528         -0.00000         2.21445
  H        -0.95383         -0.00000        -0.31555
  H         0.43797          0.77598        -0.35039
  H         0.43797         -0.77597        -0.35039
6
 step=          62     theta[rad]=           0.6493
  C        -0.00535          0.00000        -0.00896
  C         0.08626          0.00000         1.47035
  O         1.01528         -0.00000         2.21435
  H        -1.04527         -0.00000        -0.34235
  H         0.50376          0.89145        -0.39965
  H         0.50376         -0.89145        -0.39965
6
 step=          63     theta[rad]=           0.6597
  C        -0.00852          0.00000         0.00153
  C         0.08609          0.00000         1.47044
  O         1.01529         -0.00000         2.21425
  H        -1.13601          0.00000        -0.36894
  H         0.56904          1.00605        -0.44854
  H         0.56904         -1.00605        -0.44854
6
 step=          64     theta[rad]=           0.6702
  C        -0.01031          0.00000         0.00742
  C         0.08600          0.00000         1.47049
  O         1.01529         -0.00000         2.21419
  H        -1.18703          0.00000        -0.38389
  H         0.60574          1.07047        -0.47603
  H         0.60575         -1.07048        -0.47603
6
 step=          65     theta[rad]=           0.6807
  C        -0.00985          0.00000         0.00592
  C         0.08602          0.00000         1.47048
  O         1.01529         -0.00000         2.21421
  H        -1.17398          0.00000        -0.38007
  H         0.59636          1.05400        -0.46900
  H         0.59636         -1.05400        -0.46900
6
 step=          66     theta[rad]=           0.6912
  C        -0.00727          0.00000        -0.00263
  C         0.08616          0.00000         1.47041
  O         1.01528         -0.00000         2.21429
  H        -1.10004          0.00000        -0.35840
  H         0.54316          0.96061        -0.42916
  H         0.54316         -0.96061        -0.42916
6
 step=          67     theta[rad]=           0.7016
  C        -0.00367         -0.00000        -0.01450
  C         0.08636          0.00000         1.47031
  O         1.01528         -0.00000         2.21441
  H        -0.99729         -0.00000        -0.32828
  H         0.46924          0.83086        -0.37380
  H         0.46924         -0.83086        -0.37380
6
 step=          68     theta[rad]=           0.7121
  C        -0.00076         -0.00000        -0.02411
  C         0.08651          0.00000         1.47022
  O         1.01528         -0.00000         2.21450
  H        -0.91415         -0.00000        -0.30391
  H         0.40942          0.72586        -0.32900
  H         0.40942         -0.72586        -0.32900
6
 step=          69     theta[rad]=           0.7226
  C        -0.00001         -0.00000        -0.02659
  C         0.08655          0.00000         1.47020
  O         1.01528         -0.00000         2.21452
  H        -0.89268         -0.00000        -0.29762
  H         0.39398          0.69875        -0.31744
  H         0.39398         -0.69875        -0.31744
6
 step=          70     theta[rad]=           0.7330
  C        -0.00189         -0.00000        -0.02039
  C         0.08645          0.00000         1.47026
  O         1.01528         -0.00000         2.21446
  H        -0.94634         -0.00000        -0.31335
  H         0.43258          0.76651        -0.34635
  H         0.43258         -0.76651        -0.34635
6
 step=          71     theta[rad]=           0.7435
  C        -0.00551          0.00000        -0.00841
  C         0.08626          0.00000         1.47036
  O         1.01528         -0.00000         2.21435
  H        -1.04997          0.00000        -0.34372
  H         0.50714          0.89739        -0.40218
  H         0.50714         -0.89739        -0.40218
6
 step=          72     theta[rad]=           0.7540
  C        -0.00900          0.00000         0.00311
  C         0.08607          0.00000         1.47046
  O         1.01529         -0.00000         2.21423
  H        -1.14972          0.00000        -0.37296
  H         0.57890          1.02336        -0.45593
  H         0.57890         -1.02336        -0.45593
6
 step=          73     theta[rad]=           0.7645
  C        -0.01042          0.00000         0.00780
  C         0.08599          0.00000         1.47050
  O         1.01529         -0.00000         2.21419
  H        -1.19030          0.00000        -0.38485
  H         0.60809          1.07460        -0.47779
  H         0.60810         -1.07460        -0.47779
6
 step=          74     theta[rad]=           0.7749
  C        -0.00889          0.00000         0.00273
  C         0.08607          0.00000         1.47045
  O         1.01529         -0.00000         2.21424
  H        -1.14645          0.00000        -0.37200
  H         0.57655          1.01922        -0.45416
  H         0.57655         -1.01922        -0.45416
6
 step=          75     theta[rad]=           0.7854
  C        -0.00519          0.00000        -0.00950
  C         0.08627          0.00000         1.47035
  O         1.01528         -0.00000         2.21436
  H        -1.04057         -0.00000        -0.34097
  H         0.50038          0.88551        -0.39712
  H         0.50038         -0.88551        -0.39712
6
 step=          76     theta[rad]=           0.7959
  C        -0.00144         -0.00000        -0.02186
  C         0.08648          0.00000         1.47024
  O         1.01528         -0.00000         2.21448
  H        -0.93359         -0.00000        -0.30961
  H         0.42341          0.75041        -0.33948
  H         0.42341         -0.75041        -0.33948
6
 step=          77     theta[rad]=           0.8063
  C         0.00005         -0.00000        -0.02679
  C         0.08656          0.00000         1.47020
  O         1.01528         -0.00000         2.21453
  H        -0.89091         -0.00000        -0.29710
  H         0.39270          0.69651        -0.31649
  H         0.39270         -0.69651        -0.31648
6
 step=          78     theta[rad]=           0.8168
  C        -0.00172         -0.00000        -0.02094
  C         0.08646          0.00000         1.47025
  O         1.01528         -0.00000         2.21447
  H        -0.94155         -0.00000        -0.31195
  H         0.42914          0.76046        -0.34377
  H         0.42913         -0.76046        -0.34377
6
 step=          79     theta[rad]=           0.8273
  C        -0.00573          0.00000        -0.00769
  C         0.08624          0.00000         1.47036
  O         1.01528         -0.00000         2.21434
  H        -1.05622          0.00000        -0.34556
  H         0.51164          0.90528        -0.40555
  H         0.51164         -0.90528        -0.40555
6
 step=          80     theta[rad]=           0.8378
  C        -0.00942          0.00000         0.00450
  C         0.08605          0.00000         1.47047
  O         1.01529         -0.00000         2.21422
  H        -1.16171          0.00000        -0.37647
  H         0.58753          1.03849        -0.46239
  H         0.58753         -1.03850        -0.46239
6
 step=          81     theta[rad]=           0.8482
  C        -0.01030          0.00000         0.00739
  C         0.08600          0.00000         1.47049
  O         1.01529         -0.00000         2.21419
  H        -1.18670          0.00000        -0.38380
  H         0.60550          1.07005        -0.47585
  H         0.60551         -1.07006        -0.47585
6
 step=          82     theta[rad]=           0.8587
  C        -0.00766          0.00000        -0.00132
  C         0.08614          0.00000         1.47042
  O         1.01528         -0.00000         2.21428
  H        -1.11133          0.00000        -0.36171
  H         0.55128          0.97487        -0.43524
  H         0.55128         -0.97487        -0.43524
6
 step=          83     theta[rad]=           0.8692
  C        -0.00326         -0.00000        -0.01587
  C         0.08638          0.00000         1.47029
  O         1.01528         -0.00000         2.21442
  H        -0.98545         -0.00000        -0.32481
  H         0.46072          0.81590        -0.36742
  H         0.46072         -0.81590        -0.36742
6
 step=          84     theta[rad]=           0.8796
  C        -0.00020         -0.00000        -0.02596
  C         0.08654          0.00000         1.47021
  O         1.01528         -0.00000         2.21452
  H        -0.89817         -0.00000        -0.29923
  H         0.39792          0.70568        -0.32039
  H         0.39792         -0.70567        -0.32039
6
 step=          85     theta[rad]=           0.8901
  C        -0.00079         -0.00000        -0.02401
  C         0.08651          0.00000         1.47023
  O         1.01528         -0.00000         2.21450
  H        -0.91499         -0.00000        -0.30416
  H         0.41003          0.72693        -0.32946
  H         0.41003         -0.72693        -0.32946
6
 step=          86     theta[rad]=           0.9006
  C        -0.00469          0.00000        -0.01113
  C         0.08630          0.00000         1.47033
  O         1.01528         -0.00000         2.21437
  H        -1.02648         -0.00000        -0.33684
  H         0.49024          0.86772        -0.38953
  H         0.49024         -0.86772        -0.38953
6
 step=          87     theta[rad]=           0.9111
  C        -0.00900          0.00000         0.00311
  C         0.08607          0.00000         1.47046
  O         1.01529         -0.00000         2.21423
  H        -1.14972          0.00000        -0.37296
  H         0.57890          1.02336        -0.45593
  H         0.57890         -1.02336        -0.45593
6
 step=          88     theta[rad]=           0.9215
  C        -0.01035          0.00000         0.00756
  C         0.08600          0.00000         1.47049
  O         1.01529         -0.00000         2.21419
  H        -1.18821          0.00000        -0.38424
  H         0.60659          1.07196        -0.47666
  H         0.60659         -1.07196        -0.47666
6
 step=          89     theta[rad]=           0.9320
  C        -0.00756          0.00000        -0.00164
  C         0.08615          0.00000         1.47042
  O         1.01528         -0.00000         2.21428
  H        -1.10855          0.00000        -0.36089
  H         0.54928          0.97136        -0.43374
  H         0.54928         -0.97136        -0.43374
6
 step=          90     theta[rad]=           0.9425
  C        -0.00281         -0.00000        -0.01736
  C         0.08640          0.00000         1.47028
  O         1.01528         -0.00000         2.21443
  H        -0.97259         -0.00000        -0.32104
  H         0.45147          0.79967        -0.36049
  H         0.45147         -0.79967        -0.36049
6
 step=          91     theta[rad]=           0.9529
  C        -0.00000         -0.00000        -0.02662
  C         0.08655          0.00000         1.47020
  O         1.01528         -0.00000         2.21452
  H        -0.89244         -0.00000        -0.29755
  H         0.39381          0.69845        -0.31731
  H         0.39380         -0.69845        -0.31731
6
 step=          92     theta[rad]=           0.9634
  C        -0.00160         -0.00000        -0.02134
  C         0.08647          0.00000         1.47025
  O         1.01528         -0.00000         2.21447
  H        -0.93807         -0.00000        -0.31093
  H         0.42663          0.75607        -0.34189
  H         0.42663         -0.75607        -0.34189
6
 step=          93     theta[rad]=           0.9739
  C        -0.00633          0.00000        -0.00573
  C         0.08621          0.00000         1.47038
  O         1.01528         -0.00000         2.21432
  H        -1.07323          0.00000        -0.35054
  H         0.52387          0.92676        -0.41472
  H         0.52387         -0.92676        -0.41472
6
 step=          94     theta[rad]=           0.9844
  C        -0.01008          0.00000         0.00665
  C         0.08601          0.00000         1.47049
  O         1.01529         -0.00000         2.21420
  H        -1.18036          0.00000        -0.38194
  H         0.60094          1.06205        -0.47243
  H         0.60095         -1.06205        -0.47243
6
 step=          95     theta[rad]=           0.9948
  C        -0.00942          0.00000         0.00450
  C         0.08605          0.00000         1.47047
  O         1.01529         -0.00000         2.21422
  H        -1.16171          0.00000        -0.37647
  H         0.58753          1.03849        -0.46239
  H         0.58753         -1.03850        -0.46239
6
 step=          96     theta[rad]=           1.0053
  C        -0.00486          0.00000        -0.01059
  C         0.08629          0.00000         1.47034
  O         1.01528         -0.00000         2.21437
  H        -1.03117         -0.00000        -0.33821
  H         0.49361          0.87364        -0.39205
  H         0.49361         -0.87364        -0.39205
6
 step=          97     theta[rad]=           1.0158
  C        -0.00057         -0.00000        -0.02475
  C         0.08652          0.00000         1.47022
  O         1.01528         -0.00000         2.21451
  H        -0.90861         -0.00000        -0.30229
  H         0.40544          0.71887        -0.32602
  H         0.40544         -0.71886        -0.32602
6
 step=          98     theta[rad]=           1.0263
  C        -0.00068         -0.00000        -0.02439
  C         0.08652          0.00000         1.47022
  O         1.01528         -0.00000         2.21450
  H        -0.91169         -0.00000        -0.30319
  H         0.40765          0.72275        -0.32768
  H         0.40765         -0.72275        -0.32768
6
 step=          99     theta[rad]=           1.0367
  C        -0.00519          0.00000        -0.00950
  C         0.08627          0.00000         1.47035
  O         1.01528         -0.00000         2.21436
  H        -1.04057         -0.00000        -0.34097
  H         0.50038          0.88551        -0.39712
  H         0.50038         -0.88551        -0.39712
6
 step=         100     theta[rad]=           1.0472
  C        -0.00972          0.00000         0.00548
  C         0.08603          0.00000         1.47048
  O         1.01529         -0.00000         2.21421
  H        -1.17024          0.00000        -0.37897
  H         0.59367          1.04927        -0.46698
  H         0.59367         -1.04928        -0.46698
6
 step=         101     theta[rad]=           1.0577
  C        -0.00969          0.00000         0.00539
  C         0.08603          0.00000         1.47048
  O         1.01529         -0.00000         2.21421
  H        -1.16945          0.00000        -0.37874
  H         0.59310          1.04827        -0.46656
  H         0.59310         -1.04828        -0.46656
6
 step=         102     theta[rad]=           1.0681
  C        -0.00502          0.00000        -0.01004
  C         0.08628          0.00000         1.47034
  O         1.01528         -0.00000         2.21436
  H        -1.03587         -0.00000        -0.33959
  H         0.49699          0.87957        -0.39458
  H         0.49699         -0.87957        -0.39458
6
 step=         103     theta[rad]=           1.0786
  C        -0.00049         -0.00000        -0.02500
  C         0.08653          0.00000         1.47022
  O         1.01528         -0.00000         2.21451
  H        -0.90645         -0.00000        -0.30166
  H         0.40389          0.71614        -0.32486
  H         0.40388         -0.71614        -0.32486
6
 step=         104     theta[rad]=           1.0891
  C        -0.00095         -0.00000        -0.02350
  C         0.08650          0.00000         1.47023
  O         1.01528         -0.00000         2.21449
  H        -0.91943         -0.00000        -0.30546
  H         0.41323          0.73253        -0.33185
  H         0.41322         -0.73253        -0.33185
6
 step=         105     theta[rad]=           1.0996
  C        -0.00601          0.00000        -0.00679
  C         0.08623          0.00000         1.47037
  O         1.01528         -0.00000         2.21433
  H        -1.06399          0.00000        -0.34783
  H         0.51723          0.91509        -0.40974
  H         0.51723         -0.91509        -0.40974
6
 step=         106     theta[rad]=           1.1100
  C        -0.01018          0.00000         0.00701
  C         0.08600          0.00000         1.47049
  O         1.01529         -0.00000         2.21420
  H        -1.18345          0.00000        -0.38285
  H         0.60317          1.06595        -0.47410
  H         0.60317         -1.06596        -0.47410
6
 step=         107     theta[rad]=           1.1205
  C        -0.00877          0.00000         0.00234
  C         0.08608          0.00000         1.47045
  O         1.01529         -0.00000         2.21424
  H        -1.14307          0.00000        -0.37101
  H         0.57412          1.01496        -0.45234
  H         0.57412         -1.01496        -0.45234
6
 step=         108     theta[rad]=           1.1310
  C        -0.00326         -0.00000        -0.01587
  C         0.08638          0.00000         1.47029
  O         1.01528         -0.00000         2.21442
  H        -0.98545         -0.00000        -0.32481
  H         0.46072          0.81590        -0.36742
  H         0.46072         -0.81590        -0.36742
6
 step=         109     theta[rad]=           1.1414
  C         0.00005         -0.00000        -0.02678
  C         0.08656          0.00000         1.47020
  O         1.01528         -0.00000         2.21453
  H        -0.89104         -0.00000        -0.29714
  H         0.39280          0.69668        -0.31656
  H         0.39280         -0.69668        -0.31656
6
 step=         110     theta[rad]=           1.1519
  C        -0.00281         -0.00000        -0.01736
  C         0.08640          0.00000         1.47028
  O         1.01528         -0.00000         2.21443
  H        -0.97259         -0.00000        -0.32104
  H         0.45147          0.79967        -0.36049
  H         0.45147         -0.79967        -0.36049
6
 step=         111     theta[rad]=           1.1624
  C        -0.00852          0.00000         0.00153
  C         0.08609          0.00000         1.47044
  O         1.01529         -0.00000         2.21425
  H        -1.13601          0.00000        -0.36894
  H         0.56904          1.00605        -0.44854
  H         0.56904         -1.00605        -0.44854
6
 step=         112     theta[rad]=           1.1729
  C        -0.01020          0.00000         0.00706
  C         0.08600          0.00000         1.47049
  O         1.01529         -0.00000         2.21419
  H        -1.18391          0.00000        -0.38298
  H         0.60350          1.06654        -0.47435
  H         0.60350         -1.06654        -0.47435
6
 step=         113     theta[rad]=           1.1833
  C        -0.00568          0.00000        -0.00787
  C         0.08625          0.00000         1.47036
  O         1.01528         -0.00000         2.21434
  H        -1.05466          0.00000        -0.34510
  H         0.51051          0.90331        -0.40471
  H         0.51051         -0.90331        -0.40471
6
 step=         114     theta[rad]=           1.1938
  C        -0.00052         -0.00000        -0.02492
  C         0.08653          0.00000         1.47022
  O         1.01528         -0.00000         2.21451
  H        -0.90716         -0.00000        -0.30187
  H         0.40439          0.71703        -0.32524
  H         0.40439         -0.71703        -0.32524
6
 step=         115     theta[rad]=           1.2043
  C        -0.00129         -0.00000        -0.02236
  C         0.08648          0.00000         1.47024
  O         1.01528         -0.00000         2.21448
  H        -0.92930         -0.00000        -0.30836
  H         0.42032          0.74499        -0.33717
  H         0.42032         -0.74499        -0.33717
6
 step=         116     theta[rad]=           1.2147
  C        -0.00711          0.00000        -0.00313
  C         0.08617          0.00000         1.47040
  O         1.01528         -0.00000         2.21429
  H        -1.09569          0.00000        -0.35712
  H         0.54003          0.95512        -0.42682
  H         0.54003         -0.95512        -0.42682
6
 step=         117     theta[rad]=           1.2252
  C        -0.01042          0.00000         0.00779
  C         0.08599          0.00000         1.47050
  O         1.01529         -0.00000         2.21419
  H        -1.19023          0.00000        -0.38483
  H         0.60805          1.07451        -0.47775
  H         0.60805         -1.07452        -0.47775
6
 step=         118     theta[rad]=           1.2357
  C        -0.00675          0.00000        -0.00433
  C         0.08619          0.00000         1.47039
  O         1.01528         -0.00000         2.21431
  H        -1.08535          0.00000        -0.35409
  H         0.53259          0.94206        -0.42124
  H         0.53259         -0.94206        -0.42124
6
 step=         119     theta[rad]=           1.2462
  C        -0.00095         -0.00000        -0.02350
  C         0.08650          0.00000         1.47023
  O         1.01528         -0.00000         2.21449
  H        -0.91943         -0.00000        -0.30546
  H         0.41323          0.73253        -0.33185
  H         0.41322         -0.73253        -0.33185
6
 step=         120     theta[rad]=           1.2566
  C        -0.00095         -0.00000        -0.02350
  C         0.08650          0.00000         1.47023
  O         1.01528         -0.00000         2.21449
  H        -0.91943         -0.00000        -0.30546
  H         0.41323          0.73253        -0.33185
  H         0.41322         -0.73253        -0.33185
6
 step=         121     theta[rad]=           1.2671
  C        -0.00686          0.00000        -0.00398
  C         0.08618          0.00000         1.47040
  O         1.01528         -0.00000         2.21430
  H        -1.08833          0.00000        -0.35497
  H         0.53473          0.94583        -0.42285
  H         0.53474         -0.94583        -0.42285
6
 step=         122     theta[rad]=           1.2776
  C        -0.01042          0.00000         0.00779
  C         0.08599          0.00000         1.47050
  O         1.01529         -0.00000         2.21419
  H        -1.19023          0.00000        -0.38483
  H         0.60805          1.07451        -0.47775
  H         0.60805         -1.07452        -0.47775
6
 step=         123     theta[rad]=           1.2881
  C        -0.00649          0.00000        -0.00520
  C         0.08620          0.00000         1.47039
  O         1.01528         -0.00000         2.21431
  H        -1.07781          0.00000        -0.35188
  H         0.52716          0.93254        -0.41718
  H         0.52717         -0.93254        -0.41718
6
 step=         124     theta[rad]=           1.2985
  C        -0.00065         -0.00000        -0.02448
  C         0.08652          0.00000         1.47022
  O         1.01528         -0.00000         2.21450
  H        -0.91090         -0.00000        -0.30296
  H         0.40708          0.72175        -0.32725
  H         0.40708         -0.72175        -0.32725
6
 step=         125     theta[rad]=           1.3090
  C        -0.00148         -0.00000        -0.02173
  C         0.08647          0.00000         1.47024
  O         1.01528         -0.00000         2.21448
  H        -0.93469         -0.00000        -0.30994
  H         0.42420          0.75181        -0.34007
  H         0.42420         -0.75180        -0.34007
6
 step=         126     theta[rad]=           1.3195
  C        -0.00785          0.00000        -0.00069
  C         0.08613          0.00000         1.47042
  O         1.01528         -0.00000         2.21427
  H        -1.11679          0.00000        -0.36331
  H         0.55521          0.98177        -0.43819
  H         0.55521         -0.98177        -0.43819
6
 step=         127     theta[rad]=           1.3299
  C        -0.01020          0.00000         0.00706
  C         0.08600          0.00000         1.47049
  O         1.01529         -0.00000         2.21419
  H        -1.18391          0.00000        -0.38298
  H         0.60350          1.06654        -0.47435
  H         0.60350         -1.06654        -0.47435
6
 step=         128     theta[rad]=           1.3404
  C        -0.00486          0.00000        -0.01059
  C         0.08629          0.00000         1.47034
  O         1.01528         -0.00000         2.21437
  H        -1.03117         -0.00000        -0.33821
  H         0.49361          0.87364        -0.39205
  H         0.49361         -0.87364        -0.39205
6
 step=         129     theta[rad]=           1.3509
  C        -0.00001         -0.00000        -0.02659
  C         0.08655          0.00000         1.47020
  O         1.01528         -0.00000         2.21452
  H        -0.89268         -0.00000        -0.29762
  H         0.39398          0.69875        -0.31744
  H         0.39398         -0.69875        -0.31744
6
 step=         130     theta[rad]=           1.3614
  C        -0.00331         -0.00000        -0.01570
  C         0.08638          0.00000         1.47030
  O         1.01528         -0.00000         2.21442
  H        -0.98691         -0.00000        -0.32524
  H         0.46177          0.81775        -0.36821
  H         0.46177         -0.81775        -0.36821
6
 step=         131     theta[rad]=           1.3718
  C        -0.00961          0.00000         0.00511
  C         0.08604          0.00000         1.47047
  O         1.01529         -0.00000         2.21421
  H        -1.16699          0.00000        -0.37802
  H         0.59133          1.04517        -0.46523
  H         0.59133         -1.04517        -0.46523
6
 step=         132     theta[rad]=           1.3823
  C        -0.00877          0.00000         0.00234
  C         0.08608          0.00000         1.47045
  O         1.01529         -0.00000         2.21424
  H        -1.14307          0.00000        -0.37101
  H         0.57412          1.01496        -0.45234
  H         0.57412         -1.01496        -0.45234
6
 step=         133     theta[rad]=           1.3928
  C        -0.00206         -0.00000        -0.01982
  C         0.08644          0.00000         1.47026
  O         1.01528         -0.00000         2.21446
  H        -0.95130         -0.00000        -0.31480
  H         0.43615          0.77277        -0.34902
  H         0.43615         -0.77277        -0.34902
6
 step=         134     theta[rad]=           1.4032
  C        -0.00052         -0.00000        -0.02492
  C         0.08653          0.00000         1.47022
  O         1.01528         -0.00000         2.21451
  H        -0.90716         -0.00000        -0.30187
  H         0.40439          0.71703        -0.32524
  H         0.40439         -0.71703        -0.32524
6
 step=         135     theta[rad]=           1.4137
  C        -0.00680          0.00000        -0.00415
  C         0.08619          0.00000         1.47039
  O         1.01528         -0.00000         2.21430
  H        -1.08684          0.00000        -0.35453
  H         0.53366          0.94395        -0.42205
  H         0.53366         -0.94395        -0.42205
6
 step=         136     theta[rad]=           1.4242
  C        -0.01035          0.00000         0.00756
  C         0.08600          0.00000         1.47049
  O         1.01529         -0.00000         2.21419
  H        -1.18821          0.00000        -0.38424
  H         0.60659          1.07196        -0.47666
  H         0.60659         -1.07196        -0.47666
6
 step=         137     theta[rad]=           1.4347
  C        -0.00502          0.00000        -0.01004
  C         0.08628          0.00000         1.47034
  O         1.01528         -0.00000         2.21436
  H        -1.03587         -0.00000        -0.33959
  H         0.49699          0.87957        -0.39458
  H         0.49699         -0.87957        -0.39458
6
 step=         138     theta[rad]=           1.4451
  C         0.00003         -0.00000        -0.02673
  C         0.08656          0.00000         1.47020
  O         1.01528         -0.00000         2.21453
  H        -0.89150         -0.00000        -0.29728
  H         0.39313          0.69726        -0.31680
  H         0.39313         -0.69726        -0.31680
6
 step=         139     theta[rad]=           1.4556
  C        -0.00410         -0.00000        -0.01310
  C         0.08633          0.00000         1.47032
  O         1.01528         -0.00000         2.21439
  H        -1.00944         -0.00000        -0.33184
  H         0.47798          0.84620        -0.38035
  H         0.47798         -0.84620        -0.38035
6
 step=         140     theta[rad]=           1.4661
  C        -0.01017          0.00000         0.00696
  C         0.08600          0.00000         1.47049
  O         1.01529         -0.00000         2.21420
  H        -1.18298          0.00000        -0.38271
  H         0.60283          1.06535        -0.47384
  H         0.60283         -1.06535        -0.47384
6
 step=         141     theta[rad]=           1.4765
  C        -0.00727          0.00000        -0.00263
  C         0.08616          0.00000         1.47041
  O         1.01528         -0.00000         2.21429
  H        -1.10004          0.00000        -0.35840
  H         0.54316          0.96061        -0.42916
  H         0.54316         -0.96061        -0.42916
6
 step=         142     theta[rad]=           1.4870
  C        -0.00057         -0.00000        -0.02475
  C         0.08652          0.00000         1.47022
  O         1.01528         -0.00000         2.21451
  H        -0.90861         -0.00000        -0.30229
  H         0.40544          0.71887        -0.32602
  H         0.40544         -0.71886        -0.32602
6
 step=         143     theta[rad]=           1.4975
  C        -0.00238         -0.00000        -0.01877
  C         0.08643          0.00000         1.47027
  O         1.01528         -0.00000         2.21445
  H        -0.96034         -0.00000        -0.31745
  H         0.44265          0.78419        -0.35389
  H         0.44265         -0.78419        -0.35389
6
 step=         144     theta[rad]=           1.5080
  C        -0.00942          0.00000         0.00450
  C         0.08605          0.00000         1.47047
  O         1.01529         -0.00000         2.21422
  H        -1.16171          0.00000        -0.37647
  H         0.58753          1.03849        -0.46239
  H         0.58753         -1.03850        -0.46239
6
 step=         145     theta[rad]=           1.5184
  C        -0.00848          0.00000         0.00139
  C         0.08610          0.00000         1.47044
  O         1.01529         -0.00000         2.21425
  H        -1.13480          0.00000        -0.36859
  H         0.56817          1.00451        -0.44789
  H         0.56817         -1.00452        -0.44789
6
 step=         146     theta[rad]=           1.5289
  C        -0.00126         -0.00000        -0.02248
  C         0.08649          0.00000         1.47024
  O         1.01528         -0.00000         2.21448
  H        -0.92825         -0.00000        -0.30805
  H         0.41957          0.74367        -0.33660
  H         0.41957         -0.74367        -0.33660
6
 step=         147     theta[rad]=           1.5394
  C        -0.00160         -0.00000        -0.02134
  C         0.08647          0.00000         1.47025
  O         1.01528         -0.00000         2.21447
  H        -0.93807         -0.00000        -0.31093
  H         0.42663          0.75607        -0.34189
  H         0.42663         -0.75607        -0.34189
6
 step=         148     theta[rad]=           1.5499
  C        -0.00893          0.00000         0.00286
  C         0.08607          0.00000         1.47045
  O         1.01529         -0.00000         2.21424
  H        -1.14755          0.00000        -0.37232
  H         0.57734          1.02062        -0.45476
  H         0.57734         -1.02062        -0.45476
6
 step=         149     theta[rad]=           1.5603
  C        -0.00889          0.00000         0.00273
  C         0.08607          0.00000         1.47045
  O         1.01529         -0.00000         2.21424
  H        -1.14645          0.00000        -0.37200
  H         0.57655          1.01922        -0.45416
  H         0.57655         -1.01922        -0.45416
6
 step=         150     theta[rad]=           1.5708
  C        -0.00148         -0.00000        -0.02173
  C         0.08647          0.00000         1.47024
  O         1.01528         -0.00000         2.21448
  H        -0.93469         -0.00000        -0.30994
  H         0.42420          0.75181        -0.34007
  H         0.42420         -0.75180        -0.34007
6
 step=         151     theta[rad]=           1.5813
  C        -0.00152         -0.00000        -0.02161
  C         0.08647          0.00000         1.47025
  O         1.01528         -0.00000         2.21448
  H        -0.93581         -0.00000        -0.31026
  H         0.42501          0.75321        -0.34067
  H         0.42500         -0.75321        -0.34067
6
 step=         152     theta[rad]=           1.5917
  C        -0.00900          0.00000         0.00311
  C         0.08607          0.00000         1.47046
  O         1.01529         -0.00000         2.21423
  H        -1.14972          0.00000        -0.37296
  H         0.57890          1.02336        -0.45593
  H         0.57890         -1.02336        -0.45593
6
 step=         153     theta[rad]=           1.6022
  C        -0.00865          0.00000         0.00194
  C         0.08609          0.00000         1.47045
  O         1.01529         -0.00000         2.21424
  H        -1.13959          0.00000        -0.36999
  H         0.57161          1.01056        -0.45047
  H         0.57162         -1.01056        -0.45047
6
 step=         154     theta[rad]=           1.6127
  C        -0.00111         -0.00000        -0.02295
  C         0.08649          0.00000         1.47023
  O         1.01528         -0.00000         2.21449
  H        -0.92421         -0.00000        -0.30686
  H         0.41666          0.73856        -0.33442
  H         0.41666         -0.73856        -0.33442
6
 step=         155     theta[rad]=           1.6232
  C        -0.00211         -0.00000        -0.01967
  C         0.08644          0.00000         1.47026
  O         1.01528         -0.00000         2.21446
  H        -0.95256         -0.00000        -0.31517
  H         0.43706          0.77437        -0.34970
  H         0.43706         -0.77437        -0.34970
6
 step=         156     theta[rad]=           1.6336
  C        -0.00961          0.00000         0.00511
  C         0.08604          0.00000         1.47047
  O         1.01529         -0.00000         2.21421
  H        -1.16699          0.00000        -0.37802
  H         0.59133          1.04517        -0.46523
  H         0.59133         -1.04517        -0.46523
6
 step=         157     theta[rad]=           1.6441
  C        -0.00766          0.00000        -0.00132
  C         0.08614          0.00000         1.47042
  O         1.01528         -0.00000         2.21428
  H        -1.11133          0.00000        -0.36171
  H         0.55128          0.97487        -0.43524
  H         0.55128         -0.97487        -0.43524
6
 step=         158     theta[rad]=           1.6546
  C        -0.00038         -0.00000        -0.02538
  C         0.08653          0.00000         1.47021
  O         1.01528         -0.00000         2.21451
  H        -0.90315         -0.00000        -0.30069
  H         0.40151          0.71197        -0.32308
  H         0.40151         -0.71197        -0.32308
6
 step=         159     theta[rad]=           1.6650
  C        -0.00357         -0.00000        -0.01485
  C         0.08636          0.00000         1.47030
  O         1.01528         -0.00000         2.21441
  H        -0.99430         -0.00000        -0.32741
  H         0.46709          0.82708        -0.37219
  H         0.46709         -0.82708        -0.37219
6
 step=         160     theta[rad]=           1.6755
  C        -0.01031          0.00000         0.00742
  C         0.08600          0.00000         1.47049
  O         1.01529         -0.00000         2.21419
  H        -1.18703          0.00000        -0.38389
  H         0.60574          1.07047        -0.47603
  H         0.60575         -1.07048        -0.47603
6
 step=         161     theta[rad]=           1.6860
  C        -0.00568          0.00000        -0.00787
  C         0.08625          0.00000         1.47036
  O         1.01528         -0.00000         2.21434
  H        -1.05466          0.00000        -0.34510
  H         0.51051          0.90331        -0.40471
  H         0.51051         -0.90331        -0.40471
6
 step=         162     theta[rad]=           1.6965
  C         0.00005         -0.00000        -0.02679
  C         0.08656          0.00000         1.47020
  O         1.01528         -0.00000         2.21453
  H        -0.89091         -0.00000        -0.29710
  H         0.39270          0.69651        -0.31649
  H         0.39270         -0.69651        -0.31648
6
 step=         163     theta[rad]=           1.7069
  C        -0.00606          0.00000        -0.00661
  C         0.08623          0.00000         1.47037
  O         1.01528         -0.00000         2.21433
  H        -1.06554          0.00000        -0.34829
  H         0.51834          0.91705        -0.41057
  H         0.51834         -0.91705        -0.41057
6
 step=         164     theta[rad]=           1.7174
  C        -0.01017          0.00000         0.00696
  C         0.08600          0.00000         1.47049
  O         1.01529         -0.00000         2.21420
  H        -1.18298          0.00000        -0.38271
  H         0.60283          1.06535        -0.47384
  H         0.60283         -1.06535        -0.47384
6
 step=         165     theta[rad]=           1.7279
  C        -0.00281         -0.00000        -0.01736
  C         0.08640          0.00000         1.47028
  O         1.01528         -0.00000         2.21443
  H        -0.97259         -0.00000        -0.32104
  H         0.45147          0.79967        -0.36049
  H         0.45147         -0.79967        -0.36049
6
 step=         166     theta[rad]=           1.7383
  C        -0.00098         -0.00000        -0.02339
  C         0.08650          0.00000         1.47023
  O         1.01528         -0.00000         2.21449
  H        -0.92036         -0.00000        -0.30574
  H         0.41389          0.73371        -0.33235
  H         0.41389         -0.73370        -0.33235
6
 step=         167     theta[rad]=           1.7488
  C        -0.00900          0.00000         0.00311
  C         0.08607          0.00000         1.47046
  O         1.01529         -0.00000         2.21423
  H        -1.14972          0.00000        -0.37296
  H         0.57890          1.02336        -0.45593
  H         0.57890         -1.02336        -0.45593
6
 step=         168     theta[rad]=           1.7593
  C        -0.00799          0.00000        -0.00023
  C         0.08612          0.00000         1.47043
  O         1.01528         -0.00000         2.21427
  H        -1.12080          0.00000        -0.36448
  H         0.55810          0.98683        -0.44035
  H         0.55810         -0.98684        -0.44035
6
 step=         169     theta[rad]=           1.7698
  C        -0.00030         -0.00000        -0.02565
  C         0.08654          0.00000         1.47021
  O         1.01528         -0.00000         2.21451
  H        -0.90078         -0.00000        -0.30000
  H         0.39981          0.70898        -0.32180
  H         0.39980         -0.70898        -0.32180
6
 step=         170     theta[rad]=           1.7802
  C        -0.00437         -0.00000        -0.01221
  C         0.08632          0.00000         1.47033
  O         1.01528         -0.00000         2.21438
  H        -1.01715         -0.00000        -0.33410
  H         0.48352          0.85593        -0.38450
  H         0.48352         -0.85593        -0.38450
6
 step=         171     theta[rad]=           1.7907
  C        -0.01041          0.00000         0.00777
  C         0.08599          0.00000         1.47050
  O         1.01529         -0.00000         2.21419
  H        -1.19001          0.00000        -0.38477
  H         0.60789          1.07423        -0.47763
  H         0.60789         -1.07424        -0.47763
6
 step=         172     theta[rad]=           1.8012
  C        -0.00367         -0.00000        -0.01450
  C         0.08636          0.00000         1.47031
  O         1.01528         -0.00000         2.21441
  H        -0.99729         -0.00000        -0.32828
  H         0.46924          0.83086        -0.37380
  H         0.46924         -0.83086        -0.37380
6
 step=         173     theta[rad]=           1.8117
  C        -0.00068         -0.00000        -0.02439
  C         0.08652          0.00000         1.47022
  O         1.01528         -0.00000         2.21450
  H        -0.91169         -0.00000        -0.30319
  H         0.40765          0.72275        -0.32768
  H         0.40765         -0.72275        -0.32768
6
 step=         174     theta[rad]=           1.8221
  C        -0.00889          0.00000         0.00273
  C         0.08607          0.00000         1.47045
  O         1.01529         -0.00000         2.21424
  H        -1.14645          0.00000        -0.37200
  H         0.57655          1.01922        -0.45416
  H         0.57655         -1.01922        -0.45416
6
 step=         175     theta[rad]=           1.8326
  C        -0.00780          0.00000        -0.00085
  C         0.08613          0.00000         1.47042
  O         1.01528         -0.00000         2.21427
  H        -1.11544          0.00000        -0.36291
  H         0.55424          0.98006        -0.43746
  H         0.55424         -0.98006        -0.43746
6
 step=         176     theta[rad]=           1.8431
  C        -0.00011         -0.00000        -0.02626
  C         0.08655          0.00000         1.47021
  O         1.01528         -0.00000         2.21452
  H        -0.89554         -0.00000        -0.29846
  H         0.39604          0.70236        -0.31898
  H         0.39603         -0.70236        -0.31898
6
 step=         177     theta[rad]=           1.8535
  C        -0.00535          0.00000        -0.00896
  C         0.08626          0.00000         1.47035
  O         1.01528         -0.00000         2.21435
  H        -1.04527         -0.00000        -0.34235
  H         0.50376          0.89145        -0.39965
  H         0.50376         -0.89145        -0.39965
6
 step=         178     theta[rad]=           1.8640
  C        -0.01015          0.00000         0.00690
  C         0.08601          0.00000         1.47049
  O         1.01529         -0.00000         2.21420
  H        -1.18248          0.00000        -0.38256
  H         0.60247          1.06473        -0.47358
  H         0.60247         -1.06473        -0.47358
6
 step=         179     theta[rad]=           1.8745
  C        -0.00211         -0.00000        -0.01967
  C         0.08644          0.00000         1.47026
  O         1.01528         -0.00000         2.21446
  H        -0.95256         -0.00000        -0.31517
  H         0.43706          0.77437        -0.34970
  H         0.43706         -0.77437        -0.34970
6
 step=         180     theta[rad]=           1.8850
  C        -0.00211         -0.00000        -0.01967
  C         0.08644          0.00000         1.47026
  O         1.01528         -0.00000         2.21446
  H        -0.95256         -0.00000        -0.31517
  H         0.43706          0.77437        -0.34970
  H         0.43706         -0.77437        -0.34970
6
 step=         181     theta[rad]=           1.8954
  C        -0.01018          0.00000         0.00701
  C         0.08600          0.00000         1.47049
  O         1.01529         -0.00000         2.21420
  H        -1.18345          0.00000        -0.38285
  H         0.60317          1.06595        -0.47410
  H         0.60317         -1.06596        -0.47410
6
 step=         182     theta[rad]=           1.9059
  C        -0.00502          0.00000        -0.01004
  C         0.08628          0.00000         1.47034
  O         1.01528         -0.00000         2.21436
  H        -1.03587         -0.00000        -0.33959
  H         0.49699          0.87957        -0.39458
  H         0.49699         -0.87957        -0.39458
6
 step=         183     theta[rad]=           1.9164
  C        -0.00032         -0.00000        -0.02559
  C         0.08654          0.00000         1.47021
  O         1.01528         -0.00000         2.21451
  H        -0.90135         -0.00000        -0.30016
  H         0.40022          0.70970        -0.32211
  H         0.40021         -0.70970        -0.32211
6
 step=         184     theta[rad]=           1.9268
  C        -0.00869          0.00000         0.00208
  C         0.08608          0.00000         1.47045
  O         1.01529         -0.00000         2.21424
  H        -1.14076          0.00000        -0.37033
  H         0.57246          1.01204        -0.45110
  H         0.57246         -1.01204        -0.45110
6
 step=         185     theta[rad]=           1.9373
  C        -0.00756          0.00000        -0.00164
  C         0.08615          0.00000         1.47042
  O         1.01528         -0.00000         2.21428
  H        -1.10855          0.00000        -0.36089
  H         0.54928          0.97136        -0.43374
  H         0.54928         -0.97136        -0.43374
6
 step=         186     theta[rad]=           1.9478
  C         0.00003         -0.00000        -0.02673
  C         0.08656          0.00000         1.47020
  O         1.01528         -0.00000         2.21453
  H        -0.89150         -0.00000        -0.29728
  H         0.39313          0.69726        -0.31680
  H         0.39313         -0.69726        -0.31680
6
 step=         187     theta[rad]=           1.9583
  C        -0.00670          0.00000        -0.00450
  C         0.08619          0.00000         1.47039
  O         1.01528         -0.00000         2.21431
  H        -1.08385          0.00000        -0.35365
  H         0.53151          0.94017        -0.42044
  H         0.53151         -0.94017        -0.42044
6
 step=         188     theta[rad]=           1.9687
  C        -0.00922          0.00000         0.00383
  C         0.08606          0.00000         1.47046
  O         1.01529         -0.00000         2.21423
  H        -1.15594          0.00000        -0.37478
  H         0.58338          1.03121        -0.45928
  H         0.58338         -1.03121        -0.45928
6
 step=         189     theta[rad]=           1.9792
  C        -0.00052         -0.00000        -0.02492
  C         0.08653          0.00000         1.47022
  O         1.01528         -0.00000         2.21451
  H        -0.90716         -0.00000        -0.30187
  H         0.40439          0.71703        -0.32524
  H         0.40439         -0.71703        -0.32524
6
 step=         190     theta[rad]=           1.9897
  C        -0.00491          0.00000        -0.01041
  C         0.08629          0.00000         1.47034
  O         1.01528         -0.00000         2.21437
  H        -1.03273         -0.00000        -0.33867
  H         0.49474          0.87562        -0.39290
  H         0.49474         -0.87562        -0.39290
6
 step=         191     theta[rad]=           2.0001
  C        -0.01006          0.00000         0.00659
  C         0.08601          0.00000         1.47049
  O         1.01529         -0.00000         2.21420
  H        -1.17979          0.00000        -0.38177
  H         0.60053          1.06133        -0.47213
  H         0.60054         -1.06133        -0.47213
6
 step=         192     theta[rad]=           2.0106
  C        -0.00137         -0.00000        -0.02211
  C         0.08648          0.00000         1.47024
  O         1.01528         -0.00000         2.21448
  H        -0.93142         -0.00000        -0.30898
  H         0.42185          0.74767        -0.33831
  H         0.42185         -0.74767        -0.33831
6
 step=         193     theta[rad]=           2.0211
  C        -0.00362         -0.00000        -0.01467
  C         0.08636          0.00000         1.47030
  O         1.01528         -0.00000         2.21441
  H        -0.99579         -0.00000        -0.32784
  H         0.46816          0.82897        -0.37299
  H         0.46816         -0.82897        -0.37299
6
 step=         194     theta[rad]=           2.0316
  C        -0.01036          0.00000         0.00759
  C         0.08599          0.00000         1.47049
  O         1.01529         -0.00000         2.21419
  H        -1.18846          0.00000        -0.38431
  H         0.60677          1.07228        -0.47680
  H         0.60678         -1.07228        -0.47680
6
 step=         195     theta[rad]=           2.0420
  C        -0.00211         -0.00000        -0.01967
  C         0.08644          0.00000         1.47026
  O         1.01528         -0.00000         2.21446
  H        -0.95256         -0.00000        -0.31517
  H         0.43706          0.77437        -0.34970
  H         0.43706         -0.77437        -0.34970
6
 step=         196     theta[rad]=           2.0525
  C        -0.00286         -0.00000        -0.01719
  C         0.08640          0.00000         1.47028
  O         1.01528         -0.00000         2.21443
  H        -0.97399         -0.00000        -0.32146
  H         0.45248          0.80144        -0.36125
  H         0.45248         -0.80144        -0.36125
6
 step=         197     theta[rad]=           2.0630
  C        -0.01042          0.00000         0.00779
  C         0.08599          0.00000         1.47050
  O         1.01529         -0.00000         2.21419
  H        -1.19023          0.00000        -0.38483
  H         0.60805          1.07451        -0.47775
  H         0.60805         -1.07452        -0.47775
6
 step=         198     theta[rad]=           2.0735
  C        -0.00252         -0.00000        -0.01831
  C         0.08642          0.00000         1.47027
  O         1.01528         -0.00000         2.21444
  H        -0.96435         -0.00000        -0.31863
  H         0.44554          0.78926        -0.35605
  H         0.44554         -0.78926        -0.35605
6
 step=         199     theta[rad]=           2.0839
  C        -0.00257         -0.00000        -0.01815
  C         0.08642          0.00000         1.47027
  O         1.01528         -0.00000         2.21444
  H        -0.96570         -0.00000        -0.31903
  H         0.44651          0.79097        -0.35678
  H         0.44651         -0.79097        -0.35678
6
 step=         200     theta[rad]=           2.0944
  C        -0.01042          0.00000         0.00780
  C         0.08599          0.00000         1.47050
  O         1.01529         -0.00000         2.21419
  H        -1.19030          0.00000        -0.38485
  H         0.60810          1.07461        -0.47779
  H         0.60810         -1.07461        -0.47779
6
 step=         201     theta[rad]=           2.1049
  C        -0.00252         -0.00000        -0.01831
  C         0.08642          0.00000         1.47027
  O         1.01528         -0.00000         2.21444
  H        -0.96435         -0.00000        -0.31863
  H         0.44554          0.78926        -0.35605
  H         0.44554         -0.78926        -0.35605
6
 step=         202     theta[rad]=           2.1153
  C        -0.00271         -0.00000        -0.01768
  C         0.08641          0.00000         1.47028
  O         1.01528         -0.00000         2.21444
  H        -0.96981         -0.00000        -0.32023
  H         0.44947          0.79616        -0.35900
  H         0.44947         -0.79616        -0.35900
6
 step=         203     theta[rad]=           2.1258
  C        -0.01041          0.00000         0.00777
  C         0.08599          0.00000         1.47050
  O         1.01529         -0.00000         2.21419
  H        -1.19001          0.00000        -0.38477
  H         0.60789          1.07423        -0.47763
  H         0.60789         -1.07424        -0.47763
6
 step=         204     theta[rad]=           2.1363
  C        -0.00211         -0.00000        -0.01967
  C         0.08644          0.00000         1.47026
  O         1.01528         -0.00000         2.21446
  H        -0.95256         -0.00000        -0.31517
  H         0.43706          0.77437        -0.34970
  H         0.43706         -0.77437        -0.34970
6
 step=         205     theta[rad]=           2.1468
  C        -0.00331         -0.00000        -0.01570
  C         0.08638          0.00000         1.47030
  O         1.01528         -0.00000         2.21442
  H        -0.98691         -0.00000        -0.32524
  H         0.46177          0.81775        -0.36821
  H         0.46177         -0.81775        -0.36821
6
 step=         206     theta[rad]=           2.1572
  C        -0.01030          0.00000         0.00739
  C         0.08600          0.00000         1.47049
  O         1.01529         -0.00000         2.21419
  H        -1.18670          0.00000        -0.38380
  H         0.60550          1.07005        -0.47585
  H         0.60551         -1.07006        -0.47585
6
 step=         207     theta[rad]=           2.1677
  C        -0.00137         -0.00000        -0.02211
  C         0.08648          0.00000         1.47024
  O         1.01528         -0.00000         2.21448
  H        -0.93142         -0.00000        -0.30898
  H         0.42185          0.74767        -0.33831
  H         0.42185         -0.74767        -0.33831
6
 step=         208     theta[rad]=           2.1782
  C        -0.00442         -0.00000        -0.01203
  C         0.08632          0.00000         1.47033
  O         1.01528         -0.00000         2.21438
  H        -1.01870         -0.00000        -0.33456
  H         0.48464          0.85789        -0.38533
  H         0.48464         -0.85789        -0.38533
6
 step=         209     theta[rad]=           2.1886
  C        -0.00985          0.00000         0.00592
  C         0.08602          0.00000         1.47048
  O         1.01529         -0.00000         2.21421
  H        -1.17398          0.00000        -0.38007
  H         0.59636          1.05400        -0.46900
  H         0.59636         -1.05400        -0.46900
6
 step=         210     theta[rad]=           2.1991
  C        -0.00052         -0.00000        -0.02492
  C         0.08653          0.00000         1.47022
  O         1.01528         -0.00000         2.21451
  H        -0.90716         -0.00000        -0.30187
  H         0.40439          0.71703        -0.32524
  H         0.40439         -0.71703        -0.32524
6
 step=         211     theta[rad]=           2.2096
  C        -0.00606          0.00000        -0.00661
  C         0.08623          0.00000         1.47037
  O         1.01528         -0.00000         2.21433
  H        -1.06554          0.00000        -0.34829
  H         0.51834          0.91705        -0.41057
  H         0.51834         -0.91705        -0.41057
6
 step=         212     theta[rad]=           2.2201
  C        -0.00877          0.00000         0.00234
  C         0.08608          0.00000         1.47045
  O         1.01529         -0.00000         2.21424
  H        -1.14307          0.00000        -0.37101
  H         0.57412          1.01496        -0.45234
  H         0.57412         -1.01496        -0.45234
6
 step=         213     theta[rad]=           2.2305
  C         0.00003         -0.00000        -0.02673
  C         0.08656          0.00000         1.47020
  O         1.01528         -0.00000         2.21453
  H        -0.89150         -0.00000        -0.29728
  H         0.39313          0.69726        -0.31680
  H         0.39313         -0.69726        -0.31680
6
 step=         214     theta[rad]=           2.2410
  C        -0.00804          0.00000        -0.00008
  C         0.08612          0.00000         1.47043
  O         1.01528         -0.00000         2.21426
  H        -1.12212          0.00000        -0.36487
  H         0.55905          0.98850        -0.44106
  H         0.55905         -0.98850        -0.44106
6
 step=         215     theta[rad]=           2.2515
  C        -0.00680          0.00000        -0.00415
  C         0.08619          0.00000         1.47039
  O         1.01528         -0.00000         2.21430
  H        -1.08684          0.00000        -0.35453
  H         0.53366          0.94395        -0.42205
  H         0.53366         -0.94395        -0.42205
6
 step=         216     theta[rad]=           2.2619
  C        -0.00032         -0.00000        -0.02559
  C         0.08654          0.00000         1.47021
  O         1.01528         -0.00000         2.21451
  H        -0.90135         -0.00000        -0.30016
  H         0.40022          0.70970        -0.32211
  H         0.40021         -0.70970        -0.32211
6
 step=         217     theta[rad]=           2.2724
  C        -0.00980          0.00000         0.00575
  C         0.08602          0.00000         1.47048
  O         1.01529         -0.00000         2.21421
  H        -1.17253          0.00000        -0.37964
  H         0.59531          1.05216        -0.46822
  H         0.59531         -1.05216        -0.46822
6
 step=         218     theta[rad]=           2.2829
  C        -0.00404         -0.00000        -0.01327
  C         0.08634          0.00000         1.47032
  O         1.01528         -0.00000         2.21439
  H        -1.00791         -0.00000        -0.33140
  H         0.47688          0.84426        -0.37952
  H         0.47688         -0.84426        -0.37952
6
 step=         219     theta[rad]=           2.2934
  C        -0.00211         -0.00000        -0.01967
  C         0.08644          0.00000         1.47026
  O         1.01528         -0.00000         2.21446
  H        -0.95256         -0.00000        -0.31517
  H         0.43706          0.77437        -0.34970
  H         0.43706         -0.77437        -0.34970
6
 step=         220     theta[rad]=           2.3038
  C        -0.01039          0.00000         0.00771
  C         0.08599          0.00000         1.47049
  O         1.01529         -0.00000         2.21419
  H        -1.18948          0.00000        -0.38461
  H         0.60751          1.07357        -0.47735
  H         0.60751         -1.07357        -0.47735
6
 step=         221     theta[rad]=           2.3143
  C        -0.00126         -0.00000        -0.02248
  C         0.08649          0.00000         1.47024
  O         1.01528         -0.00000         2.21448
  H        -0.92825         -0.00000        -0.30805
  H         0.41957          0.74367        -0.33660
  H         0.41957         -0.74367        -0.33660
6
 step=         222     theta[rad]=           2.3248
  C        -0.00535          0.00000        -0.00896
  C         0.08626          0.00000         1.47035
  O         1.01528         -0.00000         2.21435
  H        -1.04527         -0.00000        -0.34235
  H         0.50376          0.89145        -0.39965
  H         0.50376         -0.89145        -0.39965
6
 step=         223     theta[rad]=           2.3353
  C        -0.00885          0.00000         0.00261
  C         0.08608          0.00000         1.47045
  O         1.01529         -0.00000         2.21424
  H        -1.14533          0.00000        -0.37167
  H         0.57575          1.01781        -0.45356
  H         0.57575         -1.01782        -0.45356
6
 step=         224     theta[rad]=           2.3457
  C         0.00005         -0.00000        -0.02680
  C         0.08656          0.00000         1.47020
  O         1.01528         -0.00000         2.21453
  H        -0.89084         -0.00000        -0.29708
  H         0.39265          0.69642        -0.31645
  H         0.39265         -0.69642        -0.31644
6
 step=         225     theta[rad]=           2.3562
  C        -0.00889          0.00000         0.00273
  C         0.08607          0.00000         1.47045
  O         1.01529         -0.00000         2.21424
  H        -1.14645          0.00000        -0.37200
  H         0.57655          1.01922        -0.45416
  H         0.57655         -1.01922        -0.45416
6
 step=         226     theta[rad]=           2.3667
  C        -0.00513          0.00000        -0.00968
  C         0.08628          0.00000         1.47035
  O         1.01528         -0.00000         2.21436
  H        -1.03900         -0.00000        -0.34051
  H         0.49925          0.88353        -0.39627
  H         0.49925         -0.88353        -0.39627
6
 step=         227     theta[rad]=           2.3771
  C        -0.00160         -0.00000        -0.02134
  C         0.08647          0.00000         1.47025
  O         1.01528         -0.00000         2.21447
  H        -0.93807         -0.00000        -0.31093
  H         0.42663          0.75607        -0.34189
  H         0.42663         -0.75607        -0.34189
6
 step=         228     theta[rad]=           2.3876
  C        -0.01041          0.00000         0.00777
  C         0.08599          0.00000         1.47050
  O         1.01529         -0.00000         2.21419
  H        -1.19001          0.00000        -0.38477
  H         0.60789          1.07423        -0.47763
  H         0.60789         -1.07424        -0.47763
6
 step=         229     theta[rad]=           2.3981
  C        -0.00111         -0.00000        -0.02295
  C         0.08649          0.00000         1.47023
  O         1.01528         -0.00000         2.21449
  H        -0.92421         -0.00000        -0.30686
  H         0.41666          0.73856        -0.33442
  H         0.41666         -0.73856        -0.33442
6
 step=         230     theta[rad]=           2.4086
  C        -0.00601          0.00000        -0.00679
  C         0.08623          0.00000         1.47037
  O         1.01528         -0.00000         2.21433
  H        -1.06399          0.00000        -0.34783
  H         0.51723          0.91509        -0.40974
  H         0.51723         -0.91509        -0.40974
6
 step=         231     theta[rad]=           2.4190
  C        -0.00799          0.00000        -0.00023
  C         0.08612          0.00000         1.47043
  O         1.01528         -0.00000         2.21427
  H        -1.12080          0.00000        -0.36448
  H         0.55810          0.98683        -0.44035
  H         0.55810         -0.98684        -0.44035
6
 step=         232     theta[rad]=           2.4295
  C        -0.00017         -0.00000        -0.02606
  C         0.08654          0.00000         1.47021
  O         1.01528         -0.00000         2.21452
  H        -0.89723         -0.00000        -0.29896
  H         0.39725          0.70449        -0.31989
  H         0.39725         -0.70449        -0.31989
6
 step=         233     theta[rad]=           2.4400
  C        -0.00999          0.00000         0.00638
  C         0.08601          0.00000         1.47048
  O         1.01529         -0.00000         2.21420
  H        -1.17799          0.00000        -0.38124
  H         0.59924          1.05905        -0.47116
  H         0.59924         -1.05906        -0.47116
6
 step=         234     theta[rad]=           2.4504
  C        -0.00281         -0.00000        -0.01736
  C         0.08640          0.00000         1.47028
  O         1.01528         -0.00000         2.21443
  H        -0.97259         -0.00000        -0.32104
  H         0.45147          0.79967        -0.36049
  H         0.45147         -0.79967        -0.36049
6
 step=         235     theta[rad]=           2.4609
  C        -0.00410         -0.00000        -0.01310
  C         0.08633          0.00000         1.47032
  O         1.01528         -0.00000         2.21439
  H        -1.00944         -0.00000        -0.33184
  H         0.47798          0.84620        -0.38035
  H         0.47798         -0.84620        -0.38035
6
 step=         236     theta[rad]=           2.4714
  C        -0.00922          0.00000         0.00383
  C         0.08606          0.00000         1.47046
  O         1.01529         -0.00000         2.21423
  H        -1.15594          0.00000        -0.37478
  H         0.58338          1.03121        -0.45928
  H         0.58338         -1.03121        -0.45928
6
 step=         237     theta[rad]=           2.4819
  C         0.00005         -0.00000        -0.02679
  C         0.08656          0.00000         1.47020
  O         1.01528         -0.00000         2.21453
  H        -0.89091         -0.00000        -0.29710
  H         0.39270          0.69651        -0.31649
  H         0.39270         -0.69651        -0.31648
6
 step=         238     theta[rad]=           2.4923
  C        -0.00946          0.00000         0.00460
  C         0.08604          0.00000         1.47047
  O         1.01529         -0.00000         2.21422
  H        -1.16262          0.00000        -0.37674
  H         0.58818          1.03965        -0.46288
  H         0.58819         -1.03965        -0.46288
6
 step=         239     theta[rad]=           2.5028
  C        -0.00357         -0.00000        -0.01485
  C         0.08636          0.00000         1.47030
  O         1.01528         -0.00000         2.21441
  H        -0.99430         -0.00000        -0.32741
  H         0.46709          0.82708        -0.37219
  H         0.46709         -0.82708        -0.37219
6
 step=         240     theta[rad]=           2.5133
  C        -0.00357         -0.00000        -0.01485
  C         0.08636          0.00000         1.47030
  O         1.01528         -0.00000         2.21441
  H        -0.99430         -0.00000        -0.32741
  H         0.46709          0.82708        -0.37219
  H         0.46709         -0.82708        -0.37219
6
 step=         241     theta[rad]=           2.5237
  C        -0.00939          0.00000         0.00439
  C         0.08605          0.00000         1.47047
  O         1.01529         -0.00000         2.21422
  H        -1.16078          0.00000        -0.37620
  H         0.58686          1.03732        -0.46189
  H         0.58686         -1.03732        -0.46189
6
 step=         242     theta[rad]=           2.5342
  C         0.00005         -0.00000        -0.02679
  C         0.08656          0.00000         1.47020
  O         1.01528         -0.00000         2.21453
  H        -0.89091         -0.00000        -0.29710
  H         0.39270          0.69651        -0.31649
  H         0.39270         -0.69651        -0.31648
6
 step=         243     theta[rad]=           2.5447
  C        -0.00961          0.00000         0.00511
  C         0.08604          0.00000         1.47047
  O         1.01529         -0.00000         2.21421
  H        -1.16699          0.00000        -0.37802
  H         0.59133          1.04517        -0.46523
  H         0.59133         -1.04517        -0.46523
6
 step=         244     theta[rad]=           2.5552
  C        -0.00306         -0.00000        -0.01654
  C         0.08639          0.00000         1.47029
  O         1.01528         -0.00000         2.21443
  H        -0.97967         -0.00000        -0.32312
  H         0.45656          0.80860        -0.36431
  H         0.45656         -0.80860        -0.36431
6
 step=         245     theta[rad]=           2.5656
  C        -0.00437         -0.00000        -0.01221
  C         0.08632          0.00000         1.47033
  O         1.01528         -0.00000         2.21438
  H        -1.01715         -0.00000        -0.33410
  H         0.48352          0.85593        -0.38450
  H         0.48352         -0.85593        -0.38450
6
 step=         246     theta[rad]=           2.5761
  C        -0.00865          0.00000         0.00194
  C         0.08609          0.00000         1.47045
  O         1.01529         -0.00000         2.21424
  H        -1.13959          0.00000        -0.36999
  H         0.57161          1.01056        -0.45047
  H         0.57162         -1.01056        -0.45047
6
 step=         247     theta[rad]=           2.5866
  C        -0.00017         -0.00000        -0.02606
  C         0.08654          0.00000         1.47021
  O         1.01528         -0.00000         2.21452
  H        -0.89723         -0.00000        -0.29896
  H         0.39725          0.70449        -0.31989
  H         0.39725         -0.70449        -0.31989
6
 step=         248     theta[rad]=           2.5970
  C        -0.01026          0.00000         0.00726
  C         0.08600          0.00000         1.47049
  O         1.01529         -0.00000         2.21419
  H        -1.18560          0.00000        -0.38348
  H         0.60471          1.06867        -0.47526
  H         0.60472         -1.06867        -0.47526
6
 step=         249     theta[rad]=           2.6075
  C        -0.00148         -0.00000        -0.02173
  C         0.08647          0.00000         1.47024
  O         1.01528         -0.00000         2.21448
  H        -0.93469         -0.00000        -0.30994
  H         0.42420          0.75181        -0.34007
  H         0.42420         -0.75180        -0.34007
6
 step=         250     theta[rad]=           2.6180
  C        -0.00654          0.00000        -0.00502
  C         0.08620          0.00000         1.47039
  O         1.01528         -0.00000         2.21431
  H        -1.07932          0.00000        -0.35233
  H         0.52826          0.93445        -0.41800
  H         0.52826         -0.93446        -0.41800
6
 step=         251     theta[rad]=           2.6285
  C        -0.00649          0.00000        -0.00520
  C         0.08620          0.00000         1.47039
  O         1.01528         -0.00000         2.21431
  H        -1.07781          0.00000        -0.35188
  H         0.52716          0.93254        -0.41718
  H         0.52717         -0.93254        -0.41718
6
 step=         252     theta[rad]=           2.6389
  C        -0.00160         -0.00000        -0.02134
  C         0.08647          0.00000         1.47025
  O         1.01528         -0.00000         2.21447
  H        -0.93807         -0.00000        -0.31093
  H         0.42663          0.75607        -0.34189
  H         0.42663         -0.75607        -0.34189
6
 step=         253     theta[rad]=           2.6494
  C        -0.01015          0.00000         0.00690
  C         0.08601          0.00000         1.47049
  O         1.01529         -0.00000         2.21420
  H        -1.18248          0.00000        -0.38256
  H         0.60247          1.06473        -0.47358
  H         0.60247         -1.06473        -0.47358
6
 step=         254     theta[rad]=           2.6599
  C        -0.00001         -0.00000        -0.02659
  C         0.08655          0.00000         1.47020
  O         1.01528         -0.00000         2.21452
  H        -0.89268         -0.00000        -0.29762
  H         0.39398          0.69875        -0.31744
  H         0.39398         -0.69875        -0.31744
6
 step=         255     theta[rad]=           2.6704
  C        -0.00942          0.00000         0.00450
  C         0.08605          0.00000         1.47047
  O         1.01529         -0.00000         2.21422
  H        -1.16171          0.00000        -0.37647
  H         0.58753          1.03849        -0.46239
  H         0.58753         -1.03850        -0.46239
6
 step=         256     theta[rad]=           2.6808
  C        -0.00276         -0.00000        -0.01752
  C         0.08640          0.00000         1.47028
  O         1.01528         -0.00000         2.21444
  H        -0.97120         -0.00000        -0.32064
  H         0.45047          0.79791        -0.35974
  H         0.45047         -0.79791        -0.35974
6
 step=         257     theta[rad]=           2.6913
  C        -0.00535          0.00000        -0.00896
  C         0.08626          0.00000         1.47035
  O         1.01528         -0.00000         2.21435
  H        -1.04527         -0.00000        -0.34235
  H         0.50376          0.89145        -0.39965
  H         0.50376         -0.89145        -0.39965
6
 step=         258     theta[rad]=           2.7018
  C        -0.00727          0.00000        -0.00263
  C         0.08616          0.00000         1.47041
  O         1.01528         -0.00000         2.21429
  H        -1.10004          0.00000        -0.35840
  H         0.54316          0.96061        -0.42916
  H         0.54316         -0.96061        -0.42916
6
 step=         259     theta[rad]=           2.7122
  C        -0.00129         -0.00000        -0.02236
  C         0.08648          0.00000         1.47024
  O         1.01528         -0.00000         2.21448
  H        -0.92930         -0.00000        -0.30836
  H         0.42032          0.74499        -0.33717
  H         0.42032         -0.74499        -0.33717
6
 step=         260     theta[rad]=           2.7227
  C        -0.01017          0.00000         0.00696
  C         0.08600          0.00000         1.47049
  O         1.01529         -0.00000         2.21420
  H        -1.18298          0.00000        -0.38271
  H         0.60283          1.06535        -0.47384
  H         0.60283         -1.06535        -0.47384
6
 step=         261     theta[rad]=           2.7332
  C         0.00003         -0.00000        -0.02673
  C         0.08656          0.00000         1.47020
  O         1.01528         -0.00000         2.21453
  H        -0.89150         -0.00000        -0.29728
  H         0.39313          0.69726        -0.31680
  H         0.39313         -0.69726        -0.31680
6
 step=         262     theta[rad]=           2.7437
  C        -0.00980          0.00000         0.00575
  C         0.08602          0.00000         1.47048
  O         1.01529         -0.00000         2.21421
  H        -1.17253          0.00000        -0.37964
  H         0.59531          1.05216        -0.46822
  H         0.59531         -1.05216        -0.46822
6
 step=         263     theta[rad]=           2.7541
  C        -0.00185         -0.00000        -0.02053
  C         0.08645          0.00000         1.47025
  O         1.01528         -0.00000         2.21446
  H        -0.94513         -0.00000        -0.31299
  H         0.43171          0.76498        -0.34570
  H         0.43171         -0.76498        -0.34570
6
 step=         264     theta[rad]=           2.7646
  C        -0.00680          0.00000        -0.00415
  C         0.08619          0.00000         1.47039
  O         1.01528         -0.00000         2.21430
  H        -1.08684          0.00000        -0.35453
  H         0.53366          0.94395        -0.42205
  H         0.53366         -0.94395        -0.42205
6
 step=         265     theta[rad]=           2.7751
  C        -0.00546          0.00000        -0.00859
  C         0.08626          0.00000         1.47036
  O         1.01528         -0.00000         2.21435
  H        -1.04841         -0.00000        -0.34327
  H         0.50601          0.89541        -0.40134
  H         0.50601         -0.89541        -0.40134
6
 step=         266     theta[rad]=           2.7855
  C        -0.00311         -0.00000        -0.01637
  C         0.08639          0.00000         1.47029
  O         1.01528         -0.00000         2.21442
  H        -0.98110         -0.00000        -0.32354
  H         0.45759          0.81042        -0.36508
  H         0.45759         -0.81041        -0.36508
6
 step=         267     theta[rad]=           2.7960
  C        -0.00877          0.00000         0.00234
  C         0.08608          0.00000         1.47045
  O         1.01529         -0.00000         2.21424
  H        -1.14307          0.00000        -0.37101
  H         0.57412          1.01496        -0.45234
  H         0.57412         -1.01496        -0.45234
6
 step=         268     theta[rad]=           2.8065
  C        -0.00054         -0.00000        -0.02483
  C         0.08652          0.00000         1.47022
  O         1.01528         -0.00000         2.21451
  H        -0.90788         -0.00000        -0.30208
  H         0.40491          0.71794        -0.32563
  H         0.40491         -0.71794        -0.32563
6
 step=         269     theta[rad]=           2.8170
  C        -0.01036          0.00000         0.00759
  C         0.08599          0.00000         1.47049
  O         1.01529         -0.00000         2.21419
  H        -1.18846          0.00000        -0.38431
  H         0.60677          1.07228        -0.47680
  H         0.60678         -1.07228        -0.47680
6
 step=         270     theta[rad]=           2.8274
  C        -0.00001         -0.00000        -0.02659
  C         0.08655          0.00000         1.47020
  O         1.01528         -0.00000         2.21452
  H        -0.89268         -0.00000        -0.29762
  H         0.39398          0.69875        -0.31744
  H         0.39398         -0.69875        -0.31744
6
 step=         271     theta[rad]=           2.8379
  C        -0.00988          0.00000         0.00600
  C         0.08602          0.00000         1.47048
  O         1.01529         -0.00000         2.21421
  H        -1.17469          0.00000        -0.38028
  H         0.59686          1.05489        -0.46938
  H         0.59687         -1.05489        -0.46938
6
 step=         272     theta[rad]=           2.8484
  C        -0.00137         -0.00000        -0.02211
  C         0.08648          0.00000         1.47024
  O         1.01528         -0.00000         2.21448
  H        -0.93142         -0.00000        -0.30898
  H         0.42185          0.74767        -0.33831
  H         0.42185         -0.74767        -0.33831
6
 step=         273     theta[rad]=           2.8588
  C        -0.00785          0.00000        -0.00069
  C         0.08613          0.00000         1.47042
  O         1.01528         -0.00000         2.21427
  H        -1.11679          0.00000        -0.36331
  H         0.55521          0.98177        -0.43819
  H         0.55521         -0.98177        -0.43819
6
 step=         274     theta[rad]=           2.8693
  C        -0.00383         -0.00000        -0.01398
  C         0.08635          0.00000         1.47031
  O         1.01528         -0.00000         2.21440
  H        -1.00182         -0.00000        -0.32961
  H         0.47249          0.83657        -0.37624
  H         0.47249         -0.83657        -0.37624
6
 step=         275     theta[rad]=           2.8798
  C        -0.00519          0.00000        -0.00950
  C         0.08627          0.00000         1.47035
  O         1.01528         -0.00000         2.21436
  H        -1.04057         -0.00000        -0.34097
  H         0.50038          0.88551        -0.39712
  H         0.50038         -0.88551        -0.39712
6
 step=         276     theta[rad]=           2.8903
  C        -0.00649          0.00000        -0.00520
  C         0.08620          0.00000         1.47039
  O         1.01528         -0.00000         2.21431
  H        -1.07781          0.00000        -0.35188
  H         0.52716          0.93254        -0.41718
  H         0.52717         -0.93254        -0.41718
6
 step=         277     theta[rad]=           2.9007
  C        -0.00271         -0.00000        -0.01768
  C         0.08641          0.00000         1.47028
  O         1.01528         -0.00000         2.21444
  H        -0.96981         -0.00000        -0.32023
  H         0.44947          0.79616        -0.35900
  H         0.44947         -0.79616        -0.35900
6
 step=         278     theta[rad]=           2.9112
  C        -0.00865          0.00000         0.00194
  C         0.08609          0.00000         1.47045
  O         1.01529         -0.00000         2.21424
  H        -1.13959          0.00000        -0.36999
  H         0.57161          1.01056        -0.45047
  H         0.57162         -1.01056        -0.45047
6
 step=         279     theta[rad]=           2.9217
  C        -0.00095         -0.00000        -0.02350
  C         0.08650          0.00000         1.47023
  O         1.01528         -0.00000         2.21449
  H        -0.91943         -0.00000        -0.30546
  H         0.41323          0.73253        -0.33185
  H         0.41322         -0.73253        -0.33185
6
 step=         280     theta[rad]=           2.9322
  C        -0.00997          0.00000         0.00631
  C         0.08602          0.00000         1.47048
  O         1.01529         -0.00000         2.21420
  H        -1.17736          0.00000        -0.38106
  H         0.59879          1.05826        -0.47082
  H         0.59879         -1.05826        -0.47082
6
 step=         281     theta[rad]=           2.9426
  C        -0.00007         -0.00000        -0.02639
  C         0.08655          0.00000         1.47020
  O         1.01528         -0.00000         2.21452
  H        -0.89444         -0.00000        -0.29814
  H         0.39525          0.70098        -0.31839
  H         0.39524         -0.70097        -0.31839
6
 step=         282     theta[rad]=           2.9531
  C        -0.01042          0.00000         0.00779
  C         0.08599          0.00000         1.47050
  O         1.01529         -0.00000         2.21419
  H        -1.19023          0.00000        -0.38483
  H         0.60805          1.07451        -0.47775
  H         0.60805         -1.07452        -0.47775
6
 step=         283     theta[rad]=           2.9636
  C        -0.00000         -0.00000        -0.02662
  C         0.08655          0.00000         1.47020
  O         1.01528         -0.00000         2.21452
  H        -0.89244         -0.00000        -0.29755
  H         0.39381          0.69845        -0.31731
  H         0.39380         -0.69845        -0.31731
6
 step=         284     theta[rad]=           2.9740
  C        -0.01017          0.00000         0.00696
  C         0.08600          0.00000         1.47049
  O         1.01529         -0.00000         2.21420
  H        -1.18298          0.00000        -0.38271
  H         0.60283          1.06535        -0.47384
  H         0.60283         -1.06535        -0.47384
6
 step=         285     theta[rad]=           2.9845
  C        -0.00052         -0.00000        -0.02492
  C         0.08653          0.00000         1.47022
  O         1.01528         -0.00000         2.21451
  H        -0.90716         -0.00000        -0.30187
  H         0.40439          0.71703        -0.32524
  H         0.40439         -0.71703        -0.32524
6
 step=         286     theta[rad]=           2.9950
  C        -0.00946          0.00000         0.00460
  C         0.08604          0.00000         1.47047
  O         1.01529         -0.00000         2.21422
  H        -1.16262          0.00000        -0.37674
  H         0.58818          1.03965        -0.46288
  H         0.58819         -1.03965        -0.46288
6
 step=         287     theta[rad]=           3.0055
  C        -0.00137         -0.00000        -0.02211
  C         0.08648          0.00000         1.47024
  O         1.01528         -0.00000         2.21448
  H        -0.93142         -0.00000        -0.30898
  H         0.42185          0.74767        -0.33831
  H         0.42185         -0.74767        -0.33831
6
 step=         288     theta[rad]=           3.0159
  C        -0.00852          0.00000         0.00153
  C         0.08609          0.00000         1.47044
  O         1.01529         -0.00000         2.21425
  H        -1.13601          0.00000        -0.36894
  H         0.56904          1.00605        -0.44854
  H         0.56904         -1.00605        -0.44854
6
 step=         289     theta[rad]=           3.0264
  C        -0.00233         -0.00000        -0.01892
  C         0.08643          0.00000         1.47027
  O         1.01528         -0.00000         2.21445
  H        -0.95902         -0.00000        -0.31707
  H         0.44170          0.78253        -0.35318
  H         0.44170         -0.78253        -0.35318
6
 step=         290     theta[rad]=           3.0369
  C        -0.00756          0.00000        -0.00164
  C         0.08615          0.00000         1.47042
  O         1.01528         -0.00000         2.21428
  H        -1.10855          0.00000        -0.36089
  H         0.54928          0.97136        -0.43374
  H         0.54928         -0.97136        -0.43374
6
 step=         291     theta[rad]=           3.0473
  C        -0.00326         -0.00000        -0.01587
  C         0.08638          0.00000         1.47029
  O         1.01528         -0.00000         2.21442
  H        -0.98545         -0.00000        -0.32481
  H         0.46072          0.81590        -0.36742
  H         0.46072         -0.81590        -0.36742
6
 step=         292     theta[rad]=           3.0578
  C        -0.00670          0.00000        -0.00450
  C         0.08619          0.00000         1.47039
  O         1.01528         -0.00000         2.21431
  H        -1.08385          0.00000        -0.35365
  H         0.53151          0.94017        -0.42044
  H         0.53151         -0.94017        -0.42044
6
 step=         293     theta[rad]=           3.0683
  C        -0.00404         -0.00000        -0.01327
  C         0.08634          0.00000         1.47032
  O         1.01528         -0.00000         2.21439
  H        -1.00791         -0.00000        -0.33140
  H         0.47688          0.84426        -0.37952
  H         0.47688         -0.84426        -0.37952
6
 step=         294     theta[rad]=           3.0788
  C        -0.00601          0.00000        -0.00679
  C         0.08623          0.00000         1.47037
  O         1.01528         -0.00000         2.21433
  H        -1.06399          0.00000        -0.34783
  H         0.51723          0.91509        -0.40974
  H         0.51723         -0.91509        -0.40974
6
 step=         295     theta[rad]=           3.0892
  C        -0.00464         -0.00000        -0.01131
  C         0.08630          0.00000         1.47033
  O         1.01528         -0.00000         2.21437
  H        -1.02492         -0.00000        -0.33638
  H         0.48912          0.86575        -0.38869
  H         0.48911         -0.86575        -0.38869
6
 step=         296     theta[rad]=           3.0997
  C        -0.00551          0.00000        -0.00841
  C         0.08626          0.00000         1.47036
  O         1.01528         -0.00000         2.21435
  H        -1.04997          0.00000        -0.34372
  H         0.50714          0.89739        -0.40218
  H         0.50714         -0.89739        -0.40218
6
 step=         297     theta[rad]=           3.1102
  C        -0.00502          0.00000        -0.01004
  C         0.08628          0.00000         1.47034
  O         1.01528         -0.00000         2.21436
  H        -1.03587         -0.00000        -0.33959
  H         0.49699          0.87957        -0.39458
  H         0.49699         -0.87957        -0.39458
6
 step=         298     theta[rad]=           3.1206
  C        -0.00524          0.00000        -0.00932
  C         0.08627          0.00000         1.47035
  O         1.01528         -0.00000         2.21435
  H        -1.04214         -0.00000        -0.34143
  H         0.50150          0.88749        -0.39796
  H         0.50150         -0.88749        -0.39796
6
 step=         299     theta[rad]=           3.1311
  C        -0.00519          0.00000        -0.00950
  C         0.08627          0.00000         1.47035
  O         1.01528         -0.00000         2.21436
  H        -1.04057         -0.00000        -0.34097
  H         0.50038          0.88551        -0.39712
  H         0.50038         -0.88551        -0.39712
6
 step=         300     theta[rad]=           3.1416
  C        -0.00519          0.00000        -0.00950
  C         0.08627          0.00000         1.47035
  O         1.01528         -0.00000         2.21436
  H        -1.04057         -0.00000        -0.34097
  H         0.50038          0.88551        -0.39712
  H         0.50038         -0.88551        -0.39712
6
 step=         301     theta[rad]=           3.1521
  C        -0.00513          0.00000        -0.00968
  C         0.08628          0.00000         1.47035
  O         1.01528         -0.00000         2.21436
  H        -1.03900         -0.00000        -0.34051
  H         0.49925          0.88353        -0.39627
  H         0.49925         -0.88353        -0.39627
6
 step=         302     theta[rad]=           3.1625
  C        -0.00535          0.00000        -0.00896
  C         0.08626          0.00000         1.47035
  O         1.01528         -0.00000         2.21435
  H        -1.04527         -0.00000        -0.34235
  H         0.50376          0.89145        -0.39965
  H         0.50376         -0.89145        -0.39965
6
 step=         303     theta[rad]=           3.1730
  C        -0.00486          0.00000        -0.01059
  C         0.08629          0.00000         1.47034
  O         1.01528         -0.00000         2.21437
  H        -1.03117         -0.00000        -0.33821
  H         0.49361          0.87364        -0.39205
  H         0.49361         -0.87364        -0.39205
6
 step=         304     theta[rad]=           3.1835
  C        -0.00573          0.00000        -0.00769
  C         0.08624          0.00000         1.47036
  O         1.01528         -0.00000         2.21434
  H        -1.05622          0.00000        -0.34556
  H         0.51164          0.90528        -0.40555
  H         0.51164         -0.90528        -0.40555
6
 step=         305     theta[rad]=           3.1940
  C        -0.00437         -0.00000        -0.01221
  C         0.08632          0.00000         1.47033
  O         1.01528         -0.00000         2.21438
  H        -1.01715         -0.00000        -0.33410
  H         0.48352          0.85593        -0.38450
  H         0.48352         -0.85593        -0.38450
6
 step=         306     theta[rad]=           3.2044
  C        -0.00633          0.00000        -0.00573
  C         0.08621          0.00000         1.47038
  O         1.01528         -0.00000         2.21432
  H        -1.07323          0.00000        -0.35054
  H         0.52387          0.92676        -0.41472
  H         0.52387         -0.92676        -0.41472
6
 step=         307     theta[rad]=           3.2149
  C        -0.00367         -0.00000        -0.01450
  C         0.08636          0.00000         1.47031
  O         1.01528         -0.00000         2.21441
  H        -0.99729         -0.00000        -0.32828
  H         0.46924          0.83086        -0.37380
  H         0.46924         -0.83086        -0.37380
6
 step=         308     theta[rad]=           3.2254
  C        -0.00711          0.00000        -0.00313
  C         0.08617          0.00000         1.47040
  O         1.01528         -0.00000         2.21429
  H        -1.09569          0.00000        -0.35712
  H         0.54003          0.95512        -0.42682
  H         0.54003         -0.95512        -0.42682
6
 step=         309     theta[rad]=           3.2358
  C        -0.00281         -0.00000        -0.01736
  C         0.08640          0.00000         1.47028
  O         1.01528         -0.00000         2.21443
  H        -0.97259         -0.00000        -0.32104
  H         0.45147          0.79967        -0.36049
  H         0.45147         -0.79967        -0.36049
6
 step=         310     theta[rad]=           3.2463
  C        -0.00804          0.00000        -0.00008
  C         0.08612          0.00000         1.47043
  O         1.01528         -0.00000         2.21426
  H        -1.12212          0.00000        -0.36487
  H         0.55905          0.98850        -0.44106
  H         0.55905         -0.98850        -0.44106
6
 step=         311     theta[rad]=           3.2568
  C        -0.00185         -0.00000        -0.02053
  C         0.08645          0.00000         1.47025
  O         1.01528         -0.00000         2.21446
  H        -0.94513         -0.00000        -0.31299
  H         0.43171          0.76498        -0.34570
  H         0.43171         -0.76498        -0.34570
6
 step=         312     theta[rad]=           3.2673
  C        -0.00900          0.00000         0.00311
  C         0.08607          0.00000         1.47046
  O         1.01529         -0.00000         2.21423
  H        -1.14972          0.00000        -0.37296
  H         0.57890          1.02336        -0.45593
  H         0.57890         -1.02336        -0.45593
6
 step=         313     theta[rad]=           3.2777
  C        -0.00092         -0.00000        -0.02360
  C         0.08650          0.00000         1.47023
  O         1.01528         -0.00000         2.21449
  H        -0.91852         -0.00000        -0.30520
  H         0.41257          0.73138        -0.33136
  H         0.41256         -0.73138        -0.33136
6
 step=         314     theta[rad]=           3.2882
  C        -0.00985          0.00000         0.00592
  C         0.08602          0.00000         1.47048
  O         1.01529         -0.00000         2.21421
  H        -1.17398          0.00000        -0.38007
  H         0.59636          1.05400        -0.46900
  H         0.59636         -1.05400        -0.46900
6
 step=         315     theta[rad]=           3.2987
  C        -0.00020         -0.00000        -0.02596
  C         0.08654          0.00000         1.47021
  O         1.01528         -0.00000         2.21452
  H        -0.89817         -0.00000        -0.29923
  H         0.39792          0.70568        -0.32039
  H         0.39792         -0.70567        -0.32039
6
 step=         316     theta[rad]=           3.3091
  C        -0.01037          0.00000         0.00762
  C         0.08599          0.00000         1.47049
  O         1.01529         -0.00000         2.21419
  H        -1.18870          0.00000        -0.38438
  H         0.60694          1.07258        -0.47693
  H         0.60695         -1.07258        -0.47693
6
 step=         317     theta[rad]=           3.3196
  C         0.00005         -0.00000        -0.02679
  C         0.08656          0.00000         1.47020
  O         1.01528         -0.00000         2.21453
  H        -0.89091         -0.00000        -0.29710
  H         0.39270          0.69651        -0.31649
  H         0.39270         -0.69651        -0.31648
6
 step=         318     theta[rad]=           3.3301
  C        -0.01030          0.00000         0.00739
  C         0.08600          0.00000         1.47049
  O         1.01529         -0.00000         2.21419
  H        -1.18670          0.00000        -0.38380
  H         0.60550          1.07005        -0.47585
  H         0.60551         -1.07006        -0.47585
6
 step=         319     theta[rad]=           3.3406
  C        -0.00040         -0.00000        -0.02531
  C         0.08653          0.00000         1.47021
  O         1.01528         -0.00000         2.21451
  H        -0.90378         -0.00000        -0.30088
  H         0.40197          0.71277        -0.32342
  H         0.40196         -0.71277        -0.32342
6
 step=         320     theta[rad]=           3.3510
  C        -0.00942          0.00000         0.00450
  C         0.08605          0.00000         1.47047
  O         1.01529         -0.00000         2.21422
  H        -1.16171          0.00000        -0.37647
  H         0.58753          1.03849        -0.46239
  H         0.58753         -1.03850        -0.46239
6
 step=         321     theta[rad]=           3.3615
  C        -0.00172         -0.00000        -0.02094
  C         0.08646          0.00000         1.47025
  O         1.01528         -0.00000         2.21447
  H        -0.94155         -0.00000        -0.31195
  H         0.42914          0.76046        -0.34377
  H         0.42913         -0.76046        -0.34377
6
 step=         322     theta[rad]=           3.3720
  C        -0.00766          0.00000        -0.00132
  C         0.08614          0.00000         1.47042
  O         1.01528         -0.00000         2.21428
  H        -1.11133          0.00000        -0.36171
  H         0.55128          0.97487        -0.43524
  H         0.55128         -0.97487        -0.43524
6
 step=         323     theta[rad]=           3.3824
  C        -0.00388         -0.00000        -0.01380
  C         0.08634          0.00000         1.47031
  O         1.01528         -0.00000         2.21440
  H        -1.00333         -0.00000        -0.33005
  H         0.47359          0.83849        -0.37706
  H         0.47358         -0.83849        -0.37706
6
 step=         324     theta[rad]=           3.3929
  C        -0.00519          0.00000        -0.00950
  C         0.08627          0.00000         1.47035
  O         1.01528         -0.00000         2.21436
  H        -1.04057         -0.00000        -0.34097
  H         0.50038          0.88551        -0.39712
  H         0.50038         -0.88551        -0.39712
6
 step=         325     theta[rad]=           3.4034
  C        -0.00654          0.00000        -0.00502
  C         0.08620          0.00000         1.47039
  O         1.01528         -0.00000         2.21431
  H        -1.07932          0.00000        -0.35233
  H         0.52826          0.93445        -0.41800
  H         0.52826         -0.93446        -0.41800
6
 step=         326     theta[rad]=           3.4139
  C        -0.00252         -0.00000        -0.01831
  C         0.08642          0.00000         1.47027
  O         1.01528         -0.00000         2.21444
  H        -0.96435         -0.00000        -0.31863
  H         0.44554          0.78926        -0.35605
  H         0.44554         -0.78926        -0.35605
6
 step=         327     theta[rad]=           3.4243
  C        -0.00900          0.00000         0.00311
  C         0.08607          0.00000         1.47046
  O         1.01529         -0.00000         2.21423
  H        -1.14972          0.00000        -0.37296
  H         0.57890          1.02336        -0.45593
  H         0.57890         -1.02336        -0.45593
6
 step=         328     theta[rad]=           3.4348
  C        -0.00049         -0.00000        -0.02500
  C         0.08653          0.00000         1.47022
  O         1.01528         -0.00000         2.21451
  H        -0.90645         -0.00000        -0.30166
  H         0.40389          0.71614        -0.32486
  H         0.40388         -0.71614        -0.32486
6
 step=         329     theta[rad]=           3.4453
  C        -0.01036          0.00000         0.00759
  C         0.08599          0.00000         1.47049
  O         1.01529         -0.00000         2.21419
  H        -1.18846          0.00000        -0.38431
  H         0.60677          1.07228        -0.47680
  H         0.60678         -1.07228        -0.47680
6
 step=         330     theta[rad]=           3.4558
  C        -0.00001         -0.00000        -0.02659
  C         0.08655          0.00000         1.47020
  O         1.01528         -0.00000         2.21452
  H        -0.89268         -0.00000        -0.29762
  H         0.39398          0.69875        -0.31744
  H         0.39398         -0.69875        -0.31744
6
 step=         331     theta[rad]=           3.4662
  C        -0.00983          0.00000         0.00583
  C         0.08602          0.00000         1.47048
  O         1.01529         -0.00000         2.21421
  H        -1.17326          0.00000        -0.37986
  H         0.59584          1.05309        -0.46861
  H         0.59584         -1.05309        -0.46861
6
 step=         332     theta[rad]=           3.4767
  C        -0.00160         -0.00000        -0.02134
  C         0.08647          0.00000         1.47025
  O         1.01528         -0.00000         2.21447
  H        -0.93807         -0.00000        -0.31093
  H         0.42663          0.75607        -0.34189
  H         0.42663         -0.75607        -0.34189
6
 step=         333     theta[rad]=           3.4872
  C        -0.00727          0.00000        -0.00263
  C         0.08616          0.00000         1.47041
  O         1.01528         -0.00000         2.21429
  H        -1.10004          0.00000        -0.35840
  H         0.54316          0.96061        -0.42916
  H         0.54316         -0.96061        -0.42916
6
 step=         334     theta[rad]=           3.4976
  C        -0.00491          0.00000        -0.01041
  C         0.08629          0.00000         1.47034
  O         1.01528         -0.00000         2.21437
  H        -1.03273         -0.00000        -0.33867
  H         0.49474          0.87562        -0.39290
  H         0.49474         -0.87562        -0.39290
6
 step=         335     theta[rad]=           3.5081
  C        -0.00357         -0.00000        -0.01485
  C         0.08636          0.00000         1.47030
  O         1.01528         -0.00000         2.21441
  H        -0.99430         -0.00000        -0.32741
  H         0.46709          0.82708        -0.37219
  H         0.46709         -0.82708        -0.37219
6
 step=         336     theta[rad]=           3.5186
  C        -0.00852          0.00000         0.00153
  C         0.08609          0.00000         1.47044
  O         1.01529         -0.00000         2.21425
  H        -1.13601          0.00000        -0.36894
  H         0.56904          1.00605        -0.44854
  H         0.56904         -1.00605        -0.44854
6
 step=         337     theta[rad]=           3.5291
  C        -0.00057         -0.00000        -0.02475
  C         0.08652          0.00000         1.47022
  O         1.01528         -0.00000         2.21451
  H        -0.90861         -0.00000        -0.30229
  H         0.40544          0.71887        -0.32602
  H         0.40544         -0.71886        -0.32602
6
 step=         338     theta[rad]=           3.5395
  C        -0.01040          0.00000         0.00773
  C         0.08599          0.00000         1.47049
  O         1.01529         -0.00000         2.21419
  H        -1.18964          0.00000        -0.38466
  H         0.60762          1.07377        -0.47743
  H         0.60762         -1.07377        -0.47744
6
 step=         339     theta[rad]=           3.5500
  C        -0.00020         -0.00000        -0.02596
  C         0.08654          0.00000         1.47021
  O         1.01528         -0.00000         2.21452
  H        -0.89817         -0.00000        -0.29923
  H         0.39792          0.70568        -0.32039
  H         0.39792         -0.70567        -0.32039
6
 step=         340     theta[rad]=           3.5605
  C        -0.00908          0.00000         0.00336
  C         0.08606          0.00000         1.47046
  O         1.01529         -0.00000         2.21423
  H        -1.15184          0.00000        -0.37358
  H         0.58043          1.02604        -0.45707
  H         0.58043         -1.02604        -0.45707
6
 step=         341     theta[rad]=           3.5709
  C        -0.00311         -0.00000        -0.01637
  C         0.08639          0.00000         1.47029
  O         1.01528         -0.00000         2.21442
  H        -0.98110         -0.00000        -0.32354
  H         0.45759          0.81042        -0.36508
  H         0.45759         -0.81041        -0.36508
6
 step=         342     theta[rad]=           3.5814
  C        -0.00502          0.00000        -0.01004
  C         0.08628          0.00000         1.47034
  O         1.01528         -0.00000         2.21436
  H        -1.03587         -0.00000        -0.33959
  H         0.49699          0.87957        -0.39458
  H         0.49699         -0.87957        -0.39458
6
 step=         343     theta[rad]=           3.5919
  C        -0.00761          0.00000        -0.00148
  C         0.08614          0.00000         1.47042
  O         1.01528         -0.00000         2.21428
  H        -1.10994          0.00000        -0.36130
  H         0.55028          0.97312        -0.43449
  H         0.55028         -0.97312        -0.43449
6
 step=         344     theta[rad]=           3.6024
  C        -0.00095         -0.00000        -0.02350
  C         0.08650          0.00000         1.47023
  O         1.01528         -0.00000         2.21449
  H        -0.91943         -0.00000        -0.30546
  H         0.41323          0.73253        -0.33185
  H         0.41322         -0.73253        -0.33185
6
 step=         345     theta[rad]=           3.6128
  C        -0.01036          0.00000         0.00759
  C         0.08599          0.00000         1.47049
  O         1.01529         -0.00000         2.21419
  H        -1.18846          0.00000        -0.38431
  H         0.60677          1.07228        -0.47680
  H         0.60678         -1.07228        -0.47680
6
 step=         346     theta[rad]=           3.6233
  C        -0.00022         -0.00000        -0.02590
  C         0.08654          0.00000         1.47021
  O         1.01528         -0.00000         2.21452
  H        -0.89866         -0.00000        -0.29938
  H         0.39828          0.70630        -0.32066
  H         0.39828         -0.70630        -0.32066
6
 step=         347     theta[rad]=           3.6338
  C        -0.00877          0.00000         0.00234
  C         0.08608          0.00000         1.47045
  O         1.01529         -0.00000         2.21424
  H        -1.14307          0.00000        -0.37101
  H         0.57412          1.01496        -0.45234
  H         0.57412         -1.01496        -0.45234
6
 step=         348     theta[rad]=           3.6442
  C        -0.00388         -0.00000        -0.01380
  C         0.08634          0.00000         1.47031
  O         1.01528         -0.00000         2.21440
  H        -1.00333         -0.00000        -0.33005
  H         0.47359          0.83849        -0.37706
  H         0.47358         -0.83849        -0.37706
6
 step=         349     theta[rad]=           3.6547
  C        -0.00383         -0.00000        -0.01398
  C         0.08635          0.00000         1.47031
  O         1.01528         -0.00000         2.21440
  H        -1.00182         -0.00000        -0.32961
  H         0.47249          0.83657        -0.37624
  H         0.47249         -0.83657        -0.37624
6
 step=         350     theta[rad]=           3.6652
  C        -0.00889          0.00000         0.00273
  C         0.08607          0.00000         1.47045
  O         1.01529         -0.00000         2.21424
  H        -1.14645          0.00000        -0.37200
  H         0.57655          1.01922        -0.45416
  H         0.57655         -1.01922        -0.45416
6
 step=         351     theta[rad]=           3.6757
  C        -0.00011         -0.00000        -0.02626
  C         0.08655          0.00000         1.47021
  O         1.01528         -0.00000         2.21452
  H        -0.89554         -0.00000        -0.29846
  H         0.39604          0.70236        -0.31898
  H         0.39603         -0.70236        -0.31898
6
 step=         352     theta[rad]=           3.6861
  C        -0.01020          0.00000         0.00706
  C         0.08600          0.00000         1.47049
  O         1.01529         -0.00000         2.21419
  H        -1.18391          0.00000        -0.38298
  H         0.60350          1.06654        -0.47435
  H         0.60350         -1.06654        -0.47435
6
 step=         353     theta[rad]=           3.6966
  C        -0.00172         -0.00000        -0.02094
  C         0.08646          0.00000         1.47025
  O         1.01528         -0.00000         2.21447
  H        -0.94155         -0.00000        -0.31195
  H         0.42914          0.76046        -0.34377
  H         0.42913         -0.76046        -0.34377
6
 step=         354     theta[rad]=           3.7071
  C        -0.00601          0.00000        -0.00679
  C         0.08623          0.00000         1.47037
  O         1.01528         -0.00000         2.21433
  H        -1.06399          0.00000        -0.34783
  H         0.51723          0.91509        -0.40974
  H         0.51723         -0.91509        -0.40974
6
 step=         355     theta[rad]=           3.7176
  C        -0.00732          0.00000        -0.00246
  C         0.08616          0.00000         1.47041
  O         1.01528         -0.00000         2.21429
  H        -1.10147          0.00000        -0.35882
  H         0.54419          0.96242        -0.42993
  H         0.54419         -0.96243        -0.42993
6
 step=         356     theta[rad]=           3.7280
  C        -0.00076         -0.00000        -0.02411
  C         0.08651          0.00000         1.47022
  O         1.01528         -0.00000         2.21450
  H        -0.91415         -0.00000        -0.30391
  H         0.40942          0.72586        -0.32900
  H         0.40942         -0.72586        -0.32900
6
 step=         357     theta[rad]=           3.7385
  C        -0.01042          0.00000         0.00779
  C         0.08599          0.00000         1.47050
  O         1.01529         -0.00000         2.21419
  H        -1.19023          0.00000        -0.38483
  H         0.60805          1.07451        -0.47775
  H         0.60805         -1.07452        -0.47775
6
 step=         358     theta[rad]=           3.7490
  C        -0.00098         -0.00000        -0.02339
  C         0.08650          0.00000         1.47023
  O         1.01528         -0.00000         2.21449
  H        -0.92036         -0.00000        -0.30574
  H         0.41389          0.73371        -0.33235
  H         0.41389         -0.73370        -0.33235
6
 step=         359     theta[rad]=           3.7594
  C        -0.00680          0.00000        -0.00415
  C         0.08619          0.00000         1.47039
  O         1.01528         -0.00000         2.21430
  H        -1.08684          0.00000        -0.35453
  H         0.53366          0.94395        -0.42205
  H         0.53366         -0.94395        -0.42205
6
 step=         360     theta[rad]=           3.7699
  C        -0.00680          0.00000        -0.00415
  C         0.08619          0.00000         1.47039
  O         1.01528         -0.00000         2.21430
  H        -1.08684          0.00000        -0.35453
  H         0.53366          0.94395        -0.42205
  H         0.53366         -0.94395        -0.42205
6
 step=         361     theta[rad]=           3.7804
  C        -0.00092         -0.00000        -0.02360
  C         0.08650          0.00000         1.47023
  O         1.01528         -0.00000         2.21449
  H        -0.91852         -0.00000        -0.30520
  H         0.41257          0.73138        -0.33136
  H         0.41256         -0.73138        -0.33136
6
 step=         362     theta[rad]=           3.7909
  C        -0.01042          0.00000         0.00779
  C         0.08599          0.00000         1.47050
  O         1.01529         -0.00000         2.21419
  H        -1.19023          0.00000        -0.38483
  H         0.60805          1.07451        -0.47775
  H         0.60805         -1.07452        -0.47775
6
 step=         363     theta[rad]=           3.8013
  C        -0.00115         -0.00000        -0.02283
  C         0.08649          0.00000         1.47024
  O         1.01528         -0.00000         2.21449
  H        -0.92520         -0.00000        -0.30715
  H         0.41737          0.73982        -0.33496
  H         0.41737         -0.73981        -0.33496
6
 step=         364     theta[rad]=           3.8118
  C        -0.00627          0.00000        -0.00590
  C         0.08622          0.00000         1.47038
  O         1.01528         -0.00000         2.21432
  H        -1.07170          0.00000        -0.35009
  H         0.52277          0.92483        -0.41389
  H         0.52277         -0.92483        -0.41389
6
 step=         365     theta[rad]=           3.8223
  C        -0.00756          0.00000        -0.00164
  C         0.08615          0.00000         1.47042
  O         1.01528         -0.00000         2.21428
  H        -1.10855          0.00000        -0.36089
  H         0.54928          0.97136        -0.43374
  H         0.54928         -0.97136        -0.43374
6
 step=         366     theta[rad]=           3.8327
  C        -0.00038         -0.00000        -0.02538
  C         0.08653          0.00000         1.47021
  O         1.01528         -0.00000         2.21451
  H        -0.90315         -0.00000        -0.30069
  H         0.40151          0.71197        -0.32308
  H         0.40151         -0.71197        -0.32308
6
 step=         367     theta[rad]=           3.8432
  C        -0.01020          0.00000         0.00706
  C         0.08600          0.00000         1.47049
  O         1.01529         -0.00000         2.21419
  H        -1.18391          0.00000        -0.38298
  H         0.60350          1.06654        -0.47435
  H         0.60350         -1.06654        -0.47435
6
 step=         368     theta[rad]=           3.8537
  C        -0.00238         -0.00000        -0.01877
  C         0.08643          0.00000         1.47027
  O         1.01528         -0.00000         2.21445
  H        -0.96034         -0.00000        -0.31745
  H         0.44265          0.78419        -0.35389
  H         0.44265         -0.78419        -0.35389
6
 step=         369     theta[rad]=           3.8642
  C        -0.00437         -0.00000        -0.01221
  C         0.08632          0.00000         1.47033
  O         1.01528         -0.00000         2.21438
  H        -1.01715         -0.00000        -0.33410
  H         0.48352          0.85593        -0.38450
  H         0.48352         -0.85593        -0.38450
6
 step=         370     theta[rad]=           3.8746
  C        -0.00926          0.00000         0.00395
  C         0.08605          0.00000         1.47046
  O         1.01529         -0.00000         2.21423
  H        -1.15693          0.00000        -0.37507
  H         0.58409          1.03247        -0.45981
  H         0.58409         -1.03247        -0.45981
6
 step=         371     theta[rad]=           3.8851
  C         0.00004         -0.00000        -0.02677
  C         0.08656          0.00000         1.47020
  O         1.01528         -0.00000         2.21453
  H        -0.89113         -0.00000        -0.29717
  H         0.39286          0.69679        -0.31660
  H         0.39286         -0.69679        -0.31660
6
 step=         372     theta[rad]=           3.8956
  C        -0.00877          0.00000         0.00234
  C         0.08608          0.00000         1.47045
  O         1.01529         -0.00000         2.21424
  H        -1.14307          0.00000        -0.37101
  H         0.57412          1.01496        -0.45234
  H         0.57412         -1.01496        -0.45234
6
 step=         373     theta[rad]=           3.9060
  C        -0.00524          0.00000        -0.00932
  C         0.08627          0.00000         1.47035
  O         1.01528         -0.00000         2.21435
  H        -1.04214         -0.00000        -0.34143
  H         0.50150          0.88749        -0.39796
  H         0.50150         -0.88749        -0.39796
6
 step=         374     theta[rad]=           3.9165
  C        -0.00148         -0.00000        -0.02173
  C         0.08647          0.00000         1.47024
  O         1.01528         -0.00000         2.21448
  H        -0.93469         -0.00000        -0.30994
  H         0.42420          0.75181        -0.34007
  H         0.42420         -0.75180        -0.34007
6
 step=         375     theta[rad]=           3.9270
  C        -0.01042          0.00000         0.00780
  C         0.08599          0.00000         1.47050
  O         1.01529         -0.00000         2.21419
  H        -1.19030          0.00000        -0.38485
  H         0.60810          1.07461        -0.47779
  H         0.60810         -1.07461        -0.47779
6
 step=         376     theta[rad]=           3.9375
  C        -0.00152         -0.00000        -0.02161
  C         0.08647          0.00000         1.47025
  O         1.01528         -0.00000         2.21448
  H        -0.93581         -0.00000        -0.31026
  H         0.42501          0.75321        -0.34067
  H         0.42500         -0.75321        -0.34067
6
 step=         377     theta[rad]=           3.9479
  C        -0.00502          0.00000        -0.01004
  C         0.08628          0.00000         1.47034
  O         1.01528         -0.00000         2.21436
  H        -1.03587         -0.00000        -0.33959
  H         0.49699          0.87957        -0.39458
  H         0.49699         -0.87957        -0.39458
6
 step=         378     theta[rad]=           3.9584
  C        -0.00911          0.00000         0.00348
  C         0.08606          0.00000         1.47046
  O         1.01529         -0.00000         2.21423
  H        -1.15289          0.00000        -0.37389
  H         0.58118          1.02735        -0.45763
  H         0.58118         -1.02736        -0.45763
6
 step=         379     theta[rad]=           3.9689
  C         0.00002         -0.00000        -0.02671
  C         0.08655          0.00000         1.47020
  O         1.01528         -0.00000         2.21453
  H        -0.89166         -0.00000        -0.29732
  H         0.39324          0.69746        -0.31689
  H         0.39324         -0.69745        -0.31689
6
 step=         380     theta[rad]=           3.9794
  C        -0.00826          0.00000         0.00067
  C         0.08611          0.00000         1.47043
  O         1.01529         -0.00000         2.21426
  H        -1.12858          0.00000        -0.36676
  H         0.56369          0.99666        -0.44454
  H         0.56370         -0.99666        -0.44454
6
 step=         381     theta[rad]=           3.9898
  C        -0.00633          0.00000        -0.00573
  C         0.08621          0.00000         1.47038
  O         1.01528         -0.00000         2.21432
  H        -1.07323          0.00000        -0.35054
  H         0.52387          0.92676        -0.41472
  H         0.52387         -0.92676        -0.41472
6
 step=         382     theta[rad]=           4.0003
  C        -0.00057         -0.00000        -0.02475
  C         0.08652          0.00000         1.47022
  O         1.01528         -0.00000         2.21451
  H        -0.90861         -0.00000        -0.30229
  H         0.40544          0.71887        -0.32602
  H         0.40544         -0.71886        -0.32602
6
 step=         383     theta[rad]=           4.0108
  C        -0.01006          0.00000         0.00659
  C         0.08601          0.00000         1.47049
  O         1.01529         -0.00000         2.21420
  H        -1.17979          0.00000        -0.38177
  H         0.60053          1.06133        -0.47213
  H         0.60054         -1.06133        -0.47213
6
 step=         384     theta[rad]=           4.0212
  C        -0.00357         -0.00000        -0.01485
  C         0.08636          0.00000         1.47030
  O         1.01528         -0.00000         2.21441
  H        -0.99430         -0.00000        -0.32741
  H         0.46709          0.82708        -0.37219
  H         0.46709         -0.82708        -0.37219
6
 step=         385     theta[rad]=           4.0317
  C        -0.00233         -0.00000        -0.01892
  C         0.08643          0.00000         1.47027
  O         1.01528         -0.00000         2.21445
  H        -0.95902         -0.00000        -0.31707
  H         0.44170          0.78253        -0.35318
  H         0.44170         -0.78253        -0.35318
6
 step=         386     theta[rad]=           4.0422
  C        -0.01040          0.00000         0.00773
  C         0.08599          0.00000         1.47049
  O         1.01529         -0.00000         2.21419
  H        -1.18964          0.00000        -0.38466
  H         0.60762          1.07377        -0.47743
  H         0.60762         -1.07377        -0.47744
6
 step=         387     theta[rad]=           4.0527
  C        -0.00160         -0.00000        -0.02134
  C         0.08647          0.00000         1.47025
  O         1.01528         -0.00000         2.21447
  H        -0.93807         -0.00000        -0.31093
  H         0.42663          0.75607        -0.34189
  H         0.42663         -0.75607        -0.34189
6
 step=         388     theta[rad]=           4.0631
  C        -0.00431         -0.00000        -0.01239
  C         0.08632          0.00000         1.47032
  O         1.01528         -0.00000         2.21438
  H        -1.01560         -0.00000        -0.33365
  H         0.48241          0.85398        -0.38367
  H         0.48241         -0.85398        -0.38366
6
 step=         389     theta[rad]=           4.0736
  C        -0.00985          0.00000         0.00592
  C         0.08602          0.00000         1.47048
  O         1.01529         -0.00000         2.21421
  H        -1.17398          0.00000        -0.38007
  H         0.59636          1.05400        -0.46900
  H         0.59636         -1.05400        -0.46900
6
 step=         390     theta[rad]=           4.0841
  C        -0.00052         -0.00000        -0.02492
  C         0.08653          0.00000         1.47022
  O         1.01528         -0.00000         2.21451
  H        -0.90716         -0.00000        -0.30187
  H         0.40439          0.71703        -0.32524
  H         0.40439         -0.71703        -0.32524
6
 step=         391     theta[rad]=           4.0945
  C        -0.00595          0.00000        -0.00697
  C         0.08623          0.00000         1.47037
  O         1.01528         -0.00000         2.21433
  H        -1.06244          0.00000        -0.34738
  H         0.51611          0.91314        -0.40890
  H         0.51611         -0.91314        -0.40890
6
 step=         392     theta[rad]=           4.1050
  C        -0.00900          0.00000         0.00311
  C         0.08607          0.00000         1.47046
  O         1.01529         -0.00000         2.21423
  H        -1.14972          0.00000        -0.37296
  H         0.57890          1.02336        -0.45593
  H         0.57890         -1.02336        -0.45593
6
 step=         393     theta[rad]=           4.1155
  C        -0.00007         -0.00000        -0.02639
  C         0.08655          0.00000         1.47020
  O         1.01528         -0.00000         2.21452
  H        -0.89444         -0.00000        -0.29814
  H         0.39525          0.70098        -0.31839
  H         0.39524         -0.70097        -0.31839
6
 step=         394     theta[rad]=           4.1260
  C        -0.00706          0.00000        -0.00330
  C         0.08617          0.00000         1.47040
  O         1.01528         -0.00000         2.21430
  H        -1.09423          0.00000        -0.35670
  H         0.53898          0.95328        -0.42603
  H         0.53898         -0.95328        -0.42603
6
 step=         395     theta[rad]=           4.1364
  C        -0.00826          0.00000         0.00067
  C         0.08611          0.00000         1.47043
  O         1.01529         -0.00000         2.21426
  H        -1.12858          0.00000        -0.36676
  H         0.56369          0.99666        -0.44454
  H         0.56370         -0.99666        -0.44454
6
 step=         396     theta[rad]=           4.1469
  C         0.00004         -0.00000        -0.02677
  C         0.08656          0.00000         1.47020
  O         1.01528         -0.00000         2.21453
  H        -0.89113         -0.00000        -0.29717
  H         0.39286          0.69679        -0.31660
  H         0.39286         -0.69679        -0.31660
6
 step=         397     theta[rad]=           4.1574
  C        -0.00766          0.00000        -0.00132
  C         0.08614          0.00000         1.47042
  O         1.01528         -0.00000         2.21428
  H        -1.11133          0.00000        -0.36171
  H         0.55128          0.97487        -0.43524
  H         0.55128         -0.97487        -0.43524
6
 step=         398     theta[rad]=           4.1678
  C        -0.00785          0.00000        -0.00069
  C         0.08613          0.00000         1.47042
  O         1.01528         -0.00000         2.21427
  H        -1.11679          0.00000        -0.36331
  H         0.55521          0.98177        -0.43819
  H         0.55521         -0.98177        -0.43819
6
 step=         399     theta[rad]=           4.1783
  C         0.00005         -0.00000        -0.02680
  C         0.08656          0.00000         1.47020
  O         1.01528         -0.00000         2.21453
  H        -0.89084         -0.00000        -0.29708
  H         0.39265          0.69642        -0.31645
  H         0.39265         -0.69642        -0.31644
6
 step=         400     theta[rad]=           4.1888
  C        -0.00780          0.00000        -0.00085
  C         0.08613          0.00000         1.47042
  O         1.01528         -0.00000         2.21427
  H        -1.11544          0.00000        -0.36291
  H         0.55424          0.98006        -0.43746
  H         0.55424         -0.98006        -0.43746
6
 step=         401     theta[rad]=           4.1993
  C        -0.00785          0.00000        -0.00069
  C         0.08613          0.00000         1.47042
  O         1.01528         -0.00000         2.21427
  H        -1.11679          0.00000        -0.36331
  H         0.55521          0.98177        -0.43819
  H         0.55521         -0.98177        -0.43819
6
 step=         402     theta[rad]=           4.2097
  C         0.00005         -0.00000        -0.02679
  C         0.08656          0.00000         1.47020
  O         1.01528         -0.00000         2.21453
  H        -0.89091         -0.00000        -0.29710
  H         0.39270          0.69651        -0.31649
  H         0.39270         -0.69651        -0.31648
6
 step=         403     theta[rad]=           4.2202
  C        -0.00751          0.00000        -0.00181
  C         0.08615          0.00000         1.47041
  O         1.01528         -0.00000         2.21428
  H        -1.10715          0.00000        -0.36048
  H         0.54827          0.96959        -0.43299
  H         0.54827         -0.96959        -0.43299
6
 step=         404     theta[rad]=           4.2307
  C        -0.00826          0.00000         0.00067
  C         0.08611          0.00000         1.47043
  O         1.01529         -0.00000         2.21426
  H        -1.12858          0.00000        -0.36676
  H         0.56369          0.99666        -0.44454
  H         0.56370         -0.99666        -0.44454
6
 step=         405     theta[rad]=           4.2412
  C        -0.00001         -0.00000        -0.02659
  C         0.08655          0.00000         1.47020
  O         1.01528         -0.00000         2.21452
  H        -0.89268         -0.00000        -0.29762
  H         0.39398          0.69875        -0.31744
  H         0.39398         -0.69875        -0.31744
6
 step=         406     theta[rad]=           4.2516
  C        -0.00675          0.00000        -0.00433
  C         0.08619          0.00000         1.47039
  O         1.01528         -0.00000         2.21431
  H        -1.08535          0.00000        -0.35409
  H         0.53259          0.94206        -0.42124
  H         0.53259         -0.94206        -0.42124
6
 step=         407     theta[rad]=           4.2621
  C        -0.00900          0.00000         0.00311
  C         0.08607          0.00000         1.47046
  O         1.01529         -0.00000         2.21423
  H        -1.14972          0.00000        -0.37296
  H         0.57890          1.02336        -0.45593
  H         0.57890         -1.02336        -0.45593
6
 step=         408     theta[rad]=           4.2726
  C        -0.00032         -0.00000        -0.02559
  C         0.08654          0.00000         1.47021
  O         1.01528         -0.00000         2.21451
  H        -0.90135         -0.00000        -0.30016
  H         0.40022          0.70970        -0.32211
  H         0.40021         -0.70970        -0.32211
6
 step=         409     theta[rad]=           4.2830
  C        -0.00546          0.00000        -0.00859
  C         0.08626          0.00000         1.47036
  O         1.01528         -0.00000         2.21435
  H        -1.04841         -0.00000        -0.34327
  H         0.50601          0.89541        -0.40134
  H         0.50601         -0.89541        -0.40134
6
 step=         410     theta[rad]=           4.2935
  C        -0.00985          0.00000         0.00592
  C         0.08602          0.00000         1.47048
  O         1.01529         -0.00000         2.21421
  H        -1.17398          0.00000        -0.38007
  H         0.59636          1.05400        -0.46900
  H         0.59636         -1.05400        -0.46900
6
 step=         411     theta[rad]=           4.3040
  C        -0.00115         -0.00000        -0.02283
  C         0.08649          0.00000         1.47024
  O         1.01528         -0.00000         2.21449
  H        -0.92520         -0.00000        -0.30715
  H         0.41737          0.73982        -0.33496
  H         0.41737         -0.73981        -0.33496
6
 step=         412     theta[rad]=           4.3145
  C        -0.00367         -0.00000        -0.01450
  C         0.08636          0.00000         1.47031
  O         1.01528         -0.00000         2.21441
  H        -0.99729         -0.00000        -0.32828
  H         0.46924          0.83086        -0.37380
  H         0.46924         -0.83086        -0.37380
6
 step=         413     theta[rad]=           4.3249
  C        -0.01040          0.00000         0.00773
  C         0.08599          0.00000         1.47049
  O         1.01529         -0.00000         2.21419
  H        -1.18964          0.00000        -0.38466
  H         0.60762          1.07377        -0.47743
  H         0.60762         -1.07377        -0.47744
6
 step=         414     theta[rad]=           4.3354
  C        -0.00281         -0.00000        -0.01736
  C         0.08640          0.00000         1.47028
  O         1.01528         -0.00000         2.21443
  H        -0.97259         -0.00000        -0.32104
  H         0.45147          0.79967        -0.36049
  H         0.45147         -0.79967        -0.36049
6
 step=         415     theta[rad]=           4.3459
  C        -0.00168         -0.00000        -0.02108
  C         0.08646          0.00000         1.47025
  O         1.01528         -0.00000         2.21447
  H        -0.94038         -0.00000        -0.31160
  H         0.42829          0.75899        -0.34314
  H         0.42829         -0.75898        -0.34314
6
 step=         416     theta[rad]=           4.3563
  C        -0.01006          0.00000         0.00659
  C         0.08601          0.00000         1.47049
  O         1.01529         -0.00000         2.21420
  H        -1.17979          0.00000        -0.38177
  H         0.60053          1.06133        -0.47213
  H         0.60054         -1.06133        -0.47213
6
 step=         417     theta[rad]=           4.3668
  C        -0.00535          0.00000        -0.00896
  C         0.08626          0.00000         1.47035
  O         1.01528         -0.00000         2.21435
  H        -1.04527         -0.00000        -0.34235
  H         0.50376          0.89145        -0.39965
  H         0.50376         -0.89145        -0.39965
6
 step=         418     theta[rad]=           4.3773
  C        -0.00019         -0.00000        -0.02601
  C         0.08654          0.00000         1.47021
  O         1.01528         -0.00000         2.21452
  H        -0.89769         -0.00000        -0.29909
  H         0.39758          0.70507        -0.32014
  H         0.39758         -0.70507        -0.32014
6
 step=         419     theta[rad]=           4.3878
  C        -0.00826          0.00000         0.00067
  C         0.08611          0.00000         1.47043
  O         1.01529         -0.00000         2.21426
  H        -1.12858          0.00000        -0.36676
  H         0.56369          0.99666        -0.44454
  H         0.56370         -0.99666        -0.44454
6
 step=         420     theta[rad]=           4.3982
  C        -0.00826          0.00000         0.00067
  C         0.08611          0.00000         1.47043
  O         1.01529         -0.00000         2.21426
  H        -1.12858          0.00000        -0.36676
  H         0.56369          0.99666        -0.44454
  H         0.56370         -0.99666        -0.44454
6
 step=         421     theta[rad]=           4.4087
  C        -0.00022         -0.00000        -0.02590
  C         0.08654          0.00000         1.47021
  O         1.01528         -0.00000         2.21452
  H        -0.89866         -0.00000        -0.29938
  H         0.39828          0.70630        -0.32066
  H         0.39828         -0.70630        -0.32066
6
 step=         422     theta[rad]=           4.4192
  C        -0.00502          0.00000        -0.01004
  C         0.08628          0.00000         1.47034
  O         1.01528         -0.00000         2.21436
  H        -1.03587         -0.00000        -0.33959
  H         0.49699          0.87957        -0.39458
  H         0.49699         -0.87957        -0.39458
6
 step=         423     theta[rad]=           4.4296
  C        -0.01026          0.00000         0.00726
  C         0.08600          0.00000         1.47049
  O         1.01529         -0.00000         2.21419
  H        -1.18560          0.00000        -0.38348
  H         0.60471          1.06867        -0.47526
  H         0.60472         -1.06867        -0.47526
6
 step=         424     theta[rad]=           4.4401
  C        -0.00257         -0.00000        -0.01815
  C         0.08642          0.00000         1.47027
  O         1.01528         -0.00000         2.21444
  H        -0.96570         -0.00000        -0.31903
  H         0.44651          0.79097        -0.35678
  H         0.44651         -0.79097        -0.35678
6
 step=         425     theta[rad]=           4.4506
  C        -0.00148         -0.00000        -0.02173
  C         0.08647          0.00000         1.47024
  O         1.01528         -0.00000         2.21448
  H        -0.93469         -0.00000        -0.30994
  H         0.42420          0.75181        -0.34007
  H         0.42420         -0.75180        -0.34007
6
 step=         426     theta[rad]=           4.4611
  C        -0.00969          0.00000         0.00539
  C         0.08603          0.00000         1.47048
  O         1.01529         -0.00000         2.21421
  H        -1.16945          0.00000        -0.37874
  H         0.59310          1.04827        -0.46656
  H         0.59310         -1.04828        -0.46656
6
 step=         427     theta[rad]=           4.4715
  C        -0.00670          0.00000        -0.00450
  C         0.08619          0.00000         1.47039
  O         1.01528         -0.00000         2.21431
  H        -1.08385          0.00000        -0.35365
  H         0.53151          0.94017        -0.42044
  H         0.53151         -0.94017        -0.42044
6
 step=         428     theta[rad]=           4.4820
  C         0.00004         -0.00000        -0.02677
  C         0.08656          0.00000         1.47020
  O         1.01528         -0.00000         2.21453
  H        -0.89113         -0.00000        -0.29717
  H         0.39286          0.69679        -0.31660
  H         0.39286         -0.69679        -0.31660
6
 step=         429     theta[rad]=           4.4925
  C        -0.00601          0.00000        -0.00679
  C         0.08623          0.00000         1.47037
  O         1.01528         -0.00000         2.21433
  H        -1.06399          0.00000        -0.34783
  H         0.51723          0.91509        -0.40974
  H         0.51723         -0.91509        -0.40974
6
 step=         430     theta[rad]=           4.5029
  C        -0.01008          0.00000         0.00665
  C         0.08601          0.00000         1.47049
  O         1.01529         -0.00000         2.21420
  H        -1.18036          0.00000        -0.38194
  H         0.60094          1.06205        -0.47243
  H         0.60095         -1.06205        -0.47243
6
 step=         431     theta[rad]=           4.5134
  C        -0.00238         -0.00000        -0.01877
  C         0.08643          0.00000         1.47027
  O         1.01528         -0.00000         2.21445
  H        -0.96034         -0.00000        -0.31745
  H         0.44265          0.78419        -0.35389
  H         0.44265         -0.78419        -0.35389
6
 step=         432     theta[rad]=           4.5239
  C        -0.00137         -0.00000        -0.02211
  C         0.08648          0.00000         1.47024
  O         1.01528         -0.00000         2.21448
  H        -0.93142         -0.00000        -0.30898
  H         0.42185          0.74767        -0.33831
  H         0.42185         -0.74767        -0.33831
6
 step=         433     theta[rad]=           4.5344
  C        -0.00939          0.00000         0.00439
  C         0.08605          0.00000         1.47047
  O         1.01529         -0.00000         2.21422
  H        -1.16078          0.00000        -0.37620
  H         0.58686          1.03732        -0.46189
  H         0.58686         -1.03732        -0.46189
6
 step=         434     theta[rad]=           4.5448
  C        -0.00756          0.00000        -0.00164
  C         0.08615          0.00000         1.47042
  O         1.01528         -0.00000         2.21428
  H        -1.10855          0.00000        -0.36089
  H         0.54928          0.97136        -0.43374
  H         0.54928         -0.97136        -0.43374
6
 step=         435     theta[rad]=           4.5553
  C        -0.00020         -0.00000        -0.02596
  C         0.08654          0.00000         1.47021
  O         1.01528         -0.00000         2.21452
  H        -0.89817         -0.00000        -0.29923
  H         0.39792          0.70568        -0.32039
  H         0.39792         -0.70567        -0.32039
6
 step=         436     theta[rad]=           4.5658
  C        -0.00431         -0.00000        -0.01239
  C         0.08632          0.00000         1.47032
  O         1.01528         -0.00000         2.21438
  H        -1.01560         -0.00000        -0.33365
  H         0.48241          0.85398        -0.38367
  H         0.48241         -0.85398        -0.38366
6
 step=         437     theta[rad]=           4.5763
  C        -0.01042          0.00000         0.00779
  C         0.08599          0.00000         1.47050
  O         1.01529         -0.00000         2.21419
  H        -1.19023          0.00000        -0.38483
  H         0.60805          1.07451        -0.47775
  H         0.60805         -1.07452        -0.47775
6
 step=         438     theta[rad]=           4.5867
  C        -0.00469          0.00000        -0.01113
  C         0.08630          0.00000         1.47033
  O         1.01528         -0.00000         2.21437
  H        -1.02648         -0.00000        -0.33684
  H         0.49024          0.86772        -0.38953
  H         0.49024         -0.86772        -0.38953
6
 step=         439     theta[rad]=           4.5972
  C        -0.00006         -0.00000        -0.02642
  C         0.08655          0.00000         1.47020
  O         1.01528         -0.00000         2.21452
  H        -0.89411         -0.00000        -0.29804
  H         0.39501          0.70055        -0.31821
  H         0.39500         -0.70055        -0.31821
6
 step=         440     theta[rad]=           4.6077
  C        -0.00680          0.00000        -0.00415
  C         0.08619          0.00000         1.47039
  O         1.01528         -0.00000         2.21430
  H        -1.08684          0.00000        -0.35453
  H         0.53366          0.94395        -0.42205
  H         0.53366         -0.94395        -0.42205
6
 step=         441     theta[rad]=           4.6181
  C        -0.00999          0.00000         0.00638
  C         0.08601          0.00000         1.47048
  O         1.01529         -0.00000         2.21420
  H        -1.17799          0.00000        -0.38124
  H         0.59924          1.05905        -0.47116
  H         0.59924         -1.05906        -0.47116
6
 step=         442     theta[rad]=           4.6286
  C        -0.00271         -0.00000        -0.01768
  C         0.08641          0.00000         1.47028
  O         1.01528         -0.00000         2.21444
  H        -0.96981         -0.00000        -0.32023
  H         0.44947          0.79616        -0.35900
  H         0.44947         -0.79616        -0.35900
6
 step=         443     theta[rad]=           4.6391
  C        -0.00076         -0.00000        -0.02411
  C         0.08651          0.00000         1.47022
  O         1.01528         -0.00000         2.21450
  H        -0.91415         -0.00000        -0.30391
  H         0.40942          0.72586        -0.32900
  H         0.40942         -0.72586        -0.32900
6
 step=         444     theta[rad]=           4.6496
  C        -0.00826          0.00000         0.00067
  C         0.08611          0.00000         1.47043
  O         1.01529         -0.00000         2.21426
  H        -1.12858          0.00000        -0.36676
  H         0.56369          0.99666        -0.44454
  H         0.56370         -0.99666        -0.44454
6
 step=         445     theta[rad]=           4.6600
  C        -0.00926          0.00000         0.00395
  C         0.08605          0.00000         1.47046
  O         1.01529         -0.00000         2.21423
  H        -1.15693          0.00000        -0.37507
  H         0.58409          1.03247        -0.45981
  H         0.58409         -1.03247        -0.45981
6
 step=         446     theta[rad]=           4.6705
  C        -0.00172         -0.00000        -0.02094
  C         0.08646          0.00000         1.47025
  O         1.01528         -0.00000         2.21447
  H        -0.94155         -0.00000        -0.31195
  H         0.42914          0.76046        -0.34377
  H         0.42913         -0.76046        -0.34377
6
 step=         447     theta[rad]=           4.6810
  C        -0.00137         -0.00000        -0.02211
  C         0.08648          0.00000         1.47024
  O         1.01528         -0.00000         2.21448
  H        -0.93142         -0.00000        -0.30898
  H         0.42185          0.74767        -0.33831
  H         0.42185         -0.74767        -0.33831
6
 step=         448     theta[rad]=           4.6914
  C        -0.00885          0.00000         0.00261
  C         0.08608          0.00000         1.47045
  O         1.01529         -0.00000         2.21424
  H        -1.14533          0.00000        -0.37167
  H         0.57575          1.01781        -0.45356
  H         0.57575         -1.01782        -0.45356
6
 step=         449     theta[rad]=           4.7019
  C        -0.00889          0.00000         0.00273
  C         0.08607          0.00000         1.47045
  O         1.01529         -0.00000         2.21424
  H        -1.14645          0.00000        -0.37200
  H         0.57655          1.01922        -0.45416
  H         0.57655         -1.01922        -0.45416
6
 step=         450     theta[rad]=           4.7124
  C        -0.00148         -0.00000        -0.02173
  C         0.08647          0.00000         1.47024
  O         1.01528         -0.00000         2.21448
  H        -0.93469         -0.00000        -0.30994
  H         0.42420          0.75181        -0.34007
  H         0.42420         -0.75180        -0.34007
6
 step=         451     theta[rad]=           4.7229
  C        -0.00144         -0.00000        -0.02186
  C         0.08648          0.00000         1.47024
  O         1.01528         -0.00000         2.21448
  H        -0.93359         -0.00000        -0.30961
  H         0.42341          0.75041        -0.33948
  H         0.42341         -0.75041        -0.33948
6
 step=         452     theta[rad]=           4.7333
  C        -0.00877          0.00000         0.00234
  C         0.08608          0.00000         1.47045
  O         1.01529         -0.00000         2.21424
  H        -1.14307          0.00000        -0.37101
  H         0.57412          1.01496        -0.45234
  H         0.57412         -1.01496        -0.45234
6
 step=         453     theta[rad]=           4.7438
  C        -0.00911          0.00000         0.00348
  C         0.08606          0.00000         1.47046
  O         1.01529         -0.00000         2.21423
  H        -1.15289          0.00000        -0.37389
  H         0.58118          1.02735        -0.45763
  H         0.58118         -1.02736        -0.45763
6
 step=         454     theta[rad]=           4.7543
  C        -0.00189         -0.00000        -0.02039
  C         0.08645          0.00000         1.47026
  O         1.01528         -0.00000         2.21446
  H        -0.94634         -0.00000        -0.31335
  H         0.43258          0.76651        -0.34635
  H         0.43258         -0.76651        -0.34635
6
 step=         455     theta[rad]=           4.7647
  C        -0.00095         -0.00000        -0.02350
  C         0.08650          0.00000         1.47023
  O         1.01528         -0.00000         2.21449
  H        -0.91943         -0.00000        -0.30546
  H         0.41323          0.73253        -0.33185
  H         0.41322         -0.73253        -0.33185
6
 step=         456     theta[rad]=           4.7752
  C        -0.00799          0.00000        -0.00023
  C         0.08612          0.00000         1.47043
  O         1.01528         -0.00000         2.21427
  H        -1.12080          0.00000        -0.36448
  H         0.55810          0.98683        -0.44035
  H         0.55810         -0.98684        -0.44035
6
 step=         457     theta[rad]=           4.7857
  C        -0.00980          0.00000         0.00575
  C         0.08602          0.00000         1.47048
  O         1.01529         -0.00000         2.21421
  H        -1.17253          0.00000        -0.37964
  H         0.59531          1.05216        -0.46822
  H         0.59531         -1.05216        -0.46822
6
 step=         458     theta[rad]=           4.7962
  C        -0.00311         -0.00000        -0.01637
  C         0.08639          0.00000         1.47029
  O         1.01528         -0.00000         2.21442
  H        -0.98110         -0.00000        -0.32354
  H         0.45759          0.81042        -0.36508
  H         0.45759         -0.81041        -0.36508
6
 step=         459     theta[rad]=           4.8066
  C        -0.00020         -0.00000        -0.02596
  C         0.08654          0.00000         1.47021
  O         1.01528         -0.00000         2.21452
  H        -0.89817         -0.00000        -0.29923
  H         0.39792          0.70568        -0.32039
  H         0.39792         -0.70567        -0.32039
6
 step=         460     theta[rad]=           4.8171
  C        -0.00627          0.00000        -0.00590
  C         0.08622          0.00000         1.47038
  O         1.01528         -0.00000         2.21432
  H        -1.07170          0.00000        -0.35009
  H         0.52277          0.92483        -0.41389
  H         0.52277         -0.92483        -0.41389
6
 step=         461     theta[rad]=           4.8276
  C        -0.01040          0.00000         0.00773
  C         0.08599          0.00000         1.47049
  O         1.01529         -0.00000         2.21419
  H        -1.18964          0.00000        -0.38466
  H         0.60762          1.07377        -0.47743
  H         0.60762         -1.07377        -0.47744
6
 step=         462     theta[rad]=           4.8381
  C        -0.00535          0.00000        -0.00896
  C         0.08626          0.00000         1.47035
  O         1.01528         -0.00000         2.21435
  H        -1.04527         -0.00000        -0.34235
  H         0.50376          0.89145        -0.39965
  H         0.50376         -0.89145        -0.39965
6
 step=         463     theta[rad]=           4.8485
  C        -0.00002         -0.00000        -0.02656
  C         0.08655          0.00000         1.47020
  O         1.01528         -0.00000         2.21452
  H        -0.89293         -0.00000        -0.29770
  H         0.39416          0.69907        -0.31757
  H         0.39416         -0.69907        -0.31757
6
 step=         464     theta[rad]=           4.8590
  C        -0.00357         -0.00000        -0.01485
  C         0.08636          0.00000         1.47030
  O         1.01528         -0.00000         2.21441
  H        -0.99430         -0.00000        -0.32741
  H         0.46709          0.82708        -0.37219
  H         0.46709         -0.82708        -0.37219
6
 step=         465     theta[rad]=           4.8695
  C        -0.00985          0.00000         0.00592
  C         0.08602          0.00000         1.47048
  O         1.01529         -0.00000         2.21421
  H        -1.17398          0.00000        -0.38007
  H         0.59636          1.05400        -0.46900
  H         0.59636         -1.05400        -0.46900
6
 step=         466     theta[rad]=           4.8799
  C        -0.00831          0.00000         0.00082
  C         0.08611          0.00000         1.47044
  O         1.01529         -0.00000         2.21426
  H        -1.12984          0.00000        -0.36713
  H         0.56460          0.99826        -0.44522
  H         0.56460         -0.99826        -0.44522
6
 step=         467     theta[rad]=           4.8904
  C        -0.00160         -0.00000        -0.02134
  C         0.08647          0.00000         1.47025
  O         1.01528         -0.00000         2.21447
  H        -0.93807         -0.00000        -0.31093
  H         0.42663          0.75607        -0.34189
  H         0.42663         -0.75607        -0.34189
6
 step=         468     theta[rad]=           4.9009
  C        -0.00076         -0.00000        -0.02411
  C         0.08651          0.00000         1.47022
  O         1.01528         -0.00000         2.21450
  H        -0.91415         -0.00000        -0.30391
  H         0.40942          0.72586        -0.32900
  H         0.40942         -0.72586        -0.32900
6
 step=         469     theta[rad]=           4.9114
  C        -0.00706          0.00000        -0.00330
  C         0.08617          0.00000         1.47040
  O         1.01528         -0.00000         2.21430
  H        -1.09423          0.00000        -0.35670
  H         0.53898          0.95328        -0.42603
  H         0.53898         -0.95328        -0.42603
6
 step=         470     theta[rad]=           4.9218
  C        -0.01036          0.00000         0.00759
  C         0.08599          0.00000         1.47049
  O         1.01529         -0.00000         2.21419
  H        -1.18846          0.00000        -0.38431
  H         0.60677          1.07228        -0.47680
  H         0.60678         -1.07228        -0.47680
6
 step=         471     theta[rad]=           4.9323
  C        -0.00551          0.00000        -0.00841
  C         0.08626          0.00000         1.47036
  O         1.01528         -0.00000         2.21435
  H        -1.04997          0.00000        -0.34372
  H         0.50714          0.89739        -0.40218
  H         0.50714         -0.89739        -0.40218
6
 step=         472     theta[rad]=           4.9428
  C        -0.00017         -0.00000        -0.02606
  C         0.08654          0.00000         1.47021
  O         1.01528         -0.00000         2.21452
  H        -0.89723         -0.00000        -0.29896
  H         0.39725          0.70449        -0.31989
  H         0.39725         -0.70449        -0.31989
6
 step=         473     theta[rad]=           4.9532
  C        -0.00252         -0.00000        -0.01831
  C         0.08642          0.00000         1.47027
  O         1.01528         -0.00000         2.21444
  H        -0.96435         -0.00000        -0.31863
  H         0.44554          0.78926        -0.35605
  H         0.44554         -0.78926        -0.35605
6
 step=         474     theta[rad]=           4.9637
  C        -0.00889          0.00000         0.00273
  C         0.08607          0.00000         1.47045
  O         1.01529         -0.00000         2.21424
  H        -1.14645          0.00000        -0.37200
  H         0.57655          1.01922        -0.45416
  H         0.57655         -1.01922        -0.45416
6
 step=         475     theta[rad]=           4.9742
  C        -0.00972          0.00000         0.00548
  C         0.08603          0.00000         1.47048
  O         1.01529         -0.00000         2.21421
  H        -1.17024          0.00000        -0.37897
  H         0.59367          1.04927        -0.46698
  H         0.59367         -1.04928        -0.46698
6
 step=         476     theta[rad]=           4.9847
  C        -0.00388         -0.00000        -0.01380
  C         0.08634          0.00000         1.47031
  O         1.01528         -0.00000         2.21440
  H        -1.00333         -0.00000        -0.33005
  H         0.47359          0.83849        -0.37706
  H         0.47358         -0.83849        -0.37706
6
 step=         477     theta[rad]=           4.9951
  C         0.00005         -0.00000        -0.02679
  C         0.08656          0.00000         1.47020
  O         1.01528         -0.00000         2.21453
  H        -0.89091         -0.00000        -0.29710
  H         0.39270          0.69651        -0.31649
  H         0.39270         -0.69651        -0.31648
6
 step=         478     theta[rad]=           5.0056
  C        -0.00351         -0.00000        -0.01502
  C         0.08636          0.00000         1.47030
  O         1.01528         -0.00000         2.21441
  H        -0.99281         -0.00000        -0.32697
  H         0.46602          0.82520        -0.37139
  H         0.46602         -0.82520        -0.37139
6
 step=         479     theta[rad]=           5.0161
  C        -0.00942          0.00000         0.00450
  C         0.08605          0.00000         1.47047
  O         1.01529         -0.00000         2.21422
  H        -1.16171          0.00000        -0.37647
  H         0.58753          1.03849        -0.46239
  H         0.58753         -1.03850        -0.46239
6
 step=         480     theta[rad]=           5.0265
  C        -0.00942          0.00000         0.00450
  C         0.08605          0.00000         1.47047
  O         1.01529         -0.00000         2.21422
  H        -1.16171          0.00000        -0.37647
  H         0.58753          1.03849        -0.46239
  H         0.58753         -1.03850        -0.46239
6
 step=         481     theta[rad]=           5.0370
  C        -0.00362         -0.00000        -0.01467
  C         0.08636          0.00000         1.47030
  O         1.01528         -0.00000         2.21441
  H        -0.99579         -0.00000        -0.32784
  H         0.46816          0.82897        -0.37299
  H         0.46816         -0.82897        -0.37299
6
 step=         482     theta[rad]=           5.0475
  C         0.00005         -0.00000        -0.02679
  C         0.08656          0.00000         1.47020
  O         1.01528         -0.00000         2.21453
  H        -0.89091         -0.00000        -0.29710
  H         0.39270          0.69651        -0.31649
  H         0.39270         -0.69651        -0.31648
6
 step=         483     theta[rad]=           5.0580
  C        -0.00326         -0.00000        -0.01587
  C         0.08638          0.00000         1.47029
  O         1.01528         -0.00000         2.21442
  H        -0.98545         -0.00000        -0.32481
  H         0.46072          0.81590        -0.36742
  H         0.46072         -0.81590        -0.36742
6
 step=         484     theta[rad]=           5.0684
  C        -0.00908          0.00000         0.00336
  C         0.08606          0.00000         1.47046
  O         1.01529         -0.00000         2.21423
  H        -1.15184          0.00000        -0.37358
  H         0.58043          1.02604        -0.45707
  H         0.58043         -1.02604        -0.45707
6
 step=         485     theta[rad]=           5.0789
  C        -0.00985          0.00000         0.00592
  C         0.08602          0.00000         1.47048
  O         1.01529         -0.00000         2.21421
  H        -1.17398          0.00000        -0.38007
  H         0.59636          1.05400        -0.46900
  H         0.59636         -1.05400        -0.46900
6
 step=         486     theta[rad]=           5.0894
  C        -0.00469          0.00000        -0.01113
  C         0.08630          0.00000         1.47033
  O         1.01528         -0.00000         2.21437
  H        -1.02648         -0.00000        -0.33684
  H         0.49024          0.86772        -0.38953
  H         0.49024         -0.86772        -0.38953
6
 step=         487     theta[rad]=           5.0999
  C        -0.00017         -0.00000        -0.02606
  C         0.08654          0.00000         1.47021
  O         1.01528         -0.00000         2.21452
  H        -0.89723         -0.00000        -0.29896
  H         0.39725          0.70449        -0.31989
  H         0.39725         -0.70449        -0.31989
6
 step=         488     theta[rad]=           5.1103
  C        -0.00185         -0.00000        -0.02053
  C         0.08645          0.00000         1.47025
  O         1.01528         -0.00000         2.21446
  H        -0.94513         -0.00000        -0.31299
  H         0.43171          0.76498        -0.34570
  H         0.43171         -0.76498        -0.34570
6
 step=         489     theta[rad]=           5.1208
  C        -0.00756          0.00000        -0.00164
  C         0.08615          0.00000         1.47042
  O         1.01528         -0.00000         2.21428
  H        -1.10855          0.00000        -0.36089
  H         0.54928          0.97136        -0.43374
  H         0.54928         -0.97136        -0.43374
6
 step=         490     theta[rad]=           5.1313
  C        -0.01042          0.00000         0.00778
  C         0.08599          0.00000         1.47050
  O         1.01529         -0.00000         2.21419
  H        -1.19010          0.00000        -0.38479
  H         0.60795          1.07435        -0.47768
  H         0.60795         -1.07435        -0.47768
6
 step=         491     theta[rad]=           5.1417
  C        -0.00711          0.00000        -0.00313
  C         0.08617          0.00000         1.47040
  O         1.01528         -0.00000         2.21429
  H        -1.09569          0.00000        -0.35712
  H         0.54003          0.95512        -0.42682
  H         0.54003         -0.95512        -0.42682
6
 step=         492     theta[rad]=           5.1522
  C        -0.00160         -0.00000        -0.02134
  C         0.08647          0.00000         1.47025
  O         1.01528         -0.00000         2.21447
  H        -0.93807         -0.00000        -0.31093
  H         0.42663          0.75607        -0.34189
  H         0.42663         -0.75607        -0.34189
6
 step=         493     theta[rad]=           5.1627
  C        -0.00019         -0.00000        -0.02601
  C         0.08654          0.00000         1.47021
  O         1.01528         -0.00000         2.21452
  H        -0.89769         -0.00000        -0.29909
  H         0.39758          0.70507        -0.32014
  H         0.39758         -0.70507        -0.32014
6
 step=         494     theta[rad]=           5.1732
  C        -0.00437         -0.00000        -0.01221
  C         0.08632          0.00000         1.47033
  O         1.01528         -0.00000         2.21438
  H        -1.01715         -0.00000        -0.33410
  H         0.48352          0.85593        -0.38450
  H         0.48352         -0.85593        -0.38450
6
 step=         495     theta[rad]=           5.1836
  C        -0.00942          0.00000         0.00450
  C         0.08605          0.00000         1.47047
  O         1.01529         -0.00000         2.21422
  H        -1.16171          0.00000        -0.37647
  H         0.58753          1.03849        -0.46239
  H         0.58753         -1.03850        -0.46239
6
 step=         496     theta[rad]=           5.1941
  C        -0.00988          0.00000         0.00600
  C         0.08602          0.00000         1.47048
  O         1.01529         -0.00000         2.21421
  H        -1.17469          0.00000        -0.38028
  H         0.59686          1.05489        -0.46938
  H         0.59687         -1.05489        -0.46938
6
 step=         497     theta[rad]=           5.2046
  C        -0.00535          0.00000        -0.00896
  C         0.08626          0.00000         1.47035
  O         1.01528         -0.00000         2.21435
  H        -1.04527         -0.00000        -0.34235
  H         0.50376          0.89145        -0.39965
  H         0.50376         -0.89145        -0.39965
6
 step=         498     theta[rad]=           5.2150
  C        -0.00068         -0.00000        -0.02439
  C         0.08652          0.00000         1.47022
  O         1.01528         -0.00000         2.21450
  H        -0.91169         -0.00000        -0.30319
  H         0.40765          0.72275        -0.32768
  H         0.40765         -0.72275        -0.32768
6
 step=         499     theta[rad]=           5.2255
  C        -0.00065         -0.00000        -0.02448
  C         0.08652          0.00000         1.47022
  O         1.01528         -0.00000         2.21450
  H        -0.91090         -0.00000        -0.30296
  H         0.40708          0.72175        -0.32725
  H         0.40708         -0.72175        -0.32725
6
 step=         500     theta[rad]=           5.2360
  C        -0.00519          0.00000        -0.00950
  C         0.08627          0.00000         1.47035
  O         1.01528         -0.00000         2.21436
  H        -1.04057         -0.00000        -0.34097
  H         0.50038          0.88551        -0.39712
  H         0.50038         -0.88551        -0.39712
6
 step=         501     theta[rad]=           5.2465
  C        -0.00969          0.00000         0.00539
  C         0.08603          0.00000         1.47048
  O         1.01529         -0.00000         2.21421
  H        -1.16945          0.00000        -0.37874
  H         0.59310          1.04827        -0.46656
  H         0.59310         -1.04828        -0.46656
6
 step=         502     theta[rad]=           5.2569
  C        -0.00980          0.00000         0.00575
  C         0.08602          0.00000         1.47048
  O         1.01529         -0.00000         2.21421
  H        -1.17253          0.00000        -0.37964
  H         0.59531          1.05216        -0.46822
  H         0.59531         -1.05216        -0.46822
6
 step=         503     theta[rad]=           5.2674
  C        -0.00551          0.00000        -0.00841
  C         0.08626          0.00000         1.47036
  O         1.01528         -0.00000         2.21435
  H        -1.04997          0.00000        -0.34372
  H         0.50714          0.89739        -0.40218
  H         0.50714         -0.89739        -0.40218
6
 step=         504     theta[rad]=           5.2779
  C        -0.00095         -0.00000        -0.02350
  C         0.08650          0.00000         1.47023
  O         1.01528         -0.00000         2.21449
  H        -0.91943         -0.00000        -0.30546
  H         0.41323          0.73253        -0.33185
  H         0.41322         -0.73253        -0.33185
6
 step=         505     theta[rad]=           5.2883
  C        -0.00030         -0.00000        -0.02565
  C         0.08654          0.00000         1.47021
  O         1.01528         -0.00000         2.21451
  H        -0.90078         -0.00000        -0.30000
  H         0.39981          0.70898        -0.32180
  H         0.39980         -0.70898        -0.32180
6
 step=         506     theta[rad]=           5.2988
  C        -0.00404         -0.00000        -0.01327
  C         0.08634          0.00000         1.47032
  O         1.01528         -0.00000         2.21439
  H        -1.00791         -0.00000        -0.33140
  H         0.47688          0.84426        -0.37952
  H         0.47688         -0.84426        -0.37952
6
 step=         507     theta[rad]=           5.3093
  C        -0.00877          0.00000         0.00234
  C         0.08608          0.00000         1.47045
  O         1.01529         -0.00000         2.21424
  H        -1.14307          0.00000        -0.37101
  H         0.57412          1.01496        -0.45234
  H         0.57412         -1.01496        -0.45234
6
 step=         508     theta[rad]=           5.3198
  C        -0.01037          0.00000         0.00762
  C         0.08599          0.00000         1.47049
  O         1.01529         -0.00000         2.21419
  H        -1.18870          0.00000        -0.38438
  H         0.60694          1.07258        -0.47693
  H         0.60695         -1.07258        -0.47693
6
 step=         509     theta[rad]=           5.3302
  C        -0.00756          0.00000        -0.00164
  C         0.08615          0.00000         1.47042
  O         1.01528         -0.00000         2.21428
  H        -1.10855          0.00000        -0.36089
  H         0.54928          0.97136        -0.43374
  H         0.54928         -0.97136        -0.43374
6
 step=         510     theta[rad]=           5.3407
  C        -0.00281         -0.00000        -0.01736
  C         0.08640          0.00000         1.47028
  O         1.01528         -0.00000         2.21443
  H        -0.97259         -0.00000        -0.32104
  H         0.45147          0.79967        -0.36049
  H         0.45147         -0.79967        -0.36049
6
 step=         511     theta[rad]=           5.3512
  C        -0.00002         -0.00000        -0.02656
  C         0.08655          0.00000         1.47020
  O         1.01528         -0.00000         2.21452
  H        -0.89293         -0.00000        -0.29770
  H         0.39416          0.69907        -0.31757
  H         0.39416         -0.69907        -0.31757
6
 step=         512     theta[rad]=           5.3617
  C        -0.00137         -0.00000        -0.02211
  C         0.08648          0.00000         1.47024
  O         1.01528         -0.00000         2.21448
  H        -0.93142         -0.00000        -0.30898
  H         0.42185          0.74767        -0.33831
  H         0.42185         -0.74767        -0.33831
6
 step=         513     theta[rad]=           5.3721
  C        -0.00568          0.00000        -0.00787
  C         0.08625          0.00000         1.47036
  O         1.01528         -0.00000         2.21434
  H        -1.05466          0.00000        -0.34510
  H         0.51051          0.90331        -0.40471
  H         0.51051         -0.90331        -0.40471
6
 step=         514     theta[rad]=           5.3826
  C        -0.00958          0.00000         0.00501
  C         0.08604          0.00000         1.47047
  O         1.01529         -0.00000         2.21421
  H        -1.16615          0.00000        -0.37777
  H         0.59072          1.04410        -0.46478
  H         0.59072         -1.04410        -0.46478
6
 step=         515     theta[rad]=           5.3931
  C        -0.01017          0.00000         0.00696
  C         0.08600          0.00000         1.47049
  O         1.01529         -0.00000         2.21420
  H        -1.18298          0.00000        -0.38271
  H         0.60283          1.06535        -0.47384
  H         0.60283         -1.06535        -0.47384
6
 step=         516     theta[rad]=           5.4035
  C        -0.00711          0.00000        -0.00313
  C         0.08617          0.00000         1.47040
  O         1.01528         -0.00000         2.21429
  H        -1.09569          0.00000        -0.35712
  H         0.54003          0.95512        -0.42682
  H         0.54003         -0.95512        -0.42682
6
 step=         517     theta[rad]=           5.4140
  C        -0.00271         -0.00000        -0.01768
  C         0.08641          0.00000         1.47028
  O         1.01528         -0.00000         2.21444
  H        -0.96981         -0.00000        -0.32023
  H         0.44947          0.79616        -0.35900
  H         0.44947         -0.79616        -0.35900
6
 step=         518     theta[rad]=           5.4245
  C        -0.00007         -0.00000        -0.02639
  C         0.08655          0.00000         1.47020
  O         1.01528         -0.00000         2.21452
  H        -0.89444         -0.00000        -0.29814
  H         0.39525          0.70098        -0.31839
  H         0.39524         -0.70097        -0.31839
6
 step=         519     theta[rad]=           5.4350
  C        -0.00095         -0.00000        -0.02350
  C         0.08650          0.00000         1.47023
  O         1.01528         -0.00000         2.21449
  H        -0.91943         -0.00000        -0.30546
  H         0.41323          0.73253        -0.33185
  H         0.41322         -0.73253        -0.33185
6
 step=         520     theta[rad]=           5.4454
  C        -0.00464         -0.00000        -0.01131
  C         0.08630          0.00000         1.47033
  O         1.01528         -0.00000         2.21437
  H        -1.02492         -0.00000        -0.33638
  H         0.48912          0.86575        -0.38869
  H         0.48911         -0.86575        -0.38869
6
 step=         521     theta[rad]=           5.4559
  C        -0.00865          0.00000         0.00194
  C         0.08609          0.00000         1.47045
  O         1.01529         -0.00000         2.21424
  H        -1.13959          0.00000        -0.36999
  H         0.57161          1.01056        -0.45047
  H         0.57162         -1.01056        -0.45047
6
 step=         522     theta[rad]=           5.4664
  C        -0.01042          0.00000         0.00779
  C         0.08599          0.00000         1.47050
  O         1.01529         -0.00000         2.21419
  H        -1.19023          0.00000        -0.38483
  H         0.60805          1.07451        -0.47775
  H         0.60805         -1.07452        -0.47775
6
 step=         523     theta[rad]=           5.4768
  C        -0.00893          0.00000         0.00286
  C         0.08607          0.00000         1.47045
  O         1.01529         -0.00000         2.21424
  H        -1.14755          0.00000        -0.37232
  H         0.57734          1.02062        -0.45476
  H         0.57734         -1.02062        -0.45476
6
 step=         524     theta[rad]=           5.4873
  C        -0.00519          0.00000        -0.00950
  C         0.08627          0.00000         1.47035
  O         1.01528         -0.00000         2.21436
  H        -1.04057         -0.00000        -0.34097
  H         0.50038          0.88551        -0.39712
  H         0.50038         -0.88551        -0.39712
6
 step=         525     theta[rad]=           5.4978
  C        -0.00148         -0.00000        -0.02173
  C         0.08647          0.00000         1.47024
  O         1.01528         -0.00000         2.21448
  H        -0.93469         -0.00000        -0.30994
  H         0.42420          0.75181        -0.34007
  H         0.42420         -0.75180        -0.34007
6
 step=         526     theta[rad]=           5.5083
  C         0.00005         -0.00000        -0.02680
  C         0.08656          0.00000         1.47020
  O         1.01528         -0.00000         2.21453
  H        -0.89084         -0.00000        -0.29709
  H         0.39266          0.69643        -0.31645
  H         0.39266         -0.69643        -0.31645
6
 step=         527     theta[rad]=           5.5187
  C        -0.00137         -0.00000        -0.02211
  C         0.08648          0.00000         1.47024
  O         1.01528         -0.00000         2.21448
  H        -0.93142         -0.00000        -0.30898
  H         0.42185          0.74767        -0.33831
  H         0.42185         -0.74767        -0.33831
6
 step=         528     theta[rad]=           5.5292
  C        -0.00486          0.00000        -0.01059
  C         0.08629          0.00000         1.47034
  O         1.01528         -0.00000         2.21437
  H        -1.03117         -0.00000        -0.33821
  H         0.49361          0.87364        -0.39205
  H         0.49361         -0.87364        -0.39205
6
 step=         529     theta[rad]=           5.5397
  C        -0.00848          0.00000         0.00139
  C         0.08610          0.00000         1.47044
  O         1.01529         -0.00000         2.21425
  H        -1.13480          0.00000        -0.36859
  H         0.56817          1.00451        -0.44789
  H         0.56817         -1.00452        -0.44789
6
 step=         530     theta[rad]=           5.5501
  C        -0.01036          0.00000         0.00759
  C         0.08599          0.00000         1.47049
  O         1.01529         -0.00000         2.21419
  H        -1.18846          0.00000        -0.38431
  H         0.60677          1.07228        -0.47680
  H         0.60678         -1.07228        -0.47680
6
 step=         531     theta[rad]=           5.5606
  C        -0.00961          0.00000         0.00511
  C         0.08604          0.00000         1.47047
  O         1.01529         -0.00000         2.21421
  H        -1.16699          0.00000        -0.37802
  H         0.59133          1.04517        -0.46523
  H         0.59133         -1.04517        -0.46523
6
 step=         532     theta[rad]=           5.5711
  C        -0.00670          0.00000        -0.00450
  C         0.08619          0.00000         1.47039
  O         1.01528         -0.00000         2.21431
  H        -1.08385          0.00000        -0.35365
  H         0.53151          0.94017        -0.42044
  H         0.53151         -0.94017        -0.42044
6
 step=         533     theta[rad]=           5.5816
  C        -0.00311         -0.00000        -0.01637
  C         0.08639          0.00000         1.47029
  O         1.01528         -0.00000         2.21442
  H        -0.98110         -0.00000        -0.32354
  H         0.45759          0.81042        -0.36508
  H         0.45759         -0.81041        -0.36508
6
 step=         534     theta[rad]=           5.5920
  C        -0.00052         -0.00000        -0.02492
  C         0.08653          0.00000         1.47022
  O         1.01528         -0.00000         2.21451
  H        -0.90716         -0.00000        -0.30187
  H         0.40439          0.71703        -0.32524
  H         0.40439         -0.71703        -0.32524
6
 step=         535     theta[rad]=           5.6025
  C        -0.00006         -0.00000        -0.02642
  C         0.08655          0.00000         1.47020
  O         1.01528         -0.00000         2.21452
  H        -0.89411         -0.00000        -0.29804
  H         0.39501          0.70055        -0.31821
  H         0.39500         -0.70055        -0.31821
6
 step=         536     theta[rad]=           5.6130
  C        -0.00185         -0.00000        -0.02053
  C         0.08645          0.00000         1.47025
  O         1.01528         -0.00000         2.21446
  H        -0.94513         -0.00000        -0.31299
  H         0.43171          0.76498        -0.34570
  H         0.43171         -0.76498        -0.34570
6
 step=         537     theta[rad]=           5.6235
  C        -0.00502          0.00000        -0.01004
  C         0.08628          0.00000         1.47034
  O         1.01528         -0.00000         2.21436
  H        -1.03587         -0.00000        -0.33959
  H         0.49699          0.87957        -0.39458
  H         0.49699         -0.87957        -0.39458
6
 step=         538     theta[rad]=           5.6339
  C        -0.00822          0.00000         0.00052
  C         0.08611          0.00000         1.47043
  O         1.01529         -0.00000         2.21426
  H        -1.12731          0.00000        -0.36639
  H         0.56278          0.99505        -0.44385
  H         0.56278         -0.99505        -0.44385
6
 step=         539     theta[rad]=           5.6444
  C        -0.01017          0.00000         0.00696
  C         0.08600          0.00000         1.47049
  O         1.01529         -0.00000         2.21420
  H        -1.18298          0.00000        -0.38271
  H         0.60283          1.06535        -0.47384
  H         0.60283         -1.06535        -0.47384
6
 step=         540     theta[rad]=           5.6549
  C        -0.01017          0.00000         0.00696
  C         0.08600          0.00000         1.47049
  O         1.01529         -0.00000         2.21420
  H        -1.18298          0.00000        -0.38271
  H         0.60283          1.06535        -0.47384
  H         0.60283         -1.06535        -0.47384
6
 step=         541     theta[rad]=           5.6653
  C        -0.00831          0.00000         0.00082
  C         0.08611          0.00000         1.47044
  O         1.01529         -0.00000         2.21426
  H        -1.12984          0.00000        -0.36713
  H         0.56460          0.99826        -0.44522
  H         0.56460         -0.99826        -0.44522
6
 step=         542     theta[rad]=           5.6758
  C        -0.00535          0.00000        -0.00896
  C         0.08626          0.00000         1.47035
  O         1.01528         -0.00000         2.21435
  H        -1.04527         -0.00000        -0.34235
  H         0.50376          0.89145        -0.39965
  H         0.50376         -0.89145        -0.39965
6
 step=         543     theta[rad]=           5.6863
  C        -0.00238         -0.00000        -0.01877
  C         0.08643          0.00000         1.47027
  O         1.01528         -0.00000         2.21445
  H        -0.96034         -0.00000        -0.31745
  H         0.44265          0.78419        -0.35389
  H         0.44265         -0.78419        -0.35389
6
 step=         544     theta[rad]=           5.6968
  C        -0.00040         -0.00000        -0.02531
  C         0.08653          0.00000         1.47021
  O         1.01528         -0.00000         2.21451
  H        -0.90378         -0.00000        -0.30088
  H         0.40197          0.71277        -0.32342
  H         0.40196         -0.71277        -0.32342
6
 step=         545     theta[rad]=           5.7072
  C        -0.00001         -0.00000        -0.02659
  C         0.08655          0.00000         1.47020
  O         1.01528         -0.00000         2.21452
  H        -0.89268         -0.00000        -0.29762
  H         0.39398          0.69875        -0.31744
  H         0.39398         -0.69875        -0.31744
6
 step=         546     theta[rad]=           5.7177
  C        -0.00126         -0.00000        -0.02248
  C         0.08649          0.00000         1.47024
  O         1.01528         -0.00000         2.21448
  H        -0.92825         -0.00000        -0.30805
  H         0.41957          0.74367        -0.33660
  H         0.41957         -0.74367        -0.33660
6
 step=         547     theta[rad]=           5.7282
  C        -0.00367         -0.00000        -0.01450
  C         0.08636          0.00000         1.47031
  O         1.01528         -0.00000         2.21441
  H        -0.99729         -0.00000        -0.32828
  H         0.46924          0.83086        -0.37380
  H         0.46924         -0.83086        -0.37380
6
 step=         548     theta[rad]=           5.7386
  C        -0.00649          0.00000        -0.00520
  C         0.08620          0.00000         1.47039
  O         1.01528         -0.00000         2.21431
  H        -1.07781          0.00000        -0.35188
  H         0.52716          0.93254        -0.41718
  H         0.52717         -0.93254        -0.41718
6
 step=         549     theta[rad]=           5.7491
  C        -0.00889          0.00000         0.00273
  C         0.08607          0.00000         1.47045
  O         1.01529         -0.00000         2.21424
  H        -1.14645          0.00000        -0.37200
  H         0.57655          1.01922        -0.45416
  H         0.57655         -1.01922        -0.45416
6
 step=         550     theta[rad]=           5.7596
  C        -0.01025          0.00000         0.00721
  C         0.08600          0.00000         1.47049
  O         1.01529         -0.00000         2.21419
  H        -1.18520          0.00000        -0.38336
  H         0.60443          1.06816        -0.47504
  H         0.60443         -1.06817        -0.47504
6
 step=         551     theta[rad]=           5.7701
  C        -0.01026          0.00000         0.00726
  C         0.08600          0.00000         1.47049
  O         1.01529         -0.00000         2.21419
  H        -1.18560          0.00000        -0.38348
  H         0.60471          1.06867        -0.47526
  H         0.60472         -1.06867        -0.47526
6
 step=         552     theta[rad]=           5.7805
  C        -0.00900          0.00000         0.00311
  C         0.08607          0.00000         1.47046
  O         1.01529         -0.00000         2.21423
  H        -1.14972          0.00000        -0.37296
  H         0.57890          1.02336        -0.45593
  H         0.57890         -1.02336        -0.45593
6
 step=         553     theta[rad]=           5.7910
  C        -0.00686          0.00000        -0.00398
  C         0.08618          0.00000         1.47040
  O         1.01528         -0.00000         2.21430
  H        -1.08833          0.00000        -0.35497
  H         0.53473          0.94583        -0.42285
  H         0.53474         -0.94583        -0.42285
6
 step=         554     theta[rad]=           5.8015
  C        -0.00437         -0.00000        -0.01221
  C         0.08632          0.00000         1.47033
  O         1.01528         -0.00000         2.21438
  H        -1.01715         -0.00000        -0.33410
  H         0.48352          0.85593        -0.38450
  H         0.48352         -0.85593        -0.38450
6
 step=         555     theta[rad]=           5.8119
  C        -0.00211         -0.00000        -0.01967
  C         0.08644          0.00000         1.47026
  O         1.01528         -0.00000         2.21446
  H        -0.95256         -0.00000        -0.31517
  H         0.43706          0.77437        -0.34970
  H         0.43706         -0.77437        -0.34970
6
 step=         556     theta[rad]=           5.8224
  C        -0.00054         -0.00000        -0.02483
  C         0.08652          0.00000         1.47022
  O         1.01528         -0.00000         2.21451
  H        -0.90788         -0.00000        -0.30208
  H         0.40491          0.71794        -0.32563
  H         0.40491         -0.71794        -0.32563
6
 step=         557     theta[rad]=           5.8329
  C         0.00005         -0.00000        -0.02679
  C         0.08656          0.00000         1.47020
  O         1.01528         -0.00000         2.21453
  H        -0.89091         -0.00000        -0.29710
  H         0.39270          0.69651        -0.31649
  H         0.39270         -0.69651        -0.31648
6
 step=         558     theta[rad]=           5.8434
  C        -0.00038         -0.00000        -0.02538
  C         0.08653          0.00000         1.47021
  O         1.01528         -0.00000         2.21451
  H        -0.90315         -0.00000        -0.30069
  H         0.40151          0.71197        -0.32308
  H         0.40151         -0.71197        -0.32308
6
 step=         559     theta[rad]=           5.8538
  C        -0.00168         -0.00000        -0.02108
  C         0.08646          0.00000         1.47025
  O         1.01528         -0.00000         2.21447
  H        -0.94038         -0.00000        -0.31160
  H         0.42829          0.75899        -0.34314
  H         0.42829         -0.75898        -0.34314
6
 step=         560     theta[rad]=           5.8643
  C        -0.00357         -0.00000        -0.01485
  C         0.08636          0.00000         1.47030
  O         1.01528         -0.00000         2.21441
  H        -0.99430         -0.00000        -0.32741
  H         0.46709          0.82708        -0.37219
  H         0.46709         -0.82708        -0.37219
6
 step=         561     theta[rad]=           5.8748
  C        -0.00568          0.00000        -0.00787
  C         0.08625          0.00000         1.47036
  O         1.01528         -0.00000         2.21434
  H        -1.05466          0.00000        -0.34510
  H         0.51051          0.90331        -0.40471
  H         0.51051         -0.90331        -0.40471
6
 step=         562     theta[rad]=           5.8853
  C        -0.00766          0.00000        -0.00132
  C         0.08614          0.00000         1.47042
  O         1.01528         -0.00000         2.21428
  H        -1.11133          0.00000        -0.36171
  H         0.55128          0.97487        -0.43524
  H         0.55128         -0.97487        -0.43524
6
 step=         563     theta[rad]=           5.8957
  C        -0.00922          0.00000         0.00383
  C         0.08606          0.00000         1.47046
  O         1.01529         -0.00000         2.21423
  H        -1.15594          0.00000        -0.37478
  H         0.58338          1.03121        -0.45928
  H         0.58338         -1.03121        -0.45928
6
 step=         564     theta[rad]=           5.9062
  C        -0.01017          0.00000         0.00696
  C         0.08600          0.00000         1.47049
  O         1.01529         -0.00000         2.21420
  H        -1.18298          0.00000        -0.38271
  H         0.60283          1.06535        -0.47384
  H         0.60283         -1.06535        -0.47384
6
 step=         565     theta[rad]=           5.9167
  C        -0.01042          0.00000         0.00778
  C         0.08599          0.00000         1.47050
  O         1.01529         -0.00000         2.21419
  H        -1.19010          0.00000        -0.38479
  H         0.60795          1.07435        -0.47768
  H         0.60795         -1.07435        -0.47768
6
 step=         566     theta[rad]=           5.9271
  C        -0.00999          0.00000         0.00638
  C         0.08601          0.00000         1.47048
  O         1.01529         -0.00000         2.21420
  H        -1.17799          0.00000        -0.38124
  H         0.59924          1.05905        -0.47116
  H         0.59924         -1.05906        -0.47116
6
 step=         567     theta[rad]=           5.9376
  C        -0.00900          0.00000         0.00311
  C         0.08607          0.00000         1.47046
  O         1.01529         -0.00000         2.21423
  H        -1.14972          0.00000        -0.37296
  H         0.57890          1.02336        -0.45593
  H         0.57890         -1.02336        -0.45593
6
 step=         568     theta[rad]=           5.9481
  C        -0.00761          0.00000        -0.00148
  C         0.08614          0.00000         1.47042
  O         1.01528         -0.00000         2.21428
  H        -1.10994          0.00000        -0.36130
  H         0.55028          0.97312        -0.43449
  H         0.55028         -0.97312        -0.43449
6
 step=         569     theta[rad]=           5.9586
  C        -0.00601          0.00000        -0.00679
  C         0.08623          0.00000         1.47037
  O         1.01528         -0.00000         2.21433
  H        -1.06399          0.00000        -0.34783
  H         0.51723          0.91509        -0.40974
  H         0.51723         -0.91509        -0.40974
6
 step=         570     theta[rad]=           5.9690
  C        -0.00437         -0.00000        -0.01221
  C         0.08632          0.00000         1.47033
  O         1.01528         -0.00000         2.21438
  H        -1.01715         -0.00000        -0.33410
  H         0.48352          0.85593        -0.38450
  H         0.48352         -0.85593        -0.38450
6
 step=         571     theta[rad]=           5.9795
  C        -0.00286         -0.00000        -0.01719
  C         0.08640          0.00000         1.47028
  O         1.01528         -0.00000         2.21443
  H        -0.97399         -0.00000        -0.32146
  H         0.45248          0.80144        -0.36125
  H         0.45248         -0.80144        -0.36125
6
 step=         572     theta[rad]=           5.9900
  C        -0.00160         -0.00000        -0.02134
  C         0.08647          0.00000         1.47025
  O         1.01528         -0.00000         2.21447
  H        -0.93807         -0.00000        -0.31093
  H         0.42663          0.75607        -0.34189
  H         0.42663         -0.75607        -0.34189
6
 step=         573     theta[rad]=           6.0004
  C        -0.00068         -0.00000        -0.02439
  C         0.08652          0.00000         1.47022
  O         1.01528         -0.00000         2.21450
  H        -0.91169         -0.00000        -0.30319
  H         0.40765          0.72275        -0.32768
  H         0.40765         -0.72275        -0.32768
6
 step=         574     theta[rad]=           6.0109
  C        -0.00013         -0.00000        -0.02621
  C         0.08655          0.00000         1.47021
  O         1.01528         -0.00000         2.21452
  H        -0.89594         -0.00000        -0.29858
  H         0.39632          0.70286        -0.31919
  H         0.39632         -0.70286        -0.31919
6
 step=         575     theta[rad]=           6.0214
  C         0.00005         -0.00000        -0.02680
  C         0.08656          0.00000         1.47020
  O         1.01528         -0.00000         2.21453
  H        -0.89084         -0.00000        -0.29708
  H         0.39265          0.69642        -0.31645
  H         0.39265         -0.69642        -0.31644
6
 step=         576     theta[rad]=           6.0319
  C        -0.00011         -0.00000        -0.02626
  C         0.08655          0.00000         1.47021
  O         1.01528         -0.00000         2.21452
  H        -0.89554         -0.00000        -0.29846
  H         0.39604          0.70236        -0.31898
  H         0.39603         -0.70236        -0.31898
6
 step=         577     theta[rad]=           6.0423
  C        -0.00057         -0.00000        -0.02475
  C         0.08652          0.00000         1.47022
  O         1.01528         -0.00000         2.21451
  H        -0.90861         -0.00000        -0.30229
  H         0.40544          0.71887        -0.32602
  H         0.40544         -0.71886        -0.32602
6
 step=         578     theta[rad]=           6.0528
  C        -0.00126         -0.00000        -0.02248
  C         0.08649          0.00000         1.47024
  O         1.01528         -0.00000         2.21448
  H        -0.92825         -0.00000        -0.30805
  H         0.41957          0.74367        -0.33660
  H         0.41957         -0.74367        -0.33660
6
 step=         579     theta[rad]=           6.0633
  C        -0.00211         -0.00000        -0.01967
  C         0.08644          0.00000         1.47026
  O         1.01528         -0.00000         2.21446
  H        -0.95256         -0.00000        -0.31517
  H         0.43706          0.77437        -0.34970
  H         0.43706         -0.77437        -0.34970
6
 step=         580     theta[rad]=           6.0737
  C        -0.00306         -0.00000        -0.01654
  C         0.08639          0.00000         1.47029
  O         1.01528         -0.00000         2.21443
  H        -0.97967         -0.00000        -0.32312
  H         0.45656          0.80860        -0.36431
  H         0.45656         -0.80860        -0.36431
6
 step=         581     theta[rad]=           6.0842
  C        -0.00404         -0.00000        -0.01327
  C         0.08634          0.00000         1.47032
  O         1.01528         -0.00000         2.21439
  H        -1.00791         -0.00000        -0.33140
  H         0.47688          0.84426        -0.37952
  H         0.47688         -0.84426        -0.37952
6
 step=         582     theta[rad]=           6.0947
  C        -0.00502          0.00000        -0.01004
  C         0.08628          0.00000         1.47034
  O         1.01528         -0.00000         2.21436
  H        -1.03587         -0.00000        -0.33959
  H         0.49699          0.87957        -0.39458
  H         0.49699         -0.87957        -0.39458
6
 step=         583     theta[rad]=           6.1052
  C        -0.00595          0.00000        -0.00697
  C         0.08623          0.00000         1.47037
  O         1.01528         -0.00000         2.21433
  H        -1.06244          0.00000        -0.34738
  H         0.51611          0.91314        -0.40890
  H         0.51611         -0.91314        -0.40890
6
 step=         584     theta[rad]=           6.1156
  C        -0.00680          0.00000        -0.00415
  C         0.08619          0.00000         1.47039
  O         1.01528         -0.00000         2.21430
  H        -1.08684          0.00000        -0.35453
  H         0.53366          0.94395        -0.42205
  H         0.53366         -0.94395        -0.42205
6
 step=         585     theta[rad]=           6.1261
  C        -0.00756          0.00000        -0.00164
  C         0.08615          0.00000         1.47042
  O         1.01528         -0.00000         2.21428
  H        -1.10855          0.00000        -0.36089
  H         0.54928          0.97136        -0.43374
  H         0.54928         -0.97136        -0.43374
6
 step=         586     theta[rad]=           6.1366
  C        -0.00822          0.00000         0.00052
  C         0.08611          0.00000         1.47043
  O         1.01529         -0.00000         2.21426
  H        -1.12731          0.00000        -0.36639
  H         0.56278          0.99505        -0.44385
  H         0.56278         -0.99505        -0.44385
6
 step=         587     theta[rad]=           6.1470
  C        -0.00877          0.00000         0.00234
  C         0.08608          0.00000         1.47045
  O         1.01529         -0.00000         2.21424
  H        -1.14307          0.00000        -0.37101
  H         0.57412          1.01496        -0.45234
  H         0.57412         -1.01496        -0.45234
6
 step=         588     theta[rad]=           6.1575
  C        -0.00922          0.00000         0.00383
  C         0.08606          0.00000         1.47046
  O         1.01529         -0.00000         2.21423
  H        -1.15594          0.00000        -0.37478
  H         0.58338          1.03121        -0.45928
  H         0.58338         -1.03121        -0.45928
6
 step=         589     theta[rad]=           6.1680
  C        -0.00958          0.00000         0.00501
  C         0.08604          0.00000         1.47047
  O         1.01529         -0.00000         2.21421
  H        -1.16615          0.00000        -0.37777
  H         0.59072          1.04410        -0.46478
  H         0.59072         -1.04410        -0.46478
6
 step=         590     theta[rad]=           6.1785
  C        -0.00985          0.00000         0.00592
  C         0.08602          0.00000         1.47048
  O         1.01529         -0.00000         2.21421
  H        -1.17398          0.00000        -0.38007
  H         0.59636          1.05400        -0.46900
  H         0.59636         -1.05400        -0.46900
6
 step=         591     theta[rad]=           6.1889
  C        -0.01006          0.00000         0.00659
  C         0.08601          0.00000         1.47049
  O         1.01529         -0.00000         2.21420
  H        -1.17979          0.00000        -0.38177
  H         0.60053          1.06133        -0.47213
  H         0.60054         -1.06133        -0.47213
6
 step=         592     theta[rad]=           6.1994
  C        -0.01020          0.00000         0.00706
  C         0.08600          0.00000         1.47049
  O         1.01529         -0.00000         2.21419
  H        -1.18391          0.00000        -0.38298
  H         0.60350          1.06654        -0.47435
  H         0.60350         -1.06654        -0.47435
6
 step=         593     theta[rad]=           6.2099
  C        -0.01030          0.00000         0.00739
  C         0.08600          0.00000         1.47049
  O         1.01529         -0.00000         2.21419
  H        -1.18670          0.00000        -0.38380
  H         0.60550          1.07005        -0.47585
  H         0.60551         -1.07006        -0.47585
6
 step=         594     theta[rad]=           6.2204
  C        -0.01036          0.00000         0.00759
  C         0.08599          0.00000         1.47049
  O         1.01529         -0.00000         2.21419
  H        -1.18846          0.00000        -0.38431
  H         0.60677          1.07228        -0.47680
  H         0.60678         -1.07228        -0.47680
6
 step=         595     theta[rad]=           6.2308
  C        -0.01039          0.00000         0.00771
  C         0.08599          0.00000         1.47049
  O         1.01529         -0.00000         2.21419
  H        -1.18948          0.00000        -0.38461
  H         0.60751          1.07357        -0.47735
  H         0.60751         -1.07357        -0.47735
6
 step=         596     theta[rad]=           6.2413
  C        -0.01041          0.00000         0.00777
  C         0.08599          0.00000         1.47050
  O         1.01529         -0.00000         2.21419
  H        -1.19001          0.00000        -0.38477
  H         0.60789          1.07423        -0.47763
  H         0.60789         -1.07424        -0.47763
6
 step=         597     theta[rad]=           6.2518
  C        -0.01042          0.00000         0.00779
  C         0.08599          0.00000         1.47050
  O         1.01529         -0.00000         2.21419
  H        -1.19023          0.00000        -0.38483
  H         0.60805          1.07451        -0.47775
  H         0.60805         -1.07452        -0.47775
6
 step=         598     theta[rad]=           6.2622
  C        -0.01042          0.00000         0.00780
  C         0.08599          0.00000         1.47050
  O         1.01529         -0.00000         2.21419
  H        -1.19030          0.00000        -0.38485
  H         0.60809          1.07460        -0.47779
  H         0.60810         -1.07460        -0.47779
6
 step=         599     theta[rad]=           6.2727
  C        -0.01042          0.00000         0.00780
  C         0.08599          0.00000         1.47050
  O         1.01529         -0.00000         2.21419
  H        -1.19030          0.00000        -0.38485
  H         0.60810          1.07461        -0.47779
  H         0.60810         -1.07461        -0.47779
6
 step=         600     theta[rad]=           6.2832
  C        -0.01042          0.00000         0.00780
  C         0.08599          0.00000         1.47050
  O         1.01529         -0.00000         2.21419
  H        -1.19030          0.00000        -0.38485
  H         0.60810          1.07461        -0.47779
  H         0.60810         -1.07461        -0.47779
