6
 step=           0     theta[rad]=           0.0000
  C        -0.00519         -0.01884        -0.00950
  C         0.08627          0.06458         1.47035
  O         1.01528         -0.03230         2.21436
  H        -1.04057         -0.15043        -0.34097
  H         0.36638          0.94452        -0.39550
  H         0.63437         -0.82650        -0.39874
6
 step=           1     theta[rad]=           0.0105
  C        -0.00519         -0.01884        -0.00950
  C         0.08627          0.06457         1.47035
  O         1.01528         -0.03229         2.21436
  H        -1.04057         -0.15042        -0.34097
  H         0.36639          0.94452        -0.39550
  H         0.63436         -0.82651        -0.39874
6
 step=           2     theta[rad]=           0.0209
  C        -0.00519         -0.01883        -0.00950
  C         0.08627          0.06455         1.47035
  O         1.01528         -0.03228         2.21436
  H        -1.04057         -0.15035        -0.34097
  H         0.36645          0.94449        -0.39550
  H         0.63430         -0.82653        -0.39873
6
 step=           3     theta[rad]=           0.0314
  C        -0.00519         -0.01880        -0.00950
  C         0.08627          0.06445         1.47035
  O         1.01528         -0.03223         2.21436
  H        -1.04057         -0.15013        -0.34097
  H         0.36665          0.94441        -0.39550
  H         0.63411         -0.82662        -0.39873
6
 step=           4     theta[rad]=           0.0419
  C        -0.00519         -0.01873        -0.00950
  C         0.08627          0.06422         1.47035
  O         1.01528         -0.03212         2.21436
  H        -1.04057         -0.14960        -0.34097
  H         0.36712          0.94420        -0.39551
  H         0.63364         -0.82683        -0.39873
6
 step=           5     theta[rad]=           0.0524
  C        -0.00519         -0.01861        -0.00950
  C         0.08627          0.06378         1.47035
  O         1.01528         -0.03190         2.21436
  H        -1.04057         -0.14857        -0.34097
  H         0.36803          0.94380        -0.39552
  H         0.63272         -0.82723        -0.39872
6
 step=           6     theta[rad]=           0.0628
  C        -0.00519         -0.01838        -0.00950
  C         0.08627          0.06302         1.47035
  O         1.01528         -0.03152         2.21436
  H        -1.04057         -0.14680        -0.34097
  H         0.36961          0.94310        -0.39554
  H         0.63114         -0.82793        -0.39870
6
 step=           7     theta[rad]=           0.0733
  C        -0.00519         -0.01803        -0.00950
  C         0.08627          0.06182         1.47035
  O         1.01528         -0.03092         2.21436
  H        -1.04057         -0.14401        -0.34097
  H         0.37210          0.94201        -0.39557
  H         0.62865         -0.82902        -0.39867
6
 step=           8     theta[rad]=           0.0838
  C        -0.00519         -0.01752        -0.00950
  C         0.08627          0.06004         1.47035
  O         1.01528         -0.03003         2.21436
  H        -1.04057         -0.13986        -0.34097
  H         0.37579          0.94038        -0.39561
  H         0.62496         -0.83065        -0.39862
6
 step=           9     theta[rad]=           0.0942
  C        -0.00519         -0.01678        -0.00950
  C         0.08627          0.05754         1.47035
  O         1.01528         -0.02878         2.21436
  H        -1.04057         -0.13403        -0.34097
  H         0.38099          0.93809        -0.39567
  H         0.61977         -0.83294        -0.39856
6
 step=          10     theta[rad]=           0.1047
  C        -0.00519         -0.01580        -0.00950
  C         0.08627          0.05416         1.47035
  O         1.01528         -0.02709         2.21436
  H        -1.04057         -0.12616        -0.34097
  H         0.38800          0.93500        -0.39576
  H         0.61275         -0.83602        -0.39847
6
 step=          11     theta[rad]=           0.1152
  C        -0.00519         -0.01451        -0.00950
  C         0.08627          0.04976         1.47035
  O         1.01528         -0.02488         2.21436
  H        -1.04057         -0.11591        -0.34097
  H         0.39713          0.93098        -0.39587
  H         0.60362         -0.84005        -0.39836
6
 step=          12     theta[rad]=           0.1257
  C        -0.00519         -0.01290        -0.00950
  C         0.08627          0.04421         1.47035
  O         1.01528         -0.02211         2.21436
  H        -1.04057         -0.10297        -0.34097
  H         0.40865          0.92591        -0.39601
  H         0.59210         -0.84512        -0.39823
6
 step=          13     theta[rad]=           0.1361
  C        -0.00519         -0.01091        -0.00950
  C         0.08627          0.03741         1.47035
  O         1.01528         -0.01871         2.21436
  H        -1.04057         -0.08714        -0.34097
  H         0.42276          0.91970        -0.39618
  H         0.57800         -0.85133        -0.39806
6
 step=          14     theta[rad]=           0.1466
  C        -0.00519         -0.00855        -0.00950
  C         0.08627          0.02932         1.47035
  O         1.01528         -0.01466         2.21436
  H        -1.04057         -0.06829        -0.34097
  H         0.43954          0.91230        -0.39638
  H         0.56121         -0.85872        -0.39785
6
 step=          15     theta[rad]=           0.1571
  C        -0.00519         -0.00582        -0.00950
  C         0.08627          0.01996         1.47035
  O         1.01528         -0.00998         2.21436
  H        -1.04057         -0.04648        -0.34097
  H         0.45897          0.90375        -0.39662
  H         0.54178         -0.86728        -0.39762
6
 step=          16     theta[rad]=           0.1676
  C        -0.00519         -0.00275        -0.00950
  C         0.08627          0.00943         1.47035
  O         1.01528         -0.00472         2.21436
  H        -1.04057         -0.02197        -0.34097
  H         0.48080          0.89413        -0.39688
  H         0.51995         -0.87689        -0.39736
6
 step=          17     theta[rad]=           0.1780
  C        -0.00519          0.00059        -0.00950
  C         0.08627         -0.00203         1.47035
  O         1.01528          0.00101         2.21436
  H        -1.04057          0.00472        -0.34097
  H         0.50458          0.88366        -0.39717
  H         0.49617         -0.88737        -0.39707
6
 step=          18     theta[rad]=           0.1885
  C        -0.00519          0.00411        -0.00950
  C         0.08627         -0.01409         1.47035
  O         1.01528          0.00705         2.21436
  H        -1.04057          0.03281        -0.34097
  H         0.52960          0.87264        -0.39747
  H         0.47115         -0.89839        -0.39677
6
 step=          19     theta[rad]=           0.1990
  C        -0.00519          0.00766        -0.00950
  C         0.08627         -0.02627         1.47035
  O         1.01528          0.01314         2.21436
  H        -1.04057          0.06118        -0.34097
  H         0.55487          0.86151        -0.39778
  H         0.44587         -0.90951        -0.39646
6
 step=          20     theta[rad]=           0.2094
  C        -0.00519          0.01107        -0.00950
  C         0.08627         -0.03796         1.47035
  O         1.01528          0.01898         2.21436
  H        -1.04057          0.08842        -0.34097
  H         0.57913          0.85083        -0.39807
  H         0.42162         -0.92020        -0.39617
6
 step=          21     theta[rad]=           0.2199
  C        -0.00519          0.01413        -0.00950
  C         0.08627         -0.04844         1.47035
  O         1.01528          0.02423         2.21436
  H        -1.04057          0.11284        -0.34097
  H         0.60088          0.84125        -0.39834
  H         0.39986         -0.92978        -0.39591
6
 step=          22     theta[rad]=           0.2304
  C        -0.00519          0.01660        -0.00950
  C         0.08627         -0.05691         1.47035
  O         1.01528          0.02846         2.21436
  H        -1.04057          0.13257        -0.34097
  H         0.61846          0.83351        -0.39855
  H         0.38229         -0.93752        -0.39569
6
 step=          23     theta[rad]=           0.2409
  C        -0.00519          0.01825        -0.00950
  C         0.08627         -0.06255         1.47035
  O         1.01528          0.03128         2.21436
  H        -1.04057          0.14570        -0.34097
  H         0.63016          0.82836        -0.39869
  H         0.37059         -0.94267        -0.39555
6
 step=          24     theta[rad]=           0.2513
  C        -0.00519          0.01884        -0.00950
  C         0.08627         -0.06458         1.47035
  O         1.01528          0.03230         2.21436
  H        -1.04057          0.15043        -0.34097
  H         0.63437          0.82650        -0.39874
  H         0.36638         -0.94452        -0.39550
6
 step=          25     theta[rad]=           0.2618
  C        -0.00519          0.01820        -0.00950
  C         0.08627         -0.06238         1.47035
  O         1.01528          0.03120         2.21436
  H        -1.04057          0.14530        -0.34097
  H         0.62980          0.82851        -0.39869
  H         0.37095         -0.94251        -0.39556
6
 step=          26     theta[rad]=           0.2723
  C        -0.00519          0.01621        -0.00950
  C         0.08627         -0.05558         1.47035
  O         1.01528          0.02780         2.21436
  H        -1.04057          0.12948        -0.34097
  H         0.61571          0.83472        -0.39851
  H         0.38504         -0.93631        -0.39573
6
 step=          27     theta[rad]=           0.2827
  C        -0.00519          0.01290        -0.00950
  C         0.08627         -0.04421         1.47035
  O         1.01528          0.02211         2.21436
  H        -1.04057          0.10297        -0.34097
  H         0.59210          0.84512        -0.39823
  H         0.40865         -0.92591        -0.39601
6
 step=          28     theta[rad]=           0.2932
  C        -0.00519          0.00838        -0.00950
  C         0.08627         -0.02871         1.47035
  O         1.01528          0.01436         2.21436
  H        -1.04057          0.06688        -0.34097
  H         0.55995          0.85928        -0.39784
  H         0.44080         -0.91175        -0.39640
6
 step=          29     theta[rad]=           0.3037
  C        -0.00519          0.00295        -0.00950
  C         0.08627         -0.01010         1.47035
  O         1.01528          0.00505         2.21436
  H        -1.04057          0.02353        -0.34097
  H         0.52134          0.87628        -0.39737
  H         0.47941         -0.89474        -0.39687
6
 step=          30     theta[rad]=           0.3142
  C        -0.00519         -0.00295        -0.00950
  C         0.08627          0.01010         1.47035
  O         1.01528         -0.00505         2.21436
  H        -1.04057         -0.02353        -0.34097
  H         0.47941          0.89475        -0.39687
  H         0.52134         -0.87628        -0.39737
6
 step=          31     theta[rad]=           0.3246
  C        -0.00519         -0.00873        -0.00950
  C         0.08627          0.02992         1.47035
  O         1.01528         -0.01496         2.21436
  H        -1.04057         -0.06969        -0.34097
  H         0.43830          0.91285        -0.39637
  H         0.56245         -0.85818        -0.39787
6
 step=          32     theta[rad]=           0.3351
  C        -0.00519         -0.01373        -0.00950
  C         0.08627          0.04707         1.47035
  O         1.01528         -0.02354         2.21436
  H        -1.04057         -0.10966        -0.34097
  H         0.40270          0.92853        -0.39594
  H         0.59805         -0.84250        -0.39830
6
 step=          33     theta[rad]=           0.3456
  C        -0.00519         -0.01729        -0.00950
  C         0.08627          0.05927         1.47035
  O         1.01528         -0.02964         2.21436
  H        -1.04057         -0.13805        -0.34097
  H         0.37740          0.93967        -0.39563
  H         0.62335         -0.83136        -0.39860
6
 step=          34     theta[rad]=           0.3560
  C        -0.00519         -0.01881        -0.00950
  C         0.08627          0.06449         1.47035
  O         1.01528         -0.03225         2.21436
  H        -1.04057         -0.15022        -0.34097
  H         0.36657          0.94444        -0.39550
  H         0.63419         -0.82659        -0.39873
6
 step=          35     theta[rad]=           0.3665
  C        -0.00519         -0.01792        -0.00950
  C         0.08627          0.06142         1.47035
  O         1.01528         -0.03072         2.21436
  H        -1.04057         -0.14306        -0.34097
  H         0.37294          0.94164        -0.39558
  H         0.62781         -0.82939        -0.39866
6
 step=          36     theta[rad]=           0.3770
  C        -0.00519         -0.01451        -0.00950
  C         0.08627          0.04976         1.47035
  O         1.01528         -0.02488         2.21436
  H        -1.04057         -0.11591        -0.34097
  H         0.39713          0.93098        -0.39587
  H         0.60362         -0.84005        -0.39836
6
 step=          37     theta[rad]=           0.3875
  C        -0.00519         -0.00890        -0.00950
  C         0.08627          0.03052         1.47035
  O         1.01528         -0.01526         2.21436
  H        -1.04057         -0.07108        -0.34097
  H         0.43706          0.91340        -0.39635
  H         0.56369         -0.85763        -0.39788
6
 step=          38     theta[rad]=           0.3979
  C        -0.00519         -0.00177        -0.00950
  C         0.08627          0.00608         1.47035
  O         1.01528         -0.00304         2.21436
  H        -1.04057         -0.01416        -0.34097
  H         0.48777          0.89107        -0.39697
  H         0.51299         -0.87996        -0.39727
6
 step=          39     theta[rad]=           0.4084
  C        -0.00519          0.00582        -0.00950
  C         0.08627         -0.01996         1.47035
  O         1.01528          0.00998         2.21436
  H        -1.04057          0.04648        -0.34097
  H         0.54178          0.86728        -0.39762
  H         0.45897         -0.90375        -0.39662
6
 step=          40     theta[rad]=           0.4189
  C        -0.00519          0.01261        -0.00950
  C         0.08627         -0.04321         1.47035
  O         1.01528          0.02161         2.21436
  H        -1.04057          0.10065        -0.34097
  H         0.59003          0.84603        -0.39820
  H         0.41072         -0.92500        -0.39604
6
 step=          41     theta[rad]=           0.4294
  C        -0.00519          0.01729        -0.00950
  C         0.08627         -0.05927         1.47035
  O         1.01528          0.02964         2.21436
  H        -1.04057          0.13805        -0.34097
  H         0.62335          0.83136        -0.39861
  H         0.37740         -0.93967        -0.39564
6
 step=          42     theta[rad]=           0.4398
  C        -0.00519          0.01883        -0.00950
  C         0.08627         -0.06455         1.47035
  O         1.01528          0.03228         2.21436
  H        -1.04057          0.15035        -0.34097
  H         0.63430          0.82653        -0.39874
  H         0.36645         -0.94449        -0.39550
6
 step=          43     theta[rad]=           0.4503
  C        -0.00519          0.01669        -0.00950
  C         0.08627         -0.05723         1.47035
  O         1.01528          0.02862         2.21436
  H        -1.04057          0.13331        -0.34097
  H         0.61912          0.83322        -0.39856
  H         0.38163         -0.93781        -0.39569
6
 step=          44     theta[rad]=           0.4608
  C        -0.00519          0.01107        -0.00950
  C         0.08627         -0.03796         1.47035
  O         1.01528          0.01898         2.21436
  H        -1.04057          0.08842        -0.34097
  H         0.57913          0.85083        -0.39807
  H         0.42162         -0.92020        -0.39617
6
 step=          45     theta[rad]=           0.4712
  C        -0.00519          0.00295        -0.00950
  C         0.08627         -0.01010         1.47035
  O         1.01528          0.00505         2.21436
  H        -1.04057          0.02353        -0.34097
  H         0.52134          0.87628        -0.39737
  H         0.47941         -0.89474        -0.39687
6
 step=          46     theta[rad]=           0.4817
  C        -0.00519         -0.00601        -0.00950
  C         0.08627          0.02060         1.47035
  O         1.01528         -0.01030         2.21436
  H        -1.04057         -0.04798        -0.34097
  H         0.45764          0.90434        -0.39660
  H         0.54311         -0.86669        -0.39763
6
 step=          47     theta[rad]=           0.4922
  C        -0.00519         -0.01373        -0.00950
  C         0.08627          0.04707         1.47035
  O         1.01528         -0.02354         2.21436
  H        -1.04057         -0.10966        -0.34097
  H         0.40270          0.92853        -0.39594
  H         0.59805         -0.84250        -0.39830
6
 step=          48     theta[rad]=           0.5027
  C        -0.00519         -0.01825        -0.00950
  C         0.08627          0.06255         1.47035
  O         1.01528         -0.03128         2.21436
  H        -1.04057         -0.14570        -0.34097
  H         0.37059          0.94267        -0.39555
  H         0.63016         -0.82836        -0.39868
6
 step=          49     theta[rad]=           0.5131
  C        -0.00519         -0.01820        -0.00950
  C         0.08627          0.06238         1.47035
  O         1.01528         -0.03120         2.21436
  H        -1.04057         -0.14530        -0.34097
  H         0.37095          0.94251        -0.39555
  H         0.62980         -0.82852        -0.39868
6
 step=          50     theta[rad]=           0.5236
  C        -0.00519         -0.01332        -0.00950
  C         0.08627          0.04566         1.47035
  O         1.01528         -0.02284         2.21436
  H        -1.04057         -0.10637        -0.34097
  H         0.40563          0.92724        -0.39597
  H         0.59512         -0.84379        -0.39826
6
 step=          51     theta[rad]=           0.5341
  C        -0.00519         -0.00468        -0.00950
  C         0.08627          0.01606         1.47035
  O         1.01528         -0.00803         2.21436
  H        -1.04057         -0.03741        -0.34097
  H         0.46705          0.90019        -0.39672
  H         0.53370         -0.87084        -0.39752
6
 step=          52     theta[rad]=           0.5445
  C        -0.00519          0.00544        -0.00950
  C         0.08627         -0.01866         1.47035
  O         1.01528          0.00933         2.21436
  H        -1.04057          0.04348        -0.34097
  H         0.53910          0.86846        -0.39759
  H         0.46165         -0.90257        -0.39665
6
 step=          53     theta[rad]=           0.5550
  C        -0.00519          0.01413        -0.00950
  C         0.08627         -0.04844         1.47035
  O         1.01528          0.02423         2.21436
  H        -1.04057          0.11284        -0.34097
  H         0.60088          0.84125        -0.39834
  H         0.39986         -0.92978        -0.39591
6
 step=          54     theta[rad]=           0.5655
  C        -0.00519          0.01861        -0.00950
  C         0.08627         -0.06378         1.47035
  O         1.01528          0.03190         2.21436
  H        -1.04057          0.14857        -0.34097
  H         0.63272          0.82723        -0.39872
  H         0.36803         -0.94380        -0.39552
6
 step=          55     theta[rad]=           0.5760
  C        -0.00519          0.01721        -0.00950
  C         0.08627         -0.05899         1.47035
  O         1.01528          0.02950         2.21436
  H        -1.04057          0.13742        -0.34097
  H         0.62278          0.83161        -0.39860
  H         0.37796         -0.93942        -0.39564
6
 step=          56     theta[rad]=           0.5864
  C        -0.00519          0.01009        -0.00950
  C         0.08627         -0.03460         1.47035
  O         1.01528          0.01731         2.21436
  H        -1.04057          0.08060        -0.34097
  H         0.57217          0.85389        -0.39799
  H         0.42858         -0.91713        -0.39625
6
 step=          57     theta[rad]=           0.5969
  C        -0.00519         -0.00059        -0.00950
  C         0.08627          0.00203         1.47035
  O         1.01528         -0.00101         2.21436
  H        -1.04057         -0.00473        -0.34097
  H         0.49617          0.88737        -0.39707
  H         0.50458         -0.88366        -0.39717
6
 step=          58     theta[rad]=           0.6074
  C        -0.00519         -0.01123        -0.00950
  C         0.08627          0.03850         1.47035
  O         1.01528         -0.01926         2.21436
  H        -1.04057         -0.08969        -0.34097
  H         0.42049          0.92070        -0.39615
  H         0.58027         -0.85033        -0.39808
6
 step=          59     theta[rad]=           0.6178
  C        -0.00519         -0.01792        -0.00950
  C         0.08627          0.06142         1.47035
  O         1.01528         -0.03072         2.21436
  H        -1.04057         -0.14306        -0.34097
  H         0.37294          0.94164        -0.39558
  H         0.62781         -0.82939        -0.39866
6
 step=          60     theta[rad]=           0.6283
  C        -0.00519         -0.01792        -0.00950
  C         0.08627          0.06142         1.47035
  O         1.01528         -0.03072         2.21436
  H        -1.04057         -0.14306        -0.34097
  H         0.37294          0.94164        -0.39558
  H         0.62781         -0.82939        -0.39866
6
 step=          61     theta[rad]=           0.6388
  C        -0.00519         -0.01091        -0.00950
  C         0.08627          0.03741         1.47035
  O         1.01528         -0.01871         2.21436
  H        -1.04057         -0.08714        -0.34097
  H         0.42276          0.91970        -0.39618
  H         0.57800         -0.85133        -0.39806
6
 step=          62     theta[rad]=           0.6493
  C        -0.00519          0.00059        -0.00950
  C         0.08627         -0.00203         1.47035
  O         1.01528          0.00101         2.21436
  H        -1.04057          0.00472        -0.34097
  H         0.50458          0.88366        -0.39717
  H         0.49617         -0.88737        -0.39707
6
 step=          63     theta[rad]=           0.6597
  C        -0.00519          0.01201        -0.00950
  C         0.08627         -0.04116         1.47035
  O         1.01528          0.02059         2.21436
  H        -1.04057          0.09589        -0.34097
  H         0.58579          0.84790        -0.39815
  H         0.41496         -0.92313        -0.39609
6
 step=          64     theta[rad]=           0.6702
  C        -0.00519          0.01843        -0.00950
  C         0.08627         -0.06317         1.47035
  O         1.01528          0.03159         2.21436
  H        -1.04057          0.14714        -0.34097
  H         0.63144          0.82779        -0.39871
  H         0.36931         -0.94323        -0.39554
6
 step=          65     theta[rad]=           0.6807
  C        -0.00519          0.01678        -0.00950
  C         0.08627         -0.05754         1.47035
  O         1.01528          0.02878         2.21436
  H        -1.04057          0.13403        -0.34097
  H         0.61976          0.83294        -0.39856
  H         0.38098         -0.93809        -0.39568
6
 step=          66     theta[rad]=           0.6912
  C        -0.00519          0.00748        -0.00950
  C         0.08627         -0.02565         1.47035
  O         1.01528          0.01283         2.21436
  H        -1.04057          0.05974        -0.34097
  H         0.55359          0.86208        -0.39776
  H         0.44716         -0.90895        -0.39648
6
 step=          67     theta[rad]=           0.7016
  C        -0.00519         -0.00544        -0.00950
  C         0.08627          0.01866         1.47035
  O         1.01528         -0.00933         2.21436
  H        -1.04057         -0.04348        -0.34097
  H         0.46165          0.90257        -0.39665
  H         0.53910         -0.86846        -0.39759
6
 step=          68     theta[rad]=           0.7121
  C        -0.00519         -0.01591        -0.00950
  C         0.08627          0.05452         1.47035
  O         1.01528         -0.02727         2.21436
  H        -1.04057         -0.12701        -0.34097
  H         0.38724          0.93534        -0.39575
  H         0.61351         -0.83569        -0.39848
6
 step=          69     theta[rad]=           0.7226
  C        -0.00519         -0.01861        -0.00950
  C         0.08627          0.06378         1.47035
  O         1.01528         -0.03190         2.21436
  H        -1.04057         -0.14857        -0.34097
  H         0.36803          0.94380        -0.39552
  H         0.63272         -0.82723        -0.39872
6
 step=          70     theta[rad]=           0.7330
  C        -0.00519         -0.01186        -0.00950
  C         0.08627          0.04064         1.47035
  O         1.01528         -0.02032         2.21436
  H        -1.04057         -0.09467        -0.34097
  H         0.41605          0.92265        -0.39610
  H         0.58470         -0.84838        -0.39814
6
 step=          71     theta[rad]=           0.7435
  C        -0.00519          0.00118        -0.00950
  C         0.08627         -0.00405         1.47035
  O         1.01528          0.00203         2.21436
  H        -1.04057          0.00945        -0.34097
  H         0.50879          0.88181        -0.39722
  H         0.49196         -0.88922        -0.39702
6
 step=          72     theta[rad]=           0.7540
  C        -0.00519          0.01373        -0.00950
  C         0.08627         -0.04707         1.47035
  O         1.01528          0.02354         2.21436
  H        -1.04057          0.10966        -0.34097
  H         0.59805          0.84250        -0.39830
  H         0.40270         -0.92853        -0.39594
6
 step=          73     theta[rad]=           0.7645
  C        -0.00519          0.01884        -0.00950
  C         0.08627         -0.06457         1.47035
  O         1.01528          0.03229         2.21436
  H        -1.04057          0.15042        -0.34097
  H         0.63436          0.82651        -0.39874
  H         0.36639         -0.94452        -0.39550
6
 step=          74     theta[rad]=           0.7749
  C        -0.00519          0.01332        -0.00950
  C         0.08627         -0.04566         1.47035
  O         1.01528          0.02284         2.21436
  H        -1.04057          0.10637        -0.34097
  H         0.59512          0.84379        -0.39827
  H         0.40563         -0.92724        -0.39598
6
 step=          75     theta[rad]=           0.7854
  C        -0.00519          0.00000        -0.00950
  C         0.08627          0.00000         1.47035
  O         1.01528         -0.00000         2.21436
  H        -1.04057         -0.00000        -0.34097
  H         0.50038          0.88551        -0.39712
  H         0.50038         -0.88551        -0.39712
6
 step=          76     theta[rad]=           0.7959
  C        -0.00519         -0.01346        -0.00950
  C         0.08627          0.04614         1.47035
  O         1.01528         -0.02307         2.21436
  H        -1.04057         -0.10748        -0.34097
  H         0.40464          0.92767        -0.39596
  H         0.59611         -0.84335        -0.39827
6
 step=          77     theta[rad]=           0.8063
  C        -0.00519         -0.01883        -0.00950
  C         0.08627          0.06455         1.47035
  O         1.01528         -0.03228         2.21436
  H        -1.04057         -0.15035        -0.34097
  H         0.36645          0.94449        -0.39550
  H         0.63430         -0.82653        -0.39873
6
 step=          78     theta[rad]=           0.8168
  C        -0.00519         -0.01246        -0.00950
  C         0.08627          0.04271         1.47035
  O         1.01528         -0.02136         2.21436
  H        -1.04057         -0.09948        -0.34097
  H         0.41176          0.92454        -0.39605
  H         0.58899         -0.84649        -0.39819
6
 step=          79     theta[rad]=           0.8273
  C        -0.00519          0.00197        -0.00950
  C         0.08627         -0.00675         1.47035
  O         1.01528          0.00338         2.21436
  H        -1.04057          0.01572        -0.34097
  H         0.51438          0.87935        -0.39729
  H         0.48637         -0.89168        -0.39695
6
 step=          80     theta[rad]=           0.8378
  C        -0.00519          0.01524        -0.00950
  C         0.08627         -0.05224         1.47035
  O         1.01528          0.02613         2.21436
  H        -1.04057          0.12170        -0.34097
  H         0.60878          0.83777        -0.39843
  H         0.39197         -0.93325        -0.39581
6
 step=          81     theta[rad]=           0.8482
  C        -0.00519          0.01838        -0.00950
  C         0.08627         -0.06302         1.47035
  O         1.01528          0.03152         2.21436
  H        -1.04057          0.14680        -0.34097
  H         0.63114          0.82793        -0.39870
  H         0.36961         -0.94310        -0.39554
6
 step=          82     theta[rad]=           0.8587
  C        -0.00519          0.00890        -0.00950
  C         0.08627         -0.03052         1.47035
  O         1.01528          0.01526         2.21436
  H        -1.04057          0.07108        -0.34097
  H         0.56369          0.85763        -0.39789
  H         0.43706         -0.91340        -0.39636
6
 step=          83     theta[rad]=           0.8692
  C        -0.00519         -0.00693        -0.00950
  C         0.08627          0.02377         1.47035
  O         1.01528         -0.01189         2.21436
  H        -1.04057         -0.05538        -0.34097
  H         0.45105          0.90724        -0.39652
  H         0.54970         -0.86379        -0.39771
6
 step=          84     theta[rad]=           0.8796
  C        -0.00519         -0.01792        -0.00950
  C         0.08627          0.06142         1.47035
  O         1.01528         -0.03072         2.21436
  H        -1.04057         -0.14306        -0.34097
  H         0.37294          0.94164        -0.39558
  H         0.62781         -0.82939        -0.39866
6
 step=          85     theta[rad]=           0.8901
  C        -0.00519         -0.01580        -0.00950
  C         0.08627          0.05416         1.47035
  O         1.01528         -0.02709         2.21436
  H        -1.04057         -0.12616        -0.34097
  H         0.38800          0.93500        -0.39576
  H         0.61275         -0.83602        -0.39847
6
 step=          86     theta[rad]=           0.9006
  C        -0.00519         -0.00177        -0.00950
  C         0.08627          0.00608         1.47035
  O         1.01528         -0.00304         2.21436
  H        -1.04057         -0.01416        -0.34097
  H         0.48777          0.89107        -0.39697
  H         0.51299         -0.87996        -0.39727
6
 step=          87     theta[rad]=           0.9111
  C        -0.00519          0.01373        -0.00950
  C         0.08627         -0.04707         1.47035
  O         1.01528          0.02354         2.21436
  H        -1.04057          0.10966        -0.34097
  H         0.59805          0.84250        -0.39830
  H         0.40270         -0.92853        -0.39594
6
 step=          88     theta[rad]=           0.9215
  C        -0.00519          0.01857        -0.00950
  C         0.08627         -0.06367         1.47035
  O         1.01528          0.03184         2.21436
  H        -1.04057          0.14832        -0.34097
  H         0.63249          0.82733        -0.39872
  H         0.36826         -0.94370        -0.39553
6
 step=          89     theta[rad]=           0.9320
  C        -0.00519          0.00855        -0.00950
  C         0.08627         -0.02932         1.47035
  O         1.01528          0.01466         2.21436
  H        -1.04057          0.06829        -0.34097
  H         0.56121          0.85872        -0.39786
  H         0.43954         -0.91230        -0.39639
6
 step=          90     theta[rad]=           0.9425
  C        -0.00519         -0.00855        -0.00950
  C         0.08627          0.02932         1.47035
  O         1.01528         -0.01466         2.21436
  H        -1.04057         -0.06829        -0.34097
  H         0.43954          0.91230        -0.39638
  H         0.56121         -0.85872        -0.39785
6
 step=          91     theta[rad]=           0.9529
  C        -0.00519         -0.01864        -0.00950
  C         0.08627          0.06388         1.47035
  O         1.01528         -0.03195         2.21436
  H        -1.04057         -0.14881        -0.34097
  H         0.36782          0.94389        -0.39551
  H         0.63293         -0.82714        -0.39872
6
 step=          92     theta[rad]=           0.9634
  C        -0.00519         -0.01290        -0.00950
  C         0.08627          0.04421         1.47035
  O         1.01528         -0.02211         2.21436
  H        -1.04057         -0.10297        -0.34097
  H         0.40865          0.92591        -0.39601
  H         0.59210         -0.84512        -0.39823
6
 step=          93     theta[rad]=           0.9739
  C        -0.00519          0.00411        -0.00950
  C         0.08627         -0.01409         1.47035
  O         1.01528          0.00705         2.21436
  H        -1.04057          0.03281        -0.34097
  H         0.52960          0.87264        -0.39747
  H         0.47115         -0.89839        -0.39677
6
 step=          94     theta[rad]=           0.9844
  C        -0.00519          0.01759        -0.00950
  C         0.08627         -0.06029         1.47035
  O         1.01528          0.03015         2.21436
  H        -1.04057          0.14044        -0.34097
  H         0.62547          0.83042        -0.39863
  H         0.37528         -0.94060        -0.39561
6
 step=          95     theta[rad]=           0.9948
  C        -0.00519          0.01524        -0.00950
  C         0.08627         -0.05224         1.47035
  O         1.01528          0.02613         2.21436
  H        -1.04057          0.12170        -0.34097
  H         0.60878          0.83777        -0.39843
  H         0.39197         -0.93325        -0.39581
6
 step=          96     theta[rad]=           1.0053
  C        -0.00519         -0.00118        -0.00950
  C         0.08627          0.00405         1.47035
  O         1.01528         -0.00203         2.21436
  H        -1.04057         -0.00945        -0.34097
  H         0.49196          0.88922        -0.39702
  H         0.50879         -0.88181        -0.39722
6
 step=          97     theta[rad]=           1.0158
  C        -0.00519         -0.01660        -0.00950
  C         0.08627          0.05691         1.47035
  O         1.01528         -0.02846         2.21436
  H        -1.04057         -0.13257        -0.34097
  H         0.38229          0.93752        -0.39569
  H         0.61847         -0.83351        -0.39854
6
 step=          98     theta[rad]=           1.0263
  C        -0.00519         -0.01621        -0.00950
  C         0.08627          0.05558         1.47035
  O         1.01528         -0.02780         2.21436
  H        -1.04057         -0.12948        -0.34097
  H         0.38504          0.93631        -0.39572
  H         0.61571         -0.83472        -0.39851
6
 step=          99     theta[rad]=           1.0367
  C        -0.00519          0.00000        -0.00950
  C         0.08627          0.00000         1.47035
  O         1.01528         -0.00000         2.21436
  H        -1.04057         -0.00000        -0.34097
  H         0.50038          0.88551        -0.39712
  H         0.50038         -0.88551        -0.39712
6
 step=         100     theta[rad]=           1.0472
  C        -0.00519          0.01631        -0.00950
  C         0.08627         -0.05593         1.47035
  O         1.01528          0.02797         2.21436
  H        -1.04057          0.13027        -0.34097
  H         0.61642          0.83441        -0.39852
  H         0.38433         -0.93662        -0.39572
6
 step=         101     theta[rad]=           1.0577
  C        -0.00519          0.01621        -0.00950
  C         0.08627         -0.05558         1.47035
  O         1.01528          0.02780         2.21436
  H        -1.04057          0.12948        -0.34097
  H         0.61571          0.83472        -0.39851
  H         0.38504         -0.93631        -0.39573
6
 step=         102     theta[rad]=           1.0681
  C        -0.00519         -0.00059        -0.00950
  C         0.08627          0.00203         1.47035
  O         1.01528         -0.00101         2.21436
  H        -1.04057         -0.00473        -0.34097
  H         0.49617          0.88737        -0.39707
  H         0.50458         -0.88366        -0.39717
6
 step=         103     theta[rad]=           1.0786
  C        -0.00519         -0.01687        -0.00950
  C         0.08627          0.05784         1.47035
  O         1.01528         -0.02893         2.21436
  H        -1.04057         -0.13474        -0.34097
  H         0.38036          0.93837        -0.39567
  H         0.62040         -0.83266        -0.39857
6
 step=         104     theta[rad]=           1.0891
  C        -0.00519         -0.01524        -0.00950
  C         0.08627          0.05224         1.47035
  O         1.01528         -0.02613         2.21436
  H        -1.04057         -0.12170        -0.34097
  H         0.39197          0.93325        -0.39581
  H         0.60878         -0.83777        -0.39843
6
 step=         105     theta[rad]=           1.0996
  C        -0.00519          0.00295        -0.00950
  C         0.08627         -0.01010         1.47035
  O         1.01528          0.00505         2.21436
  H        -1.04057          0.02353        -0.34097
  H         0.52134          0.87628        -0.39737
  H         0.47941         -0.89474        -0.39687
6
 step=         106     theta[rad]=           1.1100
  C        -0.00519          0.01798        -0.00950
  C         0.08627         -0.06162         1.47035
  O         1.01528          0.03082         2.21436
  H        -1.04057          0.14354        -0.34097
  H         0.62824          0.82920        -0.39867
  H         0.37251         -0.94182        -0.39558
6
 step=         107     theta[rad]=           1.1205
  C        -0.00519          0.01290        -0.00950
  C         0.08627         -0.04421         1.47035
  O         1.01528          0.02211         2.21436
  H        -1.04057          0.10297        -0.34097
  H         0.59210          0.84512        -0.39823
  H         0.40865         -0.92591        -0.39601
6
 step=         108     theta[rad]=           1.1310
  C        -0.00519         -0.00693        -0.00950
  C         0.08627          0.02377         1.47035
  O         1.01528         -0.01189         2.21436
  H        -1.04057         -0.05538        -0.34097
  H         0.45105          0.90724        -0.39652
  H         0.54970         -0.86379        -0.39771
6
 step=         109     theta[rad]=           1.1414
  C        -0.00519         -0.01881        -0.00950
  C         0.08627          0.06449         1.47035
  O         1.01528         -0.03225         2.21436
  H        -1.04057         -0.15022        -0.34097
  H         0.36657          0.94444        -0.39550
  H         0.63419         -0.82659        -0.39873
6
 step=         110     theta[rad]=           1.1519
  C        -0.00519         -0.00855        -0.00950
  C         0.08627          0.02932         1.47035
  O         1.01528         -0.01466         2.21436
  H        -1.04057         -0.06829        -0.34097
  H         0.43954          0.91230        -0.39638
  H         0.56121         -0.85872        -0.39785
6
 step=         111     theta[rad]=           1.1624
  C        -0.00519          0.01201        -0.00950
  C         0.08627         -0.04116         1.47035
  O         1.01528          0.02059         2.21436
  H        -1.04057          0.09589        -0.34097
  H         0.58579          0.84790        -0.39815
  H         0.41496         -0.92313        -0.39609
6
 step=         112     theta[rad]=           1.1729
  C        -0.00519          0.01803        -0.00950
  C         0.08627         -0.06182         1.47035
  O         1.01528          0.03092         2.21436
  H        -1.04057          0.14401        -0.34097
  H         0.62865          0.82902        -0.39867
  H         0.37210         -0.94200        -0.39557
6
 step=         113     theta[rad]=           1.1833
  C        -0.00519          0.00177        -0.00950
  C         0.08627         -0.00608         1.47035
  O         1.01528          0.00304         2.21436
  H        -1.04057          0.01416        -0.34097
  H         0.51298          0.87996        -0.39727
  H         0.48777         -0.89107        -0.39697
6
 step=         114     theta[rad]=           1.1938
  C        -0.00519         -0.01678        -0.00950
  C         0.08627          0.05754         1.47035
  O         1.01528         -0.02878         2.21436
  H        -1.04057         -0.13403        -0.34097
  H         0.38099          0.93809        -0.39567
  H         0.61977         -0.83294        -0.39856
6
 step=         115     theta[rad]=           1.2043
  C        -0.00519         -0.01400        -0.00950
  C         0.08627          0.04799         1.47035
  O         1.01528         -0.02400         2.21436
  H        -1.04057         -0.11179        -0.34097
  H         0.40080          0.92937        -0.39591
  H         0.59995         -0.84166        -0.39832
6
 step=         116     theta[rad]=           1.2147
  C        -0.00519          0.00693        -0.00950
  C         0.08627         -0.02377         1.47035
  O         1.01528          0.01189         2.21436
  H        -1.04057          0.05538        -0.34097
  H         0.54970          0.86379        -0.39772
  H         0.45105         -0.90724        -0.39652
6
 step=         117     theta[rad]=           1.2252
  C        -0.00519          0.01883        -0.00950
  C         0.08627         -0.06455         1.47035
  O         1.01528          0.03228         2.21436
  H        -1.04057          0.15035        -0.34097
  H         0.63430          0.82653        -0.39874
  H         0.36645         -0.94449        -0.39550
6
 step=         118     theta[rad]=           1.2357
  C        -0.00519          0.00563        -0.00950
  C         0.08627         -0.01931         1.47035
  O         1.01528          0.00966         2.21436
  H        -1.04057          0.04498        -0.34097
  H         0.54044          0.86787        -0.39760
  H         0.46031         -0.90316        -0.39664
6
 step=         119     theta[rad]=           1.2462
  C        -0.00519         -0.01524        -0.00950
  C         0.08627          0.05224         1.47035
  O         1.01528         -0.02613         2.21436
  H        -1.04057         -0.12170        -0.34097
  H         0.39197          0.93325        -0.39581
  H         0.60878         -0.83777        -0.39843
6
 step=         120     theta[rad]=           1.2566
  C        -0.00519         -0.01524        -0.00950
  C         0.08627          0.05224         1.47035
  O         1.01528         -0.02613         2.21436
  H        -1.04057         -0.12170        -0.34097
  H         0.39197          0.93325        -0.39581
  H         0.60878         -0.83777        -0.39843
6
 step=         121     theta[rad]=           1.2671
  C        -0.00519          0.00601        -0.00950
  C         0.08627         -0.02060         1.47035
  O         1.01528          0.01030         2.21436
  H        -1.04057          0.04798        -0.34097
  H         0.54311          0.86669        -0.39764
  H         0.45764         -0.90434        -0.39660
6
 step=         122     theta[rad]=           1.2776
  C        -0.00519          0.01883        -0.00950
  C         0.08627         -0.06455         1.47035
  O         1.01528          0.03228         2.21436
  H        -1.04057          0.15035        -0.34097
  H         0.63430          0.82653        -0.39874
  H         0.36645         -0.94449        -0.39550
6
 step=         123     theta[rad]=           1.2881
  C        -0.00519          0.00468        -0.00950
  C         0.08627         -0.01606         1.47035
  O         1.01528          0.00803         2.21436
  H        -1.04057          0.03741        -0.34097
  H         0.53370          0.87084        -0.39752
  H         0.46705         -0.90019        -0.39672
6
 step=         124     theta[rad]=           1.2985
  C        -0.00519         -0.01631        -0.00950
  C         0.08627          0.05593         1.47035
  O         1.01528         -0.02797         2.21436
  H        -1.04057         -0.13027        -0.34097
  H         0.38433          0.93662        -0.39571
  H         0.61642         -0.83441        -0.39852
6
 step=         125     theta[rad]=           1.3090
  C        -0.00519         -0.01332        -0.00950
  C         0.08627          0.04566         1.47035
  O         1.01528         -0.02284         2.21436
  H        -1.04057         -0.10637        -0.34097
  H         0.40563          0.92724        -0.39597
  H         0.59512         -0.84379        -0.39826
6
 step=         126     theta[rad]=           1.3195
  C        -0.00519          0.00959        -0.00950
  C         0.08627         -0.03287         1.47035
  O         1.01528          0.01644         2.21436
  H        -1.04057          0.07657        -0.34097
  H         0.56858          0.85548        -0.39794
  H         0.43217         -0.91555        -0.39630
6
 step=         127     theta[rad]=           1.3299
  C        -0.00519          0.01803        -0.00950
  C         0.08627         -0.06182         1.47035
  O         1.01528          0.03092         2.21436
  H        -1.04057          0.14401        -0.34097
  H         0.62865          0.82902        -0.39867
  H         0.37210         -0.94200        -0.39557
6
 step=         128     theta[rad]=           1.3404
  C        -0.00519         -0.00118        -0.00950
  C         0.08627          0.00405         1.47035
  O         1.01528         -0.00203         2.21436
  H        -1.04057         -0.00945        -0.34097
  H         0.49196          0.88922        -0.39702
  H         0.50879         -0.88181        -0.39722
6
 step=         129     theta[rad]=           1.3509
  C        -0.00519         -0.01861        -0.00950
  C         0.08627          0.06378         1.47035
  O         1.01528         -0.03190         2.21436
  H        -1.04057         -0.14857        -0.34097
  H         0.36803          0.94380        -0.39552
  H         0.63272         -0.82723        -0.39872
6
 step=         130     theta[rad]=           1.3614
  C        -0.00519         -0.00675        -0.00950
  C         0.08627          0.02314         1.47035
  O         1.01528         -0.01157         2.21436
  H        -1.04057         -0.05391        -0.34097
  H         0.45236          0.90666        -0.39654
  H         0.54839         -0.86437        -0.39770
6
 step=         131     theta[rad]=           1.3718
  C        -0.00519          0.01591        -0.00950
  C         0.08627         -0.05452         1.47035
  O         1.01528          0.02727         2.21436
  H        -1.04057          0.12701        -0.34097
  H         0.61351          0.83569        -0.39849
  H         0.38724         -0.93534        -0.39575
6
 step=         132     theta[rad]=           1.3823
  C        -0.00519          0.01290        -0.00950
  C         0.08627         -0.04421         1.47035
  O         1.01528          0.02211         2.21436
  H        -1.04057          0.10297        -0.34097
  H         0.59210          0.84512        -0.39823
  H         0.40865         -0.92591        -0.39601
6
 step=         133     theta[rad]=           1.3928
  C        -0.00519         -0.01123        -0.00950
  C         0.08627          0.03850         1.47035
  O         1.01528         -0.01926         2.21436
  H        -1.04057         -0.08969        -0.34097
  H         0.42049          0.92070        -0.39615
  H         0.58027         -0.85033        -0.39808
6
 step=         134     theta[rad]=           1.4032
  C        -0.00519         -0.01678        -0.00950
  C         0.08627          0.05754         1.47035
  O         1.01528         -0.02878         2.21436
  H        -1.04057         -0.13403        -0.34097
  H         0.38099          0.93809        -0.39567
  H         0.61977         -0.83294        -0.39856
6
 step=         135     theta[rad]=           1.4137
  C        -0.00519          0.00582        -0.00950
  C         0.08627         -0.01996         1.47035
  O         1.01528          0.00998         2.21436
  H        -1.04057          0.04648        -0.34097
  H         0.54178          0.86728        -0.39762
  H         0.45897         -0.90375        -0.39662
6
 step=         136     theta[rad]=           1.4242
  C        -0.00519          0.01857        -0.00950
  C         0.08627         -0.06367         1.47035
  O         1.01528          0.03184         2.21436
  H        -1.04057          0.14832        -0.34097
  H         0.63249          0.82733        -0.39872
  H         0.36826         -0.94370        -0.39553
6
 step=         137     theta[rad]=           1.4347
  C        -0.00519         -0.00059        -0.00950
  C         0.08627          0.00203         1.47035
  O         1.01528         -0.00101         2.21436
  H        -1.04057         -0.00473        -0.34097
  H         0.49617          0.88737        -0.39707
  H         0.50458         -0.88366        -0.39717
6
 step=         138     theta[rad]=           1.4451
  C        -0.00519         -0.01875        -0.00950
  C         0.08627          0.06429         1.47035
  O         1.01528         -0.03215         2.21436
  H        -1.04057         -0.14976        -0.34097
  H         0.36698          0.94426        -0.39550
  H         0.63378         -0.82677        -0.39873
6
 step=         139     theta[rad]=           1.4556
  C        -0.00519         -0.00392        -0.00950
  C         0.08627          0.01343         1.47035
  O         1.01528         -0.00671         2.21436
  H        -1.04057         -0.03128        -0.34097
  H         0.47252          0.89778        -0.39678
  H         0.52823         -0.87325        -0.39745
6
 step=         140     theta[rad]=           1.4661
  C        -0.00519          0.01792        -0.00950
  C         0.08627         -0.06142         1.47035
  O         1.01528          0.03072         2.21436
  H        -1.04057          0.14306        -0.34097
  H         0.62781          0.82939        -0.39866
  H         0.37294         -0.94163        -0.39558
6
 step=         141     theta[rad]=           1.4765
  C        -0.00519          0.00748        -0.00950
  C         0.08627         -0.02565         1.47035
  O         1.01528          0.01283         2.21436
  H        -1.04057          0.05974        -0.34097
  H         0.55359          0.86208        -0.39776
  H         0.44716         -0.90895        -0.39648
6
 step=         142     theta[rad]=           1.4870
  C        -0.00519         -0.01660        -0.00950
  C         0.08627          0.05691         1.47035
  O         1.01528         -0.02846         2.21436
  H        -1.04057         -0.13257        -0.34097
  H         0.38229          0.93752        -0.39569
  H         0.61847         -0.83351        -0.39854
6
 step=         143     theta[rad]=           1.4975
  C        -0.00519         -0.01009        -0.00950
  C         0.08627          0.03460         1.47035
  O         1.01528         -0.01731         2.21436
  H        -1.04057         -0.08060        -0.34097
  H         0.42858          0.91713        -0.39625
  H         0.57217         -0.85390        -0.39798
6
 step=         144     theta[rad]=           1.5080
  C        -0.00519          0.01524        -0.00950
  C         0.08627         -0.05224         1.47035
  O         1.01528          0.02613         2.21436
  H        -1.04057          0.12170        -0.34097
  H         0.60878          0.83777        -0.39843
  H         0.39197         -0.93325        -0.39581
6
 step=         145     theta[rad]=           1.5184
  C        -0.00519          0.01186        -0.00950
  C         0.08627         -0.04064         1.47035
  O         1.01528          0.02032         2.21436
  H        -1.04057          0.09467        -0.34097
  H         0.58470          0.84838        -0.39814
  H         0.41605         -0.92265        -0.39610
6
 step=         146     theta[rad]=           1.5289
  C        -0.00519         -0.01413        -0.00950
  C         0.08627          0.04844         1.47035
  O         1.01528         -0.02423         2.21436
  H        -1.04057         -0.11284        -0.34097
  H         0.39987          0.92978        -0.39590
  H         0.60089         -0.84125        -0.39833
6
 step=         147     theta[rad]=           1.5394
  C        -0.00519         -0.01290        -0.00950
  C         0.08627          0.04421         1.47035
  O         1.01528         -0.02211         2.21436
  H        -1.04057         -0.10297        -0.34097
  H         0.40865          0.92591        -0.39601
  H         0.59210         -0.84512        -0.39823
6
 step=         148     theta[rad]=           1.5499
  C        -0.00519          0.01346        -0.00950
  C         0.08627         -0.04614         1.47035
  O         1.01528          0.02307         2.21436
  H        -1.04057          0.10748        -0.34097
  H         0.59611          0.84335        -0.39828
  H         0.40464         -0.92767        -0.39596
6
 step=         149     theta[rad]=           1.5603
  C        -0.00519          0.01332        -0.00950
  C         0.08627         -0.04566         1.47035
  O         1.01528          0.02284         2.21436
  H        -1.04057          0.10637        -0.34097
  H         0.59512          0.84379        -0.39827
  H         0.40563         -0.92724        -0.39598
6
 step=         150     theta[rad]=           1.5708
  C        -0.00519         -0.01332        -0.00950
  C         0.08627          0.04566         1.47035
  O         1.01528         -0.02284         2.21436
  H        -1.04057         -0.10637        -0.34097
  H         0.40563          0.92724        -0.39597
  H         0.59512         -0.84379        -0.39826
6
 step=         151     theta[rad]=           1.5813
  C        -0.00519         -0.01318        -0.00950
  C         0.08627          0.04518         1.47035
  O         1.01528         -0.02260         2.21436
  H        -1.04057         -0.10525        -0.34097
  H         0.40663          0.92680        -0.39598
  H         0.59413         -0.84423        -0.39825
6
 step=         152     theta[rad]=           1.5917
  C        -0.00519          0.01373        -0.00950
  C         0.08627         -0.04707         1.47035
  O         1.01528          0.02354         2.21436
  H        -1.04057          0.10966        -0.34097
  H         0.59805          0.84250        -0.39830
  H         0.40270         -0.92853        -0.39594
6
 step=         153     theta[rad]=           1.6022
  C        -0.00519          0.01246        -0.00950
  C         0.08627         -0.04271         1.47035
  O         1.01528          0.02136         2.21436
  H        -1.04057          0.09948        -0.34097
  H         0.58899          0.84649        -0.39819
  H         0.41176         -0.92454        -0.39605
6
 step=         154     theta[rad]=           1.6127
  C        -0.00519         -0.01464        -0.00950
  C         0.08627          0.05019         1.47035
  O         1.01528         -0.02510         2.21436
  H        -1.04057         -0.11690        -0.34097
  H         0.39624          0.93137        -0.39586
  H         0.60451         -0.83966        -0.39838
6
 step=         155     theta[rad]=           1.6232
  C        -0.00519         -0.01107        -0.00950
  C         0.08627          0.03796         1.47035
  O         1.01528         -0.01898         2.21436
  H        -1.04057         -0.08842        -0.34097
  H         0.42162          0.92020        -0.39617
  H         0.57914         -0.85083        -0.39807
6
 step=         156     theta[rad]=           1.6336
  C        -0.00519          0.01591        -0.00950
  C         0.08627         -0.05452         1.47035
  O         1.01528          0.02727         2.21436
  H        -1.04057          0.12701        -0.34097
  H         0.61351          0.83569        -0.39849
  H         0.38724         -0.93534        -0.39575
6
 step=         157     theta[rad]=           1.6441
  C        -0.00519          0.00890        -0.00950
  C         0.08627         -0.03052         1.47035
  O         1.01528          0.01526         2.21436
  H        -1.04057          0.07108        -0.34097
  H         0.56369          0.85763        -0.39789
  H         0.43706         -0.91340        -0.39636
6
 step=         158     theta[rad]=           1.6546
  C        -0.00519         -0.01729        -0.00950
  C         0.08627          0.05927         1.47035
  O         1.01528         -0.02964         2.21436
  H        -1.04057         -0.13805        -0.34097
  H         0.37740          0.93967        -0.39563
  H         0.62335         -0.83136        -0.39860
6
 step=         159     theta[rad]=           1.6650
  C        -0.00519         -0.00582        -0.00950
  C         0.08627          0.01996         1.47035
  O         1.01528         -0.00998         2.21436
  H        -1.04057         -0.04648        -0.34097
  H         0.45897          0.90375        -0.39662
  H         0.54178         -0.86728        -0.39762
6
 step=         160     theta[rad]=           1.6755
  C        -0.00519          0.01843        -0.00950
  C         0.08627         -0.06317         1.47035
  O         1.01528          0.03159         2.21436
  H        -1.04057          0.14714        -0.34097
  H         0.63144          0.82779        -0.39871
  H         0.36931         -0.94323        -0.39554
6
 step=         161     theta[rad]=           1.6860
  C        -0.00519          0.00177        -0.00950
  C         0.08627         -0.00608         1.47035
  O         1.01528          0.00304         2.21436
  H        -1.04057          0.01416        -0.34097
  H         0.51298          0.87996        -0.39727
  H         0.48777         -0.89107        -0.39697
6
 step=         162     theta[rad]=           1.6965
  C        -0.00519         -0.01883        -0.00950
  C         0.08627          0.06455         1.47035
  O         1.01528         -0.03228         2.21436
  H        -1.04057         -0.15035        -0.34097
  H         0.36645          0.94449        -0.39550
  H         0.63430         -0.82653        -0.39873
6
 step=         163     theta[rad]=           1.7069
  C        -0.00519          0.00314        -0.00950
  C         0.08627         -0.01077         1.47035
  O         1.01528          0.00539         2.21436
  H        -1.04057          0.02509        -0.34097
  H         0.52272          0.87567        -0.39739
  H         0.47803         -0.89535        -0.39685
6
 step=         164     theta[rad]=           1.7174
  C        -0.00519          0.01792        -0.00950
  C         0.08627         -0.06142         1.47035
  O         1.01528          0.03072         2.21436
  H        -1.04057          0.14306        -0.34097
  H         0.62781          0.82939        -0.39866
  H         0.37294         -0.94163        -0.39558
6
 step=         165     theta[rad]=           1.7279
  C        -0.00519         -0.00855        -0.00950
  C         0.08627          0.02932         1.47035
  O         1.01528         -0.01466         2.21436
  H        -1.04057         -0.06829        -0.34097
  H         0.43954          0.91230        -0.39638
  H         0.56121         -0.85872        -0.39785
6
 step=         166     theta[rad]=           1.7383
  C        -0.00519         -0.01512        -0.00950
  C         0.08627          0.05184         1.47035
  O         1.01528         -0.02593         2.21436
  H        -1.04057         -0.12077        -0.34097
  H         0.39280          0.93289        -0.39582
  H         0.60795         -0.83814        -0.39842
6
 step=         167     theta[rad]=           1.7488
  C        -0.00519          0.01373        -0.00950
  C         0.08627         -0.04707         1.47035
  O         1.01528          0.02354         2.21436
  H        -1.04057          0.10966        -0.34097
  H         0.59805          0.84250        -0.39830
  H         0.40270         -0.92853        -0.39594
6
 step=         168     theta[rad]=           1.7593
  C        -0.00519          0.01009        -0.00950
  C         0.08627         -0.03460         1.47035
  O         1.01528          0.01731         2.21436
  H        -1.04057          0.08060        -0.34097
  H         0.57217          0.85389        -0.39799
  H         0.42858         -0.91713        -0.39625
6
 step=         169     theta[rad]=           1.7698
  C        -0.00519         -0.01759        -0.00950
  C         0.08627          0.06029         1.47035
  O         1.01528         -0.03015         2.21436
  H        -1.04057         -0.14044        -0.34097
  H         0.37528          0.94060        -0.39561
  H         0.62547         -0.83042        -0.39863
6
 step=         170     theta[rad]=           1.7802
  C        -0.00519         -0.00295        -0.00950
  C         0.08627          0.01010         1.47035
  O         1.01528         -0.00505         2.21436
  H        -1.04057         -0.02353        -0.34097
  H         0.47941          0.89475        -0.39687
  H         0.52134         -0.87628        -0.39737
6
 step=         171     theta[rad]=           1.7907
  C        -0.00519          0.01880        -0.00950
  C         0.08627         -0.06445         1.47035
  O         1.01528          0.03223         2.21436
  H        -1.04057          0.15013        -0.34097
  H         0.63410          0.82662        -0.39874
  H         0.36664         -0.94441        -0.39551
6
 step=         172     theta[rad]=           1.8012
  C        -0.00519         -0.00544        -0.00950
  C         0.08627          0.01866         1.47035
  O         1.01528         -0.00933         2.21436
  H        -1.04057         -0.04348        -0.34097
  H         0.46165          0.90257        -0.39665
  H         0.53910         -0.86846        -0.39759
6
 step=         173     theta[rad]=           1.8117
  C        -0.00519         -0.01621        -0.00950
  C         0.08627          0.05558         1.47035
  O         1.01528         -0.02780         2.21436
  H        -1.04057         -0.12948        -0.34097
  H         0.38504          0.93631        -0.39572
  H         0.61571         -0.83472        -0.39851
6
 step=         174     theta[rad]=           1.8221
  C        -0.00519          0.01332        -0.00950
  C         0.08627         -0.04566         1.47035
  O         1.01528          0.02284         2.21436
  H        -1.04057          0.10637        -0.34097
  H         0.59512          0.84379        -0.39827
  H         0.40563         -0.92724        -0.39598
6
 step=         175     theta[rad]=           1.8326
  C        -0.00519          0.00942        -0.00950
  C         0.08627         -0.03229         1.47035
  O         1.01528          0.01615         2.21436
  H        -1.04057          0.07521        -0.34097
  H         0.56737          0.85601        -0.39793
  H         0.43338         -0.91502        -0.39631
6
 step=         176     theta[rad]=           1.8431
  C        -0.00519         -0.01825        -0.00950
  C         0.08627          0.06255         1.47035
  O         1.01528         -0.03128         2.21436
  H        -1.04057         -0.14570        -0.34097
  H         0.37059          0.94267        -0.39555
  H         0.63016         -0.82836        -0.39868
6
 step=         177     theta[rad]=           1.8535
  C        -0.00519          0.00059        -0.00950
  C         0.08627         -0.00203         1.47035
  O         1.01528          0.00101         2.21436
  H        -1.04057          0.00472        -0.34097
  H         0.50458          0.88366        -0.39717
  H         0.49617         -0.88737        -0.39707
6
 step=         178     theta[rad]=           1.8640
  C        -0.00519          0.01785        -0.00950
  C         0.08627         -0.06120         1.47035
  O         1.01528          0.03061         2.21436
  H        -1.04057          0.14257        -0.34097
  H         0.62737          0.82959        -0.39866
  H         0.37338         -0.94144        -0.39559
6
 step=         179     theta[rad]=           1.8745
  C        -0.00519         -0.01107        -0.00950
  C         0.08627          0.03796         1.47035
  O         1.01528         -0.01898         2.21436
  H        -1.04057         -0.08842        -0.34097
  H         0.42162          0.92020        -0.39617
  H         0.57914         -0.85083        -0.39807
6
 step=         180     theta[rad]=           1.8850
  C        -0.00519         -0.01107        -0.00950
  C         0.08627          0.03796         1.47035
  O         1.01528         -0.01898         2.21436
  H        -1.04057         -0.08842        -0.34097
  H         0.42162          0.92020        -0.39617
  H         0.57914         -0.85083        -0.39807
6
 step=         181     theta[rad]=           1.8954
  C        -0.00519          0.01798        -0.00950
  C         0.08627         -0.06162         1.47035
  O         1.01528          0.03082         2.21436
  H        -1.04057          0.14354        -0.34097
  H         0.62824          0.82920        -0.39867
  H         0.37251         -0.94182        -0.39558
6
 step=         182     theta[rad]=           1.9059
  C        -0.00519         -0.00059        -0.00950
  C         0.08627          0.00203         1.47035
  O         1.01528         -0.00101         2.21436
  H        -1.04057         -0.00473        -0.34097
  H         0.49617          0.88737        -0.39707
  H         0.50458         -0.88366        -0.39717
6
 step=         183     theta[rad]=           1.9164
  C        -0.00519         -0.01752        -0.00950
  C         0.08627          0.06004         1.47035
  O         1.01528         -0.03003         2.21436
  H        -1.04057         -0.13986        -0.34097
  H         0.37579          0.94038        -0.39561
  H         0.62496         -0.83065        -0.39862
6
 step=         184     theta[rad]=           1.9268
  C        -0.00519          0.01261        -0.00950
  C         0.08627         -0.04321         1.47035
  O         1.01528          0.02161         2.21436
  H        -1.04057          0.10065        -0.34097
  H         0.59003          0.84603        -0.39820
  H         0.41072         -0.92500        -0.39604
6
 step=         185     theta[rad]=           1.9373
  C        -0.00519          0.00855        -0.00950
  C         0.08627         -0.02932         1.47035
  O         1.01528          0.01466         2.21436
  H        -1.04057          0.06829        -0.34097
  H         0.56121          0.85872        -0.39786
  H         0.43954         -0.91230        -0.39639
6
 step=         186     theta[rad]=           1.9478
  C        -0.00519         -0.01875        -0.00950
  C         0.08627          0.06429         1.47035
  O         1.01528         -0.03215         2.21436
  H        -1.04057         -0.14976        -0.34097
  H         0.36698          0.94426        -0.39550
  H         0.63378         -0.82677        -0.39873
6
 step=         187     theta[rad]=           1.9583
  C        -0.00519          0.00544        -0.00950
  C         0.08627         -0.01866         1.47035
  O         1.01528          0.00933         2.21436
  H        -1.04057          0.04348        -0.34097
  H         0.53910          0.86846        -0.39759
  H         0.46165         -0.90257        -0.39665
6
 step=         188     theta[rad]=           1.9687
  C        -0.00519          0.01451        -0.00950
  C         0.08627         -0.04976         1.47035
  O         1.01528          0.02488         2.21436
  H        -1.04057          0.11591        -0.34097
  H         0.60362          0.84005        -0.39837
  H         0.39713         -0.93098        -0.39587
6
 step=         189     theta[rad]=           1.9792
  C        -0.00519         -0.01678        -0.00950
  C         0.08627          0.05754         1.47035
  O         1.01528         -0.02878         2.21436
  H        -1.04057         -0.13403        -0.34097
  H         0.38099          0.93809        -0.39567
  H         0.61977         -0.83294        -0.39856
6
 step=         190     theta[rad]=           1.9897
  C        -0.00519         -0.00099        -0.00950
  C         0.08627          0.00338         1.47035
  O         1.01528         -0.00169         2.21436
  H        -1.04057         -0.00787        -0.34097
  H         0.49336          0.88860        -0.39703
  H         0.50739         -0.88243        -0.39720
6
 step=         191     theta[rad]=           2.0001
  C        -0.00519          0.01752        -0.00950
  C         0.08627         -0.06004         1.47035
  O         1.01528          0.03003         2.21436
  H        -1.04057          0.13986        -0.34097
  H         0.62496          0.83065        -0.39863
  H         0.37579         -0.94038        -0.39562
6
 step=         192     theta[rad]=           2.0106
  C        -0.00519         -0.01373        -0.00950
  C         0.08627          0.04707         1.47035
  O         1.01528         -0.02354         2.21436
  H        -1.04057         -0.10966        -0.34097
  H         0.40270          0.92853        -0.39594
  H         0.59805         -0.84250        -0.39830
6
 step=         193     theta[rad]=           2.0211
  C        -0.00519         -0.00563        -0.00950
  C         0.08627          0.01931         1.47035
  O         1.01528         -0.00966         2.21436
  H        -1.04057         -0.04498        -0.34097
  H         0.46031          0.90316        -0.39663
  H         0.54045         -0.86787        -0.39760
6
 step=         194     theta[rad]=           2.0316
  C        -0.00519          0.01861        -0.00950
  C         0.08627         -0.06378         1.47035
  O         1.01528          0.03190         2.21436
  H        -1.04057          0.14857        -0.34097
  H         0.63272          0.82723        -0.39872
  H         0.36803         -0.94380        -0.39552
6
 step=         195     theta[rad]=           2.0420
  C        -0.00519         -0.01107        -0.00950
  C         0.08627          0.03796         1.47035
  O         1.01528         -0.01898         2.21436
  H        -1.04057         -0.08842        -0.34097
  H         0.42162          0.92020        -0.39617
  H         0.57914         -0.85083        -0.39807
6
 step=         196     theta[rad]=           2.0525
  C        -0.00519         -0.00838        -0.00950
  C         0.08627          0.02871         1.47035
  O         1.01528         -0.01436         2.21436
  H        -1.04057         -0.06688        -0.34097
  H         0.44080          0.91175        -0.39640
  H         0.55995         -0.85928        -0.39784
6
 step=         197     theta[rad]=           2.0630
  C        -0.00519          0.01883        -0.00950
  C         0.08627         -0.06455         1.47035
  O         1.01528          0.03228         2.21436
  H        -1.04057          0.15035        -0.34097
  H         0.63430          0.82653        -0.39874
  H         0.36645         -0.94449        -0.39550
6
 step=         198     theta[rad]=           2.0735
  C        -0.00519         -0.00959        -0.00950
  C         0.08627          0.03287         1.47035
  O         1.01528         -0.01644         2.21436
  H        -1.04057         -0.07657        -0.34097
  H         0.43217          0.91555        -0.39629
  H         0.56858         -0.85548        -0.39794
6
 step=         199     theta[rad]=           2.0839
  C        -0.00519         -0.00942        -0.00950
  C         0.08627          0.03229         1.47035
  O         1.01528         -0.01615         2.21436
  H        -1.04057         -0.07521        -0.34097
  H         0.43338          0.91502        -0.39631
  H         0.56737         -0.85601        -0.39793
6
 step=         200     theta[rad]=           2.0944
  C        -0.00519          0.01884        -0.00950
  C         0.08627         -0.06458         1.47035
  O         1.01528          0.03230         2.21436
  H        -1.04057          0.15043        -0.34097
  H         0.63437          0.82650        -0.39874
  H         0.36638         -0.94452        -0.39550
6
 step=         201     theta[rad]=           2.1049
  C        -0.00519         -0.00959        -0.00950
  C         0.08627          0.03287         1.47035
  O         1.01528         -0.01644         2.21436
  H        -1.04057         -0.07657        -0.34097
  H         0.43217          0.91555        -0.39629
  H         0.56858         -0.85548        -0.39794
6
 step=         202     theta[rad]=           2.1153
  C        -0.00519         -0.00890        -0.00950
  C         0.08627          0.03052         1.47035
  O         1.01528         -0.01526         2.21436
  H        -1.04057         -0.07108        -0.34097
  H         0.43706          0.91340        -0.39635
  H         0.56369         -0.85763        -0.39788
6
 step=         203     theta[rad]=           2.1258
  C        -0.00519          0.01880        -0.00950
  C         0.08627         -0.06445         1.47035
  O         1.01528          0.03223         2.21436
  H        -1.04057          0.15013        -0.34097
  H         0.63410          0.82662        -0.39874
  H         0.36664         -0.94441        -0.39551
6
 step=         204     theta[rad]=           2.1363
  C        -0.00519         -0.01107        -0.00950
  C         0.08627          0.03796         1.47035
  O         1.01528         -0.01898         2.21436
  H        -1.04057         -0.08842        -0.34097
  H         0.42162          0.92020        -0.39617
  H         0.57914         -0.85083        -0.39807
6
 step=         205     theta[rad]=           2.1468
  C        -0.00519         -0.00675        -0.00950
  C         0.08627          0.02314         1.47035
  O         1.01528         -0.01157         2.21436
  H        -1.04057         -0.05391        -0.34097
  H         0.45236          0.90666        -0.39654
  H         0.54839         -0.86437        -0.39770
6
 step=         206     theta[rad]=           2.1572
  C        -0.00519          0.01838        -0.00950
  C         0.08627         -0.06302         1.47035
  O         1.01528          0.03152         2.21436
  H        -1.04057          0.14680        -0.34097
  H         0.63114          0.82793        -0.39870
  H         0.36961         -0.94310        -0.39554
6
 step=         207     theta[rad]=           2.1677
  C        -0.00519         -0.01373        -0.00950
  C         0.08627          0.04707         1.47035
  O         1.01528         -0.02354         2.21436
  H        -1.04057         -0.10966        -0.34097
  H         0.40270          0.92853        -0.39594
  H         0.59805         -0.84250        -0.39830
6
 step=         208     theta[rad]=           2.1782
  C        -0.00519         -0.00275        -0.00950
  C         0.08627          0.00943         1.47035
  O         1.01528         -0.00472         2.21436
  H        -1.04057         -0.02197        -0.34097
  H         0.48080          0.89413        -0.39688
  H         0.51995         -0.87689        -0.39736
6
 step=         209     theta[rad]=           2.1886
  C        -0.00519          0.01678        -0.00950
  C         0.08627         -0.05754         1.47035
  O         1.01528          0.02878         2.21436
  H        -1.04057          0.13403        -0.34097
  H         0.61976          0.83294        -0.39856
  H         0.38098         -0.93809        -0.39568
6
 step=         210     theta[rad]=           2.1991
  C        -0.00519         -0.01678        -0.00950
  C         0.08627          0.05754         1.47035
  O         1.01528         -0.02878         2.21436
  H        -1.04057         -0.13403        -0.34097
  H         0.38099          0.93809        -0.39567
  H         0.61977         -0.83294        -0.39856
6
 step=         211     theta[rad]=           2.2096
  C        -0.00519          0.00314        -0.00950
  C         0.08627         -0.01077         1.47035
  O         1.01528          0.00539         2.21436
  H        -1.04057          0.02509        -0.34097
  H         0.52272          0.87567        -0.39739
  H         0.47803         -0.89535        -0.39685
6
 step=         212     theta[rad]=           2.2201
  C        -0.00519          0.01290        -0.00950
  C         0.08627         -0.04421         1.47035
  O         1.01528          0.02211         2.21436
  H        -1.04057          0.10297        -0.34097
  H         0.59210          0.84512        -0.39823
  H         0.40865         -0.92591        -0.39601
6
 step=         213     theta[rad]=           2.2305
  C        -0.00519         -0.01875        -0.00950
  C         0.08627          0.06429         1.47035
  O         1.01528         -0.03215         2.21436
  H        -1.04057         -0.14976        -0.34097
  H         0.36698          0.94426        -0.39550
  H         0.63378         -0.82677        -0.39873
6
 step=         214     theta[rad]=           2.2410
  C        -0.00519          0.01026        -0.00950
  C         0.08627         -0.03517         1.47035
  O         1.01528          0.01759         2.21436
  H        -1.04057          0.08193        -0.34097
  H         0.57335          0.85337        -0.39800
  H         0.42740         -0.91765        -0.39624
6
 step=         215     theta[rad]=           2.2515
  C        -0.00519          0.00582        -0.00950
  C         0.08627         -0.01996         1.47035
  O         1.01528          0.00998         2.21436
  H        -1.04057          0.04648        -0.34097
  H         0.54178          0.86728        -0.39762
  H         0.45897         -0.90375        -0.39662
6
 step=         216     theta[rad]=           2.2619
  C        -0.00519         -0.01752        -0.00950
  C         0.08627          0.06004         1.47035
  O         1.01528         -0.03003         2.21436
  H        -1.04057         -0.13986        -0.34097
  H         0.37579          0.94038        -0.39561
  H         0.62496         -0.83065        -0.39862
6
 step=         217     theta[rad]=           2.2724
  C        -0.00519          0.01660        -0.00950
  C         0.08627         -0.05691         1.47035
  O         1.01528          0.02846         2.21436
  H        -1.04057          0.13257        -0.34097
  H         0.61846          0.83351        -0.39855
  H         0.38229         -0.93752        -0.39569
6
 step=         218     theta[rad]=           2.2829
  C        -0.00519         -0.00411        -0.00950
  C         0.08627          0.01409         1.47035
  O         1.01528         -0.00705         2.21436
  H        -1.04057         -0.03281        -0.34097
  H         0.47115          0.89839        -0.39677
  H         0.52961         -0.87264        -0.39747
6
 step=         219     theta[rad]=           2.2934
  C        -0.00519         -0.01107        -0.00950
  C         0.08627          0.03796         1.47035
  O         1.01528         -0.01898         2.21436
  H        -1.04057         -0.08842        -0.34097
  H         0.42162          0.92020        -0.39617
  H         0.57914         -0.85083        -0.39807
6
 step=         220     theta[rad]=           2.3038
  C        -0.00519          0.01873        -0.00950
  C         0.08627         -0.06422         1.47035
  O         1.01528          0.03212         2.21436
  H        -1.04057          0.14960        -0.34097
  H         0.63363          0.82683        -0.39873
  H         0.36711         -0.94420        -0.39551
6
 step=         221     theta[rad]=           2.3143
  C        -0.00519         -0.01413        -0.00950
  C         0.08627          0.04844         1.47035
  O         1.01528         -0.02423         2.21436
  H        -1.04057         -0.11284        -0.34097
  H         0.39987          0.92978        -0.39590
  H         0.60089         -0.84125        -0.39833
6
 step=         222     theta[rad]=           2.3248
  C        -0.00519          0.00059        -0.00950
  C         0.08627         -0.00203         1.47035
  O         1.01528          0.00101         2.21436
  H        -1.04057          0.00472        -0.34097
  H         0.50458          0.88366        -0.39717
  H         0.49617         -0.88737        -0.39707
6
 step=         223     theta[rad]=           2.3353
  C        -0.00519          0.01318        -0.00950
  C         0.08627         -0.04518         1.47035
  O         1.01528          0.02260         2.21436
  H        -1.04057          0.10525        -0.34097
  H         0.59412          0.84423        -0.39825
  H         0.40662         -0.92680        -0.39599
6
 step=         224     theta[rad]=           2.3457
  C        -0.00519         -0.01884        -0.00950
  C         0.08627          0.06458         1.47035
  O         1.01528         -0.03230         2.21436
  H        -1.04057         -0.15043        -0.34097
  H         0.36638          0.94452        -0.39550
  H         0.63437         -0.82650        -0.39874
6
 step=         225     theta[rad]=           2.3562
  C        -0.00519          0.01332        -0.00950
  C         0.08627         -0.04566         1.47035
  O         1.01528          0.02284         2.21436
  H        -1.04057          0.10637        -0.34097
  H         0.59512          0.84379        -0.39827
  H         0.40563         -0.92724        -0.39598
6
 step=         226     theta[rad]=           2.3667
  C        -0.00519         -0.00020        -0.00950
  C         0.08627          0.00068         1.47035
  O         1.01528         -0.00034         2.21436
  H        -1.04057         -0.00158        -0.34097
  H         0.49897          0.88613        -0.39710
  H         0.50178         -0.88490        -0.39714
6
 step=         227     theta[rad]=           2.3771
  C        -0.00519         -0.01290        -0.00950
  C         0.08627          0.04421         1.47035
  O         1.01528         -0.02211         2.21436
  H        -1.04057         -0.10297        -0.34097
  H         0.40865          0.92591        -0.39601
  H         0.59210         -0.84512        -0.39823
6
 step=         228     theta[rad]=           2.3876
  C        -0.00519          0.01880        -0.00950
  C         0.08627         -0.06445         1.47035
  O         1.01528          0.03223         2.21436
  H        -1.04057          0.15013        -0.34097
  H         0.63410          0.82662        -0.39874
  H         0.36664         -0.94441        -0.39551
6
 step=         229     theta[rad]=           2.3981
  C        -0.00519         -0.01464        -0.00950
  C         0.08627          0.05019         1.47035
  O         1.01528         -0.02510         2.21436
  H        -1.04057         -0.11690        -0.34097
  H         0.39624          0.93137        -0.39586
  H         0.60451         -0.83966        -0.39838
6
 step=         230     theta[rad]=           2.4086
  C        -0.00519          0.00295        -0.00950
  C         0.08627         -0.01010         1.47035
  O         1.01528          0.00505         2.21436
  H        -1.04057          0.02353        -0.34097
  H         0.52134          0.87628        -0.39737
  H         0.47941         -0.89474        -0.39687
6
 step=         231     theta[rad]=           2.4190
  C        -0.00519          0.01009        -0.00950
  C         0.08627         -0.03460         1.47035
  O         1.01528          0.01731         2.21436
  H        -1.04057          0.08060        -0.34097
  H         0.57217          0.85389        -0.39799
  H         0.42858         -0.91713        -0.39625
6
 step=         232     theta[rad]=           2.4295
  C        -0.00519         -0.01803        -0.00950
  C         0.08627          0.06182         1.47035
  O         1.01528         -0.03092         2.21436
  H        -1.04057         -0.14401        -0.34097
  H         0.37210          0.94201        -0.39557
  H         0.62865         -0.82902        -0.39867
6
 step=         233     theta[rad]=           2.4400
  C        -0.00519          0.01729        -0.00950
  C         0.08627         -0.05927         1.47035
  O         1.01528          0.02964         2.21436
  H        -1.04057          0.13805        -0.34097
  H         0.62335          0.83136        -0.39861
  H         0.37740         -0.93967        -0.39564
6
 step=         234     theta[rad]=           2.4504
  C        -0.00519         -0.00855        -0.00950
  C         0.08627          0.02932         1.47035
  O         1.01528         -0.01466         2.21436
  H        -1.04057         -0.06829        -0.34097
  H         0.43954          0.91230        -0.39638
  H         0.56121         -0.85872        -0.39785
6
 step=         235     theta[rad]=           2.4609
  C        -0.00519         -0.00392        -0.00950
  C         0.08627          0.01343         1.47035
  O         1.01528         -0.00671         2.21436
  H        -1.04057         -0.03128        -0.34097
  H         0.47252          0.89778        -0.39678
  H         0.52823         -0.87325        -0.39745
6
 step=         236     theta[rad]=           2.4714
  C        -0.00519          0.01451        -0.00950
  C         0.08627         -0.04976         1.47035
  O         1.01528          0.02488         2.21436
  H        -1.04057          0.11591        -0.34097
  H         0.60362          0.84005        -0.39837
  H         0.39713         -0.93098        -0.39587
6
 step=         237     theta[rad]=           2.4819
  C        -0.00519         -0.01883        -0.00950
  C         0.08627          0.06455         1.47035
  O         1.01528         -0.03228         2.21436
  H        -1.04057         -0.15035        -0.34097
  H         0.36645          0.94449        -0.39550
  H         0.63430         -0.82653        -0.39873
6
 step=         238     theta[rad]=           2.4923
  C        -0.00519          0.01536        -0.00950
  C         0.08627         -0.05264         1.47035
  O         1.01528          0.02633         2.21436
  H        -1.04057          0.12262        -0.34097
  H         0.60960          0.83741        -0.39844
  H         0.39115         -0.93361        -0.39580
6
 step=         239     theta[rad]=           2.5028
  C        -0.00519         -0.00582        -0.00950
  C         0.08627          0.01996         1.47035
  O         1.01528         -0.00998         2.21436
  H        -1.04057         -0.04648        -0.34097
  H         0.45897          0.90375        -0.39662
  H         0.54178         -0.86728        -0.39762
6
 step=         240     theta[rad]=           2.5133
  C        -0.00519         -0.00582        -0.00950
  C         0.08627          0.01996         1.47035
  O         1.01528         -0.00998         2.21436
  H        -1.04057         -0.04648        -0.34097
  H         0.45897          0.90375        -0.39662
  H         0.54178         -0.86728        -0.39762
6
 step=         241     theta[rad]=           2.5237
  C        -0.00519          0.01512        -0.00950
  C         0.08627         -0.05184         1.47035
  O         1.01528          0.02593         2.21436
  H        -1.04057          0.12077        -0.34097
  H         0.60795          0.83814        -0.39842
  H         0.39280         -0.93289        -0.39582
6
 step=         242     theta[rad]=           2.5342
  C        -0.00519         -0.01883        -0.00950
  C         0.08627          0.06455         1.47035
  O         1.01528         -0.03228         2.21436
  H        -1.04057         -0.15035        -0.34097
  H         0.36645          0.94449        -0.39550
  H         0.63430         -0.82653        -0.39873
6
 step=         243     theta[rad]=           2.5447
  C        -0.00519          0.01591        -0.00950
  C         0.08627         -0.05452         1.47035
  O         1.01528          0.02727         2.21436
  H        -1.04057          0.12701        -0.34097
  H         0.61351          0.83569        -0.39849
  H         0.38724         -0.93534        -0.39575
6
 step=         244     theta[rad]=           2.5552
  C        -0.00519         -0.00766        -0.00950
  C         0.08627          0.02627         1.47035
  O         1.01528         -0.01314         2.21436
  H        -1.04057         -0.06118        -0.34097
  H         0.44588          0.90952        -0.39646
  H         0.55488         -0.86151        -0.39778
6
 step=         245     theta[rad]=           2.5656
  C        -0.00519         -0.00295        -0.00950
  C         0.08627          0.01010         1.47035
  O         1.01528         -0.00505         2.21436
  H        -1.04057         -0.02353        -0.34097
  H         0.47941          0.89475        -0.39687
  H         0.52134         -0.87628        -0.39737
6
 step=         246     theta[rad]=           2.5761
  C        -0.00519          0.01246        -0.00950
  C         0.08627         -0.04271         1.47035
  O         1.01528          0.02136         2.21436
  H        -1.04057          0.09948        -0.34097
  H         0.58899          0.84649        -0.39819
  H         0.41176         -0.92454        -0.39605
6
 step=         247     theta[rad]=           2.5866
  C        -0.00519         -0.01803        -0.00950
  C         0.08627          0.06182         1.47035
  O         1.01528         -0.03092         2.21436
  H        -1.04057         -0.14401        -0.34097
  H         0.37210          0.94201        -0.39557
  H         0.62865         -0.82902        -0.39867
6
 step=         248     theta[rad]=           2.5970
  C        -0.00519          0.01825        -0.00950
  C         0.08627         -0.06255         1.47035
  O         1.01528          0.03128         2.21436
  H        -1.04057          0.14570        -0.34097
  H         0.63016          0.82836        -0.39869
  H         0.37059         -0.94267        -0.39555
6
 step=         249     theta[rad]=           2.6075
  C        -0.00519         -0.01332        -0.00950
  C         0.08627          0.04566         1.47035
  O         1.01528         -0.02284         2.21436
  H        -1.04057         -0.10637        -0.34097
  H         0.40563          0.92724        -0.39597
  H         0.59512         -0.84379        -0.39826
6
 step=         250     theta[rad]=           2.6180
  C        -0.00519          0.00488        -0.00950
  C         0.08627         -0.01671         1.47035
  O         1.01528          0.00836         2.21436
  H        -1.04057          0.03893        -0.34097
  H         0.53506          0.87024        -0.39754
  H         0.46569         -0.90079        -0.39670
6
 step=         251     theta[rad]=           2.6285
  C        -0.00519          0.00468        -0.00950
  C         0.08627         -0.01606         1.47035
  O         1.01528          0.00803         2.21436
  H        -1.04057          0.03741        -0.34097
  H         0.53370          0.87084        -0.39752
  H         0.46705         -0.90019        -0.39672
6
 step=         252     theta[rad]=           2.6389
  C        -0.00519         -0.01290        -0.00950
  C         0.08627          0.04421         1.47035
  O         1.01528         -0.02211         2.21436
  H        -1.04057         -0.10297        -0.34097
  H         0.40865          0.92591        -0.39601
  H         0.59210         -0.84512        -0.39823
6
 step=         253     theta[rad]=           2.6494
  C        -0.00519          0.01785        -0.00950
  C         0.08627         -0.06120         1.47035
  O         1.01528          0.03061         2.21436
  H        -1.04057          0.14257        -0.34097
  H         0.62737          0.82959        -0.39866
  H         0.37338         -0.94144        -0.39559
6
 step=         254     theta[rad]=           2.6599
  C        -0.00519         -0.01861        -0.00950
  C         0.08627          0.06378         1.47035
  O         1.01528         -0.03190         2.21436
  H        -1.04057         -0.14857        -0.34097
  H         0.36803          0.94380        -0.39552
  H         0.63272         -0.82723        -0.39872
6
 step=         255     theta[rad]=           2.6704
  C        -0.00519          0.01524        -0.00950
  C         0.08627         -0.05224         1.47035
  O         1.01528          0.02613         2.21436
  H        -1.04057          0.12170        -0.34097
  H         0.60878          0.83777        -0.39843
  H         0.39197         -0.93325        -0.39581
6
 step=         256     theta[rad]=           2.6808
  C        -0.00519         -0.00873        -0.00950
  C         0.08627          0.02992         1.47035
  O         1.01528         -0.01496         2.21436
  H        -1.04057         -0.06969        -0.34097
  H         0.43830          0.91285        -0.39637
  H         0.56245         -0.85818        -0.39787
6
 step=         257     theta[rad]=           2.6913
  C        -0.00519          0.00059        -0.00950
  C         0.08627         -0.00203         1.47035
  O         1.01528          0.00101         2.21436
  H        -1.04057          0.00472        -0.34097
  H         0.50458          0.88366        -0.39717
  H         0.49617         -0.88737        -0.39707
6
 step=         258     theta[rad]=           2.7018
  C        -0.00519          0.00748        -0.00950
  C         0.08627         -0.02565         1.47035
  O         1.01528          0.01283         2.21436
  H        -1.04057          0.05974        -0.34097
  H         0.55359          0.86208        -0.39776
  H         0.44716         -0.90895        -0.39648
6
 step=         259     theta[rad]=           2.7122
  C        -0.00519         -0.01400        -0.00950
  C         0.08627          0.04799         1.47035
  O         1.01528         -0.02400         2.21436
  H        -1.04057         -0.11179        -0.34097
  H         0.40080          0.92937        -0.39591
  H         0.59995         -0.84166        -0.39832
6
 step=         260     theta[rad]=           2.7227
  C        -0.00519          0.01792        -0.00950
  C         0.08627         -0.06142         1.47035
  O         1.01528          0.03072         2.21436
  H        -1.04057          0.14306        -0.34097
  H         0.62781          0.82939        -0.39866
  H         0.37294         -0.94163        -0.39558
6
 step=         261     theta[rad]=           2.7332
  C        -0.00519         -0.01875        -0.00950
  C         0.08627          0.06429         1.47035
  O         1.01528         -0.03215         2.21436
  H        -1.04057         -0.14976        -0.34097
  H         0.36698          0.94426        -0.39550
  H         0.63378         -0.82677        -0.39873
6
 step=         262     theta[rad]=           2.7437
  C        -0.00519          0.01660        -0.00950
  C         0.08627         -0.05691         1.47035
  O         1.01528          0.02846         2.21436
  H        -1.04057          0.13257        -0.34097
  H         0.61846          0.83351        -0.39855
  H         0.38229         -0.93752        -0.39569
6
 step=         263     theta[rad]=           2.7541
  C        -0.00519         -0.01201        -0.00950
  C         0.08627          0.04116         1.47035
  O         1.01528         -0.02059         2.21436
  H        -1.04057         -0.09589        -0.34097
  H         0.41497          0.92313        -0.39609
  H         0.58579         -0.84790        -0.39815
6
 step=         264     theta[rad]=           2.7646
  C        -0.00519          0.00582        -0.00950
  C         0.08627         -0.01996         1.47035
  O         1.01528          0.00998         2.21436
  H        -1.04057          0.04648        -0.34097
  H         0.54178          0.86728        -0.39762
  H         0.45897         -0.90375        -0.39662
6
 step=         265     theta[rad]=           2.7751
  C        -0.00519          0.00099        -0.00950
  C         0.08627         -0.00338         1.47035
  O         1.01528          0.00169         2.21436
  H        -1.04057          0.00787        -0.34097
  H         0.50739          0.88243        -0.39720
  H         0.49336         -0.88860        -0.39703
6
 step=         266     theta[rad]=           2.7855
  C        -0.00519         -0.00748        -0.00950
  C         0.08627          0.02565         1.47035
  O         1.01528         -0.01283         2.21436
  H        -1.04057         -0.05974        -0.34097
  H         0.44716          0.90895        -0.39648
  H         0.55359         -0.86208        -0.39776
6
 step=         267     theta[rad]=           2.7960
  C        -0.00519          0.01290        -0.00950
  C         0.08627         -0.04421         1.47035
  O         1.01528          0.02211         2.21436
  H        -1.04057          0.10297        -0.34097
  H         0.59210          0.84512        -0.39823
  H         0.40865         -0.92591        -0.39601
6
 step=         268     theta[rad]=           2.8065
  C        -0.00519         -0.01669        -0.00950
  C         0.08627          0.05723         1.47035
  O         1.01528         -0.02862         2.21436
  H        -1.04057         -0.13331        -0.34097
  H         0.38163          0.93781        -0.39568
  H         0.61912         -0.83322        -0.39855
6
 step=         269     theta[rad]=           2.8170
  C        -0.00519          0.01861        -0.00950
  C         0.08627         -0.06378         1.47035
  O         1.01528          0.03190         2.21436
  H        -1.04057          0.14857        -0.34097
  H         0.63272          0.82723        -0.39872
  H         0.36803         -0.94380        -0.39552
6
 step=         270     theta[rad]=           2.8274
  C        -0.00519         -0.01861        -0.00950
  C         0.08627          0.06378         1.47035
  O         1.01528         -0.03190         2.21436
  H        -1.04057         -0.14857        -0.34097
  H         0.36803          0.94380        -0.39552
  H         0.63272         -0.82723        -0.39872
6
 step=         271     theta[rad]=           2.8379
  C        -0.00519          0.01687        -0.00950
  C         0.08627         -0.05784         1.47035
  O         1.01528          0.02893         2.21436
  H        -1.04057          0.13474        -0.34097
  H         0.62039          0.83266        -0.39857
  H         0.38035         -0.93837        -0.39567
6
 step=         272     theta[rad]=           2.8484
  C        -0.00519         -0.01373        -0.00950
  C         0.08627          0.04707         1.47035
  O         1.01528         -0.02354         2.21436
  H        -1.04057         -0.10966        -0.34097
  H         0.40270          0.92853        -0.39594
  H         0.59805         -0.84250        -0.39830
6
 step=         273     theta[rad]=           2.8588
  C        -0.00519          0.00959        -0.00950
  C         0.08627         -0.03287         1.47035
  O         1.01528          0.01644         2.21436
  H        -1.04057          0.07657        -0.34097
  H         0.56858          0.85548        -0.39794
  H         0.43217         -0.91555        -0.39630
6
 step=         274     theta[rad]=           2.8693
  C        -0.00519         -0.00488        -0.00950
  C         0.08627          0.01671         1.47035
  O         1.01528         -0.00836         2.21436
  H        -1.04057         -0.03893        -0.34097
  H         0.46570          0.90079        -0.39670
  H         0.53506         -0.87024        -0.39754
6
 step=         275     theta[rad]=           2.8798
  C        -0.00519          0.00000        -0.00950
  C         0.08627          0.00000         1.47035
  O         1.01528         -0.00000         2.21436
  H        -1.04057         -0.00000        -0.34097
  H         0.50038          0.88551        -0.39712
  H         0.50038         -0.88551        -0.39712
6
 step=         276     theta[rad]=           2.8903
  C        -0.00519          0.00468        -0.00950
  C         0.08627         -0.01606         1.47035
  O         1.01528          0.00803         2.21436
  H        -1.04057          0.03741        -0.34097
  H         0.53370          0.87084        -0.39752
  H         0.46705         -0.90019        -0.39672
6
 step=         277     theta[rad]=           2.9007
  C        -0.00519         -0.00890        -0.00950
  C         0.08627          0.03052         1.47035
  O         1.01528         -0.01526         2.21436
  H        -1.04057         -0.07108        -0.34097
  H         0.43706          0.91340        -0.39635
  H         0.56369         -0.85763        -0.39788
6
 step=         278     theta[rad]=           2.9112
  C        -0.00519          0.01246        -0.00950
  C         0.08627         -0.04271         1.47035
  O         1.01528          0.02136         2.21436
  H        -1.04057          0.09948        -0.34097
  H         0.58899          0.84649        -0.39819
  H         0.41176         -0.92454        -0.39605
6
 step=         279     theta[rad]=           2.9217
  C        -0.00519         -0.01524        -0.00950
  C         0.08627          0.05224         1.47035
  O         1.01528         -0.02613         2.21436
  H        -1.04057         -0.12170        -0.34097
  H         0.39197          0.93325        -0.39581
  H         0.60878         -0.83777        -0.39843
6
 step=         280     theta[rad]=           2.9322
  C        -0.00519          0.01721        -0.00950
  C         0.08627         -0.05899         1.47035
  O         1.01528          0.02950         2.21436
  H        -1.04057          0.13742        -0.34097
  H         0.62278          0.83161        -0.39860
  H         0.37796         -0.93942        -0.39564
6
 step=         281     theta[rad]=           2.9426
  C        -0.00519         -0.01838        -0.00950
  C         0.08627          0.06302         1.47035
  O         1.01528         -0.03152         2.21436
  H        -1.04057         -0.14680        -0.34097
  H         0.36961          0.94310        -0.39554
  H         0.63114         -0.82793        -0.39870
6
 step=         282     theta[rad]=           2.9531
  C        -0.00519          0.01883        -0.00950
  C         0.08627         -0.06455         1.47035
  O         1.01528          0.03228         2.21436
  H        -1.04057          0.15035        -0.34097
  H         0.63430          0.82653        -0.39874
  H         0.36645         -0.94449        -0.39550
6
 step=         283     theta[rad]=           2.9636
  C        -0.00519         -0.01864        -0.00950
  C         0.08627          0.06388         1.47035
  O         1.01528         -0.03195         2.21436
  H        -1.04057         -0.14881        -0.34097
  H         0.36782          0.94389        -0.39551
  H         0.63293         -0.82714        -0.39872
6
 step=         284     theta[rad]=           2.9740
  C        -0.00519          0.01792        -0.00950
  C         0.08627         -0.06142         1.47035
  O         1.01528          0.03072         2.21436
  H        -1.04057          0.14306        -0.34097
  H         0.62781          0.82939        -0.39866
  H         0.37294         -0.94163        -0.39558
6
 step=         285     theta[rad]=           2.9845
  C        -0.00519         -0.01678        -0.00950
  C         0.08627          0.05754         1.47035
  O         1.01528         -0.02878         2.21436
  H        -1.04057         -0.13403        -0.34097
  H         0.38099          0.93809        -0.39567
  H         0.61977         -0.83294        -0.39856
6
 step=         286     theta[rad]=           2.9950
  C        -0.00519          0.01536        -0.00950
  C         0.08627         -0.05264         1.47035
  O         1.01528          0.02633         2.21436
  H        -1.04057          0.12262        -0.34097
  H         0.60960          0.83741        -0.39844
  H         0.39115         -0.93361        -0.39580
6
 step=         287     theta[rad]=           3.0055
  C        -0.00519         -0.01373        -0.00950
  C         0.08627          0.04707         1.47035
  O         1.01528         -0.02354         2.21436
  H        -1.04057         -0.10966        -0.34097
  H         0.40270          0.92853        -0.39594
  H         0.59805         -0.84250        -0.39830
6
 step=         288     theta[rad]=           3.0159
  C        -0.00519          0.01201        -0.00950
  C         0.08627         -0.04116         1.47035
  O         1.01528          0.02059         2.21436
  H        -1.04057          0.09589        -0.34097
  H         0.58579          0.84790        -0.39815
  H         0.41496         -0.92313        -0.39609
6
 step=         289     theta[rad]=           3.0264
  C        -0.00519         -0.01026        -0.00950
  C         0.08627          0.03517         1.47035
  O         1.01528         -0.01759         2.21436
  H        -1.04057         -0.08193        -0.34097
  H         0.42740          0.91765        -0.39624
  H         0.57335         -0.85338        -0.39800
6
 step=         290     theta[rad]=           3.0369
  C        -0.00519          0.00855        -0.00950
  C         0.08627         -0.02932         1.47035
  O         1.01528          0.01466         2.21436
  H        -1.04057          0.06829        -0.34097
  H         0.56121          0.85872        -0.39786
  H         0.43954         -0.91230        -0.39639
6
 step=         291     theta[rad]=           3.0473
  C        -0.00519         -0.00693        -0.00950
  C         0.08627          0.02377         1.47035
  O         1.01528         -0.01189         2.21436
  H        -1.04057         -0.05538        -0.34097
  H         0.45105          0.90724        -0.39652
  H         0.54970         -0.86379        -0.39771
6
 step=         292     theta[rad]=           3.0578
  C        -0.00519          0.00544        -0.00950
  C         0.08627         -0.01866         1.47035
  O         1.01528          0.00933         2.21436
  H        -1.04057          0.04348        -0.34097
  H         0.53910          0.86846        -0.39759
  H         0.46165         -0.90257        -0.39665
6
 step=         293     theta[rad]=           3.0683
  C        -0.00519         -0.00411        -0.00950
  C         0.08627          0.01409         1.47035
  O         1.01528         -0.00705         2.21436
  H        -1.04057         -0.03281        -0.34097
  H         0.47115          0.89839        -0.39677
  H         0.52961         -0.87264        -0.39747
6
 step=         294     theta[rad]=           3.0788
  C        -0.00519          0.00295        -0.00950
  C         0.08627         -0.01010         1.47035
  O         1.01528          0.00505         2.21436
  H        -1.04057          0.02353        -0.34097
  H         0.52134          0.87628        -0.39737
  H         0.47941         -0.89474        -0.39687
6
 step=         295     theta[rad]=           3.0892
  C        -0.00519         -0.00197        -0.00950
  C         0.08627          0.00675         1.47035
  O         1.01528         -0.00338         2.21436
  H        -1.04057         -0.01572        -0.34097
  H         0.48637          0.89168        -0.39695
  H         0.51438         -0.87935        -0.39729
6
 step=         296     theta[rad]=           3.0997
  C        -0.00519          0.00118        -0.00950
  C         0.08627         -0.00405         1.47035
  O         1.01528          0.00203         2.21436
  H        -1.04057          0.00945        -0.34097
  H         0.50879          0.88181        -0.39722
  H         0.49196         -0.88922        -0.39702
6
 step=         297     theta[rad]=           3.1102
  C        -0.00519         -0.00059        -0.00950
  C         0.08627          0.00203         1.47035
  O         1.01528         -0.00101         2.21436
  H        -1.04057         -0.00473        -0.34097
  H         0.49617          0.88737        -0.39707
  H         0.50458         -0.88366        -0.39717
6
 step=         298     theta[rad]=           3.1206
  C        -0.00519          0.00020        -0.00950
  C         0.08627         -0.00068         1.47035
  O         1.01528          0.00034         2.21436
  H        -1.04057          0.00158        -0.34097
  H         0.50178          0.88490        -0.39714
  H         0.49897         -0.88613        -0.39710
6
 step=         299     theta[rad]=           3.1311
  C        -0.00519          0.00000        -0.00950
  C         0.08627          0.00000         1.47035
  O         1.01528         -0.00000         2.21436
  H        -1.04057         -0.00000        -0.34097
  H         0.50038          0.88551        -0.39712
  H         0.50038         -0.88551        -0.39712
6
 step=         300     theta[rad]=           3.1416
  C        -0.00519          0.00000        -0.00950
  C         0.08627          0.00000         1.47035
  O         1.01528         -0.00000         2.21436
  H        -1.04057         -0.00000        -0.34097
  H         0.50038          0.88551        -0.39712
  H         0.50038         -0.88551        -0.39712
6
 step=         301     theta[rad]=           3.1521
  C        -0.00519         -0.00020        -0.00950
  C         0.08627          0.00068         1.47035
  O         1.01528         -0.00034         2.21436
  H        -1.04057         -0.00158        -0.34097
  H         0.49897          0.88613        -0.39710
  H         0.50178         -0.88490        -0.39714
6
 step=         302     theta[rad]=           3.1625
  C        -0.00519          0.00059        -0.00950
  C         0.08627         -0.00203         1.47035
  O         1.01528          0.00101         2.21436
  H        -1.04057          0.00472        -0.34097
  H         0.50458          0.88366        -0.39717
  H         0.49617         -0.88737        -0.39707
6
 step=         303     theta[rad]=           3.1730
  C        -0.00519         -0.00118        -0.00950
  C         0.08627          0.00405         1.47035
  O         1.01528         -0.00203         2.21436
  H        -1.04057         -0.00945        -0.34097
  H         0.49196          0.88922        -0.39702
  H         0.50879         -0.88181        -0.39722
6
 step=         304     theta[rad]=           3.1835
  C        -0.00519          0.00197        -0.00950
  C         0.08627         -0.00675         1.47035
  O         1.01528          0.00338         2.21436
  H        -1.04057          0.01572        -0.34097
  H         0.51438          0.87935        -0.39729
  H         0.48637         -0.89168        -0.39695
6
 step=         305     theta[rad]=           3.1940
  C        -0.00519         -0.00295        -0.00950
  C         0.08627          0.01010         1.47035
  O         1.01528         -0.00505         2.21436
  H        -1.04057         -0.02353        -0.34097
  H         0.47941          0.89475        -0.39687
  H         0.52134         -0.87628        -0.39737
6
 step=         306     theta[rad]=           3.2044
  C        -0.00519          0.00411        -0.00950
  C         0.08627         -0.01409         1.47035
  O         1.01528          0.00705         2.21436
  H        -1.04057          0.03281        -0.34097
  H         0.52960          0.87264        -0.39747
  H         0.47115         -0.89839        -0.39677
6
 step=         307     theta[rad]=           3.2149
  C        -0.00519         -0.00544        -0.00950
  C         0.08627          0.01866         1.47035
  O         1.01528         -0.00933         2.21436
  H        -1.04057         -0.04348        -0.34097
  H         0.46165          0.90257        -0.39665
  H         0.53910         -0.86846        -0.39759
6
 step=         308     theta[rad]=           3.2254
  C        -0.00519          0.00693        -0.00950
  C         0.08627         -0.02377         1.47035
  O         1.01528          0.01189         2.21436
  H        -1.04057          0.05538        -0.34097
  H         0.54970          0.86379        -0.39772
  H         0.45105         -0.90724        -0.39652
6
 step=         309     theta[rad]=           3.2358
  C        -0.00519         -0.00855        -0.00950
  C         0.08627          0.02932         1.47035
  O         1.01528         -0.01466         2.21436
  H        -1.04057         -0.06829        -0.34097
  H         0.43954          0.91230        -0.39638
  H         0.56121         -0.85872        -0.39785
6
 step=         310     theta[rad]=           3.2463
  C        -0.00519          0.01026        -0.00950
  C         0.08627         -0.03517         1.47035
  O         1.01528          0.01759         2.21436
  H        -1.04057          0.08193        -0.34097
  H         0.57335          0.85337        -0.39800
  H         0.42740         -0.91765        -0.39624
6
 step=         311     theta[rad]=           3.2568
  C        -0.00519         -0.01201        -0.00950
  C         0.08627          0.04116         1.47035
  O         1.01528         -0.02059         2.21436
  H        -1.04057         -0.09589        -0.34097
  H         0.41497          0.92313        -0.39609
  H         0.58579         -0.84790        -0.39815
6
 step=         312     theta[rad]=           3.2673
  C        -0.00519          0.01373        -0.00950
  C         0.08627         -0.04707         1.47035
  O         1.01528          0.02354         2.21436
  H        -1.04057          0.10966        -0.34097
  H         0.59805          0.84250        -0.39830
  H         0.40270         -0.92853        -0.39594
6
 step=         313     theta[rad]=           3.2777
  C        -0.00519         -0.01536        -0.00950
  C         0.08627          0.05264         1.47035
  O         1.01528         -0.02633         2.21436
  H        -1.04057         -0.12262        -0.34097
  H         0.39115          0.93361        -0.39580
  H         0.60960         -0.83741        -0.39844
6
 step=         314     theta[rad]=           3.2882
  C        -0.00519          0.01678        -0.00950
  C         0.08627         -0.05754         1.47035
  O         1.01528          0.02878         2.21436
  H        -1.04057          0.13403        -0.34097
  H         0.61976          0.83294        -0.39856
  H         0.38098         -0.93809        -0.39568
6
 step=         315     theta[rad]=           3.2987
  C        -0.00519         -0.01792        -0.00950
  C         0.08627          0.06142         1.47035
  O         1.01528         -0.03072         2.21436
  H        -1.04057         -0.14306        -0.34097
  H         0.37294          0.94164        -0.39558
  H         0.62781         -0.82939        -0.39866
6
 step=         316     theta[rad]=           3.3091
  C        -0.00519          0.01864        -0.00950
  C         0.08627         -0.06388         1.47035
  O         1.01528          0.03195         2.21436
  H        -1.04057          0.14881        -0.34097
  H         0.63293          0.82714        -0.39872
  H         0.36782         -0.94389        -0.39552
6
 step=         317     theta[rad]=           3.3196
  C        -0.00519         -0.01883        -0.00950
  C         0.08627          0.06455         1.47035
  O         1.01528         -0.03228         2.21436
  H        -1.04057         -0.15035        -0.34097
  H         0.36645          0.94449        -0.39550
  H         0.63430         -0.82653        -0.39873
6
 step=         318     theta[rad]=           3.3301
  C        -0.00519          0.01838        -0.00950
  C         0.08627         -0.06302         1.47035
  O         1.01528          0.03152         2.21436
  H        -1.04057          0.14680        -0.34097
  H         0.63114          0.82793        -0.39870
  H         0.36961         -0.94310        -0.39554
6
 step=         319     theta[rad]=           3.3406
  C        -0.00519         -0.01721        -0.00950
  C         0.08627          0.05899         1.47035
  O         1.01528         -0.02950         2.21436
  H        -1.04057         -0.13742        -0.34097
  H         0.37797          0.93942        -0.39564
  H         0.62279         -0.83161        -0.39860
6
 step=         320     theta[rad]=           3.3510
  C        -0.00519          0.01524        -0.00950
  C         0.08627         -0.05224         1.47035
  O         1.01528          0.02613         2.21436
  H        -1.04057          0.12170        -0.34097
  H         0.60878          0.83777        -0.39843
  H         0.39197         -0.93325        -0.39581
6
 step=         321     theta[rad]=           3.3615
  C        -0.00519         -0.01246        -0.00950
  C         0.08627          0.04271         1.47035
  O         1.01528         -0.02136         2.21436
  H        -1.04057         -0.09948        -0.34097
  H         0.41176          0.92454        -0.39605
  H         0.58899         -0.84649        -0.39819
6
 step=         322     theta[rad]=           3.3720
  C        -0.00519          0.00890        -0.00950
  C         0.08627         -0.03052         1.47035
  O         1.01528          0.01526         2.21436
  H        -1.04057          0.07108        -0.34097
  H         0.56369          0.85763        -0.39789
  H         0.43706         -0.91340        -0.39636
6
 step=         323     theta[rad]=           3.3824
  C        -0.00519         -0.00468        -0.00950
  C         0.08627          0.01606         1.47035
  O         1.01528         -0.00803         2.21436
  H        -1.04057         -0.03741        -0.34097
  H         0.46705          0.90019        -0.39672
  H         0.53370         -0.87084        -0.39752
6
 step=         324     theta[rad]=           3.3929
  C        -0.00519          0.00000        -0.00950
  C         0.08627          0.00000         1.47035
  O         1.01528         -0.00000         2.21436
  H        -1.04057         -0.00000        -0.34097
  H         0.50038          0.88551        -0.39712
  H         0.50038         -0.88551        -0.39712
6
 step=         325     theta[rad]=           3.4034
  C        -0.00519          0.00488        -0.00950
  C         0.08627         -0.01671         1.47035
  O         1.01528          0.00836         2.21436
  H        -1.04057          0.03893        -0.34097
  H         0.53506          0.87024        -0.39754
  H         0.46569         -0.90079        -0.39670
6
 step=         326     theta[rad]=           3.4139
  C        -0.00519         -0.00959        -0.00950
  C         0.08627          0.03287         1.47035
  O         1.01528         -0.01644         2.21436
  H        -1.04057         -0.07657        -0.34097
  H         0.43217          0.91555        -0.39629
  H         0.56858         -0.85548        -0.39794
6
 step=         327     theta[rad]=           3.4243
  C        -0.00519          0.01373        -0.00950
  C         0.08627         -0.04707         1.47035
  O         1.01528          0.02354         2.21436
  H        -1.04057          0.10966        -0.34097
  H         0.59805          0.84250        -0.39830
  H         0.40270         -0.92853        -0.39594
6
 step=         328     theta[rad]=           3.4348
  C        -0.00519         -0.01687        -0.00950
  C         0.08627          0.05784         1.47035
  O         1.01528         -0.02893         2.21436
  H        -1.04057         -0.13474        -0.34097
  H         0.38036          0.93837        -0.39567
  H         0.62040         -0.83266        -0.39857
6
 step=         329     theta[rad]=           3.4453
  C        -0.00519          0.01861        -0.00950
  C         0.08627         -0.06378         1.47035
  O         1.01528          0.03190         2.21436
  H        -1.04057          0.14857        -0.34097
  H         0.63272          0.82723        -0.39872
  H         0.36803         -0.94380        -0.39552
6
 step=         330     theta[rad]=           3.4558
  C        -0.00519         -0.01861        -0.00950
  C         0.08627          0.06378         1.47035
  O         1.01528         -0.03190         2.21436
  H        -1.04057         -0.14857        -0.34097
  H         0.36803          0.94380        -0.39552
  H         0.63272         -0.82723        -0.39872
6
 step=         331     theta[rad]=           3.4662
  C        -0.00519          0.01669        -0.00950
  C         0.08627         -0.05723         1.47035
  O         1.01528          0.02862         2.21436
  H        -1.04057          0.13331        -0.34097
  H         0.61912          0.83322        -0.39856
  H         0.38163         -0.93781        -0.39569
6
 step=         332     theta[rad]=           3.4767
  C        -0.00519         -0.01290        -0.00950
  C         0.08627          0.04421         1.47035
  O         1.01528         -0.02211         2.21436
  H        -1.04057         -0.10297        -0.34097
  H         0.40865          0.92591        -0.39601
  H         0.59210         -0.84512        -0.39823
6
 step=         333     theta[rad]=           3.4872
  C        -0.00519          0.00748        -0.00950
  C         0.08627         -0.02565         1.47035
  O         1.01528          0.01283         2.21436
  H        -1.04057          0.05974        -0.34097
  H         0.55359          0.86208        -0.39776
  H         0.44716         -0.90895        -0.39648
6
 step=         334     theta[rad]=           3.4976
  C        -0.00519         -0.00099        -0.00950
  C         0.08627          0.00338         1.47035
  O         1.01528         -0.00169         2.21436
  H        -1.04057         -0.00787        -0.34097
  H         0.49336          0.88860        -0.39703
  H         0.50739         -0.88243        -0.39720
6
 step=         335     theta[rad]=           3.5081
  C        -0.00519         -0.00582        -0.00950
  C         0.08627          0.01996         1.47035
  O         1.01528         -0.00998         2.21436
  H        -1.04057         -0.04648        -0.34097
  H         0.45897          0.90375        -0.39662
  H         0.54178         -0.86728        -0.39762
6
 step=         336     theta[rad]=           3.5186
  C        -0.00519          0.01201        -0.00950
  C         0.08627         -0.04116         1.47035
  O         1.01528          0.02059         2.21436
  H        -1.04057          0.09589        -0.34097
  H         0.58579          0.84790        -0.39815
  H         0.41496         -0.92313        -0.39609
6
 step=         337     theta[rad]=           3.5291
  C        -0.00519         -0.01660        -0.00950
  C         0.08627          0.05691         1.47035
  O         1.01528         -0.02846         2.21436
  H        -1.04057         -0.13257        -0.34097
  H         0.38229          0.93752        -0.39569
  H         0.61847         -0.83351        -0.39854
6
 step=         338     theta[rad]=           3.5395
  C        -0.00519          0.01875        -0.00950
  C         0.08627         -0.06429         1.47035
  O         1.01528          0.03215         2.21436
  H        -1.04057          0.14976        -0.34097
  H         0.63377          0.82677        -0.39873
  H         0.36698         -0.94426        -0.39551
6
 step=         339     theta[rad]=           3.5500
  C        -0.00519         -0.01792        -0.00950
  C         0.08627          0.06142         1.47035
  O         1.01528         -0.03072         2.21436
  H        -1.04057         -0.14306        -0.34097
  H         0.37294          0.94164        -0.39558
  H         0.62781         -0.82939        -0.39866
6
 step=         340     theta[rad]=           3.5605
  C        -0.00519          0.01400        -0.00950
  C         0.08627         -0.04799         1.47035
  O         1.01528          0.02400         2.21436
  H        -1.04057          0.11179        -0.34097
  H         0.59995          0.84166        -0.39832
  H         0.40080         -0.92937        -0.39592
6
 step=         341     theta[rad]=           3.5709
  C        -0.00519         -0.00748        -0.00950
  C         0.08627          0.02565         1.47035
  O         1.01528         -0.01283         2.21436
  H        -1.04057         -0.05974        -0.34097
  H         0.44716          0.90895        -0.39648
  H         0.55359         -0.86208        -0.39776
6
 step=         342     theta[rad]=           3.5814
  C        -0.00519         -0.00059        -0.00950
  C         0.08627          0.00203         1.47035
  O         1.01528         -0.00101         2.21436
  H        -1.04057         -0.00473        -0.34097
  H         0.49617          0.88737        -0.39707
  H         0.50458         -0.88366        -0.39717
6
 step=         343     theta[rad]=           3.5919
  C        -0.00519          0.00873        -0.00950
  C         0.08627         -0.02992         1.47035
  O         1.01528          0.01496         2.21436
  H        -1.04057          0.06969        -0.34097
  H         0.56245          0.85817        -0.39787
  H         0.43830         -0.91285        -0.39637
6
 step=         344     theta[rad]=           3.6024
  C        -0.00519         -0.01524        -0.00950
  C         0.08627          0.05224         1.47035
  O         1.01528         -0.02613         2.21436
  H        -1.04057         -0.12170        -0.34097
  H         0.39197          0.93325        -0.39581
  H         0.60878         -0.83777        -0.39843
6
 step=         345     theta[rad]=           3.6128
  C        -0.00519          0.01861        -0.00950
  C         0.08627         -0.06378         1.47035
  O         1.01528          0.03190         2.21436
  H        -1.04057          0.14857        -0.34097
  H         0.63272          0.82723        -0.39872
  H         0.36803         -0.94380        -0.39552
6
 step=         346     theta[rad]=           3.6233
  C        -0.00519         -0.01785        -0.00950
  C         0.08627          0.06120         1.47035
  O         1.01528         -0.03061         2.21436
  H        -1.04057         -0.14257        -0.34097
  H         0.37338          0.94144        -0.39558
  H         0.62737         -0.82959        -0.39865
6
 step=         347     theta[rad]=           3.6338
  C        -0.00519          0.01290        -0.00950
  C         0.08627         -0.04421         1.47035
  O         1.01528          0.02211         2.21436
  H        -1.04057          0.10297        -0.34097
  H         0.59210          0.84512        -0.39823
  H         0.40865         -0.92591        -0.39601
6
 step=         348     theta[rad]=           3.6442
  C        -0.00519         -0.00468        -0.00950
  C         0.08627          0.01606         1.47035
  O         1.01528         -0.00803         2.21436
  H        -1.04057         -0.03741        -0.34097
  H         0.46705          0.90019        -0.39672
  H         0.53370         -0.87084        -0.39752
6
 step=         349     theta[rad]=           3.6547
  C        -0.00519         -0.00488        -0.00950
  C         0.08627          0.01671         1.47035
  O         1.01528         -0.00836         2.21436
  H        -1.04057         -0.03893        -0.34097
  H         0.46570          0.90079        -0.39670
  H         0.53506         -0.87024        -0.39754
6
 step=         350     theta[rad]=           3.6652
  C        -0.00519          0.01332        -0.00950
  C         0.08627         -0.04566         1.47035
  O         1.01528          0.02284         2.21436
  H        -1.04057          0.10637        -0.34097
  H         0.59512          0.84379        -0.39827
  H         0.40563         -0.92724        -0.39598
6
 step=         351     theta[rad]=           3.6757
  C        -0.00519         -0.01825        -0.00950
  C         0.08627          0.06255         1.47035
  O         1.01528         -0.03128         2.21436
  H        -1.04057         -0.14570        -0.34097
  H         0.37059          0.94267        -0.39555
  H         0.63016         -0.82836        -0.39868
6
 step=         352     theta[rad]=           3.6861
  C        -0.00519          0.01803        -0.00950
  C         0.08627         -0.06182         1.47035
  O         1.01528          0.03092         2.21436
  H        -1.04057          0.14401        -0.34097
  H         0.62865          0.82902        -0.39867
  H         0.37210         -0.94200        -0.39557
6
 step=         353     theta[rad]=           3.6966
  C        -0.00519         -0.01246        -0.00950
  C         0.08627          0.04271         1.47035
  O         1.01528         -0.02136         2.21436
  H        -1.04057         -0.09948        -0.34097
  H         0.41176          0.92454        -0.39605
  H         0.58899         -0.84649        -0.39819
6
 step=         354     theta[rad]=           3.7071
  C        -0.00519          0.00295        -0.00950
  C         0.08627         -0.01010         1.47035
  O         1.01528          0.00505         2.21436
  H        -1.04057          0.02353        -0.34097
  H         0.52134          0.87628        -0.39737
  H         0.47941         -0.89474        -0.39687
6
 step=         355     theta[rad]=           3.7176
  C        -0.00519          0.00766        -0.00950
  C         0.08627         -0.02627         1.47035
  O         1.01528          0.01314         2.21436
  H        -1.04057          0.06118        -0.34097
  H         0.55487          0.86151        -0.39778
  H         0.44587         -0.90951        -0.39646
6
 step=         356     theta[rad]=           3.7280
  C        -0.00519         -0.01591        -0.00950
  C         0.08627          0.05452         1.47035
  O         1.01528         -0.02727         2.21436
  H        -1.04057         -0.12701        -0.34097
  H         0.38724          0.93534        -0.39575
  H         0.61351         -0.83569        -0.39848
6
 step=         357     theta[rad]=           3.7385
  C        -0.00519          0.01883        -0.00950
  C         0.08627         -0.06455         1.47035
  O         1.01528          0.03228         2.21436
  H        -1.04057          0.15035        -0.34097
  H         0.63430          0.82653        -0.39874
  H         0.36645         -0.94449        -0.39550
6
 step=         358     theta[rad]=           3.7490
  C        -0.00519         -0.01512        -0.00950
  C         0.08627          0.05184         1.47035
  O         1.01528         -0.02593         2.21436
  H        -1.04057         -0.12077        -0.34097
  H         0.39280          0.93289        -0.39582
  H         0.60795         -0.83814        -0.39842
6
 step=         359     theta[rad]=           3.7594
  C        -0.00519          0.00582        -0.00950
  C         0.08627         -0.01996         1.47035
  O         1.01528          0.00998         2.21436
  H        -1.04057          0.04648        -0.34097
  H         0.54178          0.86728        -0.39762
  H         0.45897         -0.90375        -0.39662
6
 step=         360     theta[rad]=           3.7699
  C        -0.00519          0.00582        -0.00950
  C         0.08627         -0.01996         1.47035
  O         1.01528          0.00998         2.21436
  H        -1.04057          0.04648        -0.34097
  H         0.54178          0.86728        -0.39762
  H         0.45897         -0.90375        -0.39662
6
 step=         361     theta[rad]=           3.7804
  C        -0.00519         -0.01536        -0.00950
  C         0.08627          0.05264         1.47035
  O         1.01528         -0.02633         2.21436
  H        -1.04057         -0.12262        -0.34097
  H         0.39115          0.93361        -0.39580
  H         0.60960         -0.83741        -0.39844
6
 step=         362     theta[rad]=           3.7909
  C        -0.00519          0.01883        -0.00950
  C         0.08627         -0.06455         1.47035
  O         1.01528          0.03228         2.21436
  H        -1.04057          0.15035        -0.34097
  H         0.63430          0.82653        -0.39874
  H         0.36645         -0.94449        -0.39550
6
 step=         363     theta[rad]=           3.8013
  C        -0.00519         -0.01451        -0.00950
  C         0.08627          0.04976         1.47035
  O         1.01528         -0.02488         2.21436
  H        -1.04057         -0.11591        -0.34097
  H         0.39713          0.93098        -0.39587
  H         0.60362         -0.84005        -0.39836
6
 step=         364     theta[rad]=           3.8118
  C        -0.00519          0.00392        -0.00950
  C         0.08627         -0.01343         1.47035
  O         1.01528          0.00671         2.21436
  H        -1.04057          0.03128        -0.34097
  H         0.52823          0.87325        -0.39746
  H         0.47252         -0.89778        -0.39678
6
 step=         365     theta[rad]=           3.8223
  C        -0.00519          0.00855        -0.00950
  C         0.08627         -0.02932         1.47035
  O         1.01528          0.01466         2.21436
  H        -1.04057          0.06829        -0.34097
  H         0.56121          0.85872        -0.39786
  H         0.43954         -0.91230        -0.39639
6
 step=         366     theta[rad]=           3.8327
  C        -0.00519         -0.01729        -0.00950
  C         0.08627          0.05927         1.47035
  O         1.01528         -0.02964         2.21436
  H        -1.04057         -0.13805        -0.34097
  H         0.37740          0.93967        -0.39563
  H         0.62335         -0.83136        -0.39860
6
 step=         367     theta[rad]=           3.8432
  C        -0.00519          0.01803        -0.00950
  C         0.08627         -0.06182         1.47035
  O         1.01528          0.03092         2.21436
  H        -1.04057          0.14401        -0.34097
  H         0.62865          0.82902        -0.39867
  H         0.37210         -0.94200        -0.39557
6
 step=         368     theta[rad]=           3.8537
  C        -0.00519         -0.01009        -0.00950
  C         0.08627          0.03460         1.47035
  O         1.01528         -0.01731         2.21436
  H        -1.04057         -0.08060        -0.34097
  H         0.42858          0.91713        -0.39625
  H         0.57217         -0.85390        -0.39798
6
 step=         369     theta[rad]=           3.8642
  C        -0.00519         -0.00295        -0.00950
  C         0.08627          0.01010         1.47035
  O         1.01528         -0.00505         2.21436
  H        -1.04057         -0.02353        -0.34097
  H         0.47941          0.89475        -0.39687
  H         0.52134         -0.87628        -0.39737
6
 step=         370     theta[rad]=           3.8746
  C        -0.00519          0.01464        -0.00950
  C         0.08627         -0.05019         1.47035
  O         1.01528          0.02510         2.21436
  H        -1.04057          0.11690        -0.34097
  H         0.60451          0.83965        -0.39838
  H         0.39624         -0.93137        -0.39586
6
 step=         371     theta[rad]=           3.8851
  C        -0.00519         -0.01880        -0.00950
  C         0.08627          0.06445         1.47035
  O         1.01528         -0.03223         2.21436
  H        -1.04057         -0.15013        -0.34097
  H         0.36665          0.94441        -0.39550
  H         0.63411         -0.82662        -0.39873
6
 step=         372     theta[rad]=           3.8956
  C        -0.00519          0.01290        -0.00950
  C         0.08627         -0.04421         1.47035
  O         1.01528          0.02211         2.21436
  H        -1.04057          0.10297        -0.34097
  H         0.59210          0.84512        -0.39823
  H         0.40865         -0.92591        -0.39601
6
 step=         373     theta[rad]=           3.9060
  C        -0.00519          0.00020        -0.00950
  C         0.08627         -0.00068         1.47035
  O         1.01528          0.00034         2.21436
  H        -1.04057          0.00158        -0.34097
  H         0.50178          0.88490        -0.39714
  H         0.49897         -0.88613        -0.39710
6
 step=         374     theta[rad]=           3.9165
  C        -0.00519         -0.01332        -0.00950
  C         0.08627          0.04566         1.47035
  O         1.01528         -0.02284         2.21436
  H        -1.04057         -0.10637        -0.34097
  H         0.40563          0.92724        -0.39597
  H         0.59512         -0.84379        -0.39826
6
 step=         375     theta[rad]=           3.9270
  C        -0.00519          0.01884        -0.00950
  C         0.08627         -0.06458         1.47035
  O         1.01528          0.03230         2.21436
  H        -1.04057          0.15043        -0.34097
  H         0.63437          0.82650        -0.39874
  H         0.36638         -0.94452        -0.39550
6
 step=         376     theta[rad]=           3.9375
  C        -0.00519         -0.01318        -0.00950
  C         0.08627          0.04518         1.47035
  O         1.01528         -0.02260         2.21436
  H        -1.04057         -0.10525        -0.34097
  H         0.40663          0.92680        -0.39598
  H         0.59413         -0.84423        -0.39825
6
 step=         377     theta[rad]=           3.9479
  C        -0.00519         -0.00059        -0.00950
  C         0.08627          0.00203         1.47035
  O         1.01528         -0.00101         2.21436
  H        -1.04057         -0.00473        -0.34097
  H         0.49617          0.88737        -0.39707
  H         0.50458         -0.88366        -0.39717
6
 step=         378     theta[rad]=           3.9584
  C        -0.00519          0.01413        -0.00950
  C         0.08627         -0.04844         1.47035
  O         1.01528          0.02423         2.21436
  H        -1.04057          0.11284        -0.34097
  H         0.60088          0.84125        -0.39834
  H         0.39986         -0.92978        -0.39591
6
 step=         379     theta[rad]=           3.9689
  C        -0.00519         -0.01873        -0.00950
  C         0.08627          0.06422         1.47035
  O         1.01528         -0.03212         2.21436
  H        -1.04057         -0.14960        -0.34097
  H         0.36712          0.94420        -0.39551
  H         0.63364         -0.82683        -0.39873
6
 step=         380     theta[rad]=           3.9794
  C        -0.00519          0.01107        -0.00950
  C         0.08627         -0.03796         1.47035
  O         1.01528          0.01898         2.21436
  H        -1.04057          0.08842        -0.34097
  H         0.57913          0.85083        -0.39807
  H         0.42162         -0.92020        -0.39617
6
 step=         381     theta[rad]=           3.9898
  C        -0.00519          0.00411        -0.00950
  C         0.08627         -0.01409         1.47035
  O         1.01528          0.00705         2.21436
  H        -1.04057          0.03281        -0.34097
  H         0.52960          0.87264        -0.39747
  H         0.47115         -0.89839        -0.39677
6
 step=         382     theta[rad]=           4.0003
  C        -0.00519         -0.01660        -0.00950
  C         0.08627          0.05691         1.47035
  O         1.01528         -0.02846         2.21436
  H        -1.04057         -0.13257        -0.34097
  H         0.38229          0.93752        -0.39569
  H         0.61847         -0.83351        -0.39854
6
 step=         383     theta[rad]=           4.0108
  C        -0.00519          0.01752        -0.00950
  C         0.08627         -0.06004         1.47035
  O         1.01528          0.03003         2.21436
  H        -1.04057          0.13986        -0.34097
  H         0.62496          0.83065        -0.39863
  H         0.37579         -0.94038        -0.39562
6
 step=         384     theta[rad]=           4.0212
  C        -0.00519         -0.00582        -0.00950
  C         0.08627          0.01996         1.47035
  O         1.01528         -0.00998         2.21436
  H        -1.04057         -0.04648        -0.34097
  H         0.45897          0.90375        -0.39662
  H         0.54178         -0.86728        -0.39762
6
 step=         385     theta[rad]=           4.0317
  C        -0.00519         -0.01026        -0.00950
  C         0.08627          0.03517         1.47035
  O         1.01528         -0.01759         2.21436
  H        -1.04057         -0.08193        -0.34097
  H         0.42740          0.91765        -0.39624
  H         0.57335         -0.85338        -0.39800
6
 step=         386     theta[rad]=           4.0422
  C        -0.00519          0.01875        -0.00950
  C         0.08627         -0.06429         1.47035
  O         1.01528          0.03215         2.21436
  H        -1.04057          0.14976        -0.34097
  H         0.63377          0.82677        -0.39873
  H         0.36698         -0.94426        -0.39551
6
 step=         387     theta[rad]=           4.0527
  C        -0.00519         -0.01290        -0.00950
  C         0.08627          0.04421         1.47035
  O         1.01528         -0.02211         2.21436
  H        -1.04057         -0.10297        -0.34097
  H         0.40865          0.92591        -0.39601
  H         0.59210         -0.84512        -0.39823
6
 step=         388     theta[rad]=           4.0631
  C        -0.00519         -0.00314        -0.00950
  C         0.08627          0.01077         1.47035
  O         1.01528         -0.00539         2.21436
  H        -1.04057         -0.02509        -0.34097
  H         0.47803          0.89535        -0.39685
  H         0.52272         -0.87567        -0.39739
6
 step=         389     theta[rad]=           4.0736
  C        -0.00519          0.01678        -0.00950
  C         0.08627         -0.05754         1.47035
  O         1.01528          0.02878         2.21436
  H        -1.04057          0.13403        -0.34097
  H         0.61976          0.83294        -0.39856
  H         0.38098         -0.93809        -0.39568
6
 step=         390     theta[rad]=           4.0841
  C        -0.00519         -0.01678        -0.00950
  C         0.08627          0.05754         1.47035
  O         1.01528         -0.02878         2.21436
  H        -1.04057         -0.13403        -0.34097
  H         0.38099          0.93809        -0.39567
  H         0.61977         -0.83294        -0.39856
6
 step=         391     theta[rad]=           4.0945
  C        -0.00519          0.00275        -0.00950
  C         0.08627         -0.00943         1.47035
  O         1.01528          0.00472         2.21436
  H        -1.04057          0.02197        -0.34097
  H         0.51995          0.87689        -0.39736
  H         0.48080         -0.89413        -0.39688
6
 step=         392     theta[rad]=           4.1050
  C        -0.00519          0.01373        -0.00950
  C         0.08627         -0.04707         1.47035
  O         1.01528          0.02354         2.21436
  H        -1.04057          0.10966        -0.34097
  H         0.59805          0.84250        -0.39830
  H         0.40270         -0.92853        -0.39594
6
 step=         393     theta[rad]=           4.1155
  C        -0.00519         -0.01838        -0.00950
  C         0.08627          0.06302         1.47035
  O         1.01528         -0.03152         2.21436
  H        -1.04057         -0.14680        -0.34097
  H         0.36961          0.94310        -0.39554
  H         0.63114         -0.82793        -0.39870
6
 step=         394     theta[rad]=           4.1260
  C        -0.00519          0.00675        -0.00950
  C         0.08627         -0.02314         1.47035
  O         1.01528          0.01157         2.21436
  H        -1.04057          0.05391        -0.34097
  H         0.54839          0.86437        -0.39770
  H         0.45236         -0.90666        -0.39654
6
 step=         395     theta[rad]=           4.1364
  C        -0.00519          0.01107        -0.00950
  C         0.08627         -0.03796         1.47035
  O         1.01528          0.01898         2.21436
  H        -1.04057          0.08842        -0.34097
  H         0.57913          0.85083        -0.39807
  H         0.42162         -0.92020        -0.39617
6
 step=         396     theta[rad]=           4.1469
  C        -0.00519         -0.01880        -0.00950
  C         0.08627          0.06445         1.47035
  O         1.01528         -0.03223         2.21436
  H        -1.04057         -0.15013        -0.34097
  H         0.36665          0.94441        -0.39550
  H         0.63411         -0.82662        -0.39873
6
 step=         397     theta[rad]=           4.1574
  C        -0.00519          0.00890        -0.00950
  C         0.08627         -0.03052         1.47035
  O         1.01528          0.01526         2.21436
  H        -1.04057          0.07108        -0.34097
  H         0.56369          0.85763        -0.39789
  H         0.43706         -0.91340        -0.39636
6
 step=         398     theta[rad]=           4.1678
  C        -0.00519          0.00959        -0.00950
  C         0.08627         -0.03287         1.47035
  O         1.01528          0.01644         2.21436
  H        -1.04057          0.07657        -0.34097
  H         0.56858          0.85548        -0.39794
  H         0.43217         -0.91555        -0.39630
6
 step=         399     theta[rad]=           4.1783
  C        -0.00519         -0.01884        -0.00950
  C         0.08627          0.06458         1.47035
  O         1.01528         -0.03230         2.21436
  H        -1.04057         -0.15043        -0.34097
  H         0.36638          0.94452        -0.39550
  H         0.63437         -0.82650        -0.39874
6
 step=         400     theta[rad]=           4.1888
  C        -0.00519          0.00942        -0.00950
  C         0.08627         -0.03229         1.47035
  O         1.01528          0.01615         2.21436
  H        -1.04057          0.07521        -0.34097
  H         0.56737          0.85601        -0.39793
  H         0.43338         -0.91502        -0.39631
6
 step=         401     theta[rad]=           4.1993
  C        -0.00519          0.00959        -0.00950
  C         0.08627         -0.03287         1.47035
  O         1.01528          0.01644         2.21436
  H        -1.04057          0.07657        -0.34097
  H         0.56858          0.85548        -0.39794
  H         0.43217         -0.91555        -0.39630
6
 step=         402     theta[rad]=           4.2097
  C        -0.00519         -0.01883        -0.00950
  C         0.08627          0.06455         1.47035
  O         1.01528         -0.03228         2.21436
  H        -1.04057         -0.15035        -0.34097
  H         0.36645          0.94449        -0.39550
  H         0.63430         -0.82653        -0.39873
6
 step=         403     theta[rad]=           4.2202
  C        -0.00519          0.00838        -0.00950
  C         0.08627         -0.02871         1.47035
  O         1.01528          0.01436         2.21436
  H        -1.04057          0.06688        -0.34097
  H         0.55995          0.85928        -0.39784
  H         0.44080         -0.91175        -0.39640
6
 step=         404     theta[rad]=           4.2307
  C        -0.00519          0.01107        -0.00950
  C         0.08627         -0.03796         1.47035
  O         1.01528          0.01898         2.21436
  H        -1.04057          0.08842        -0.34097
  H         0.57913          0.85083        -0.39807
  H         0.42162         -0.92020        -0.39617
6
 step=         405     theta[rad]=           4.2412
  C        -0.00519         -0.01861        -0.00950
  C         0.08627          0.06378         1.47035
  O         1.01528         -0.03190         2.21436
  H        -1.04057         -0.14857        -0.34097
  H         0.36803          0.94380        -0.39552
  H         0.63272         -0.82723        -0.39872
6
 step=         406     theta[rad]=           4.2516
  C        -0.00519          0.00563        -0.00950
  C         0.08627         -0.01931         1.47035
  O         1.01528          0.00966         2.21436
  H        -1.04057          0.04498        -0.34097
  H         0.54044          0.86787        -0.39760
  H         0.46031         -0.90316        -0.39664
6
 step=         407     theta[rad]=           4.2621
  C        -0.00519          0.01373        -0.00950
  C         0.08627         -0.04707         1.47035
  O         1.01528          0.02354         2.21436
  H        -1.04057          0.10966        -0.34097
  H         0.59805          0.84250        -0.39830
  H         0.40270         -0.92853        -0.39594
6
 step=         408     theta[rad]=           4.2726
  C        -0.00519         -0.01752        -0.00950
  C         0.08627          0.06004         1.47035
  O         1.01528         -0.03003         2.21436
  H        -1.04057         -0.13986        -0.34097
  H         0.37579          0.94038        -0.39561
  H         0.62496         -0.83065        -0.39862
6
 step=         409     theta[rad]=           4.2830
  C        -0.00519          0.00099        -0.00950
  C         0.08627         -0.00338         1.47035
  O         1.01528          0.00169         2.21436
  H        -1.04057          0.00787        -0.34097
  H         0.50739          0.88243        -0.39720
  H         0.49336         -0.88860        -0.39703
6
 step=         410     theta[rad]=           4.2935
  C        -0.00519          0.01678        -0.00950
  C         0.08627         -0.05754         1.47035
  O         1.01528          0.02878         2.21436
  H        -1.04057          0.13403        -0.34097
  H         0.61976          0.83294        -0.39856
  H         0.38098         -0.93809        -0.39568
6
 step=         411     theta[rad]=           4.3040
  C        -0.00519         -0.01451        -0.00950
  C         0.08627          0.04976         1.47035
  O         1.01528         -0.02488         2.21436
  H        -1.04057         -0.11591        -0.34097
  H         0.39713          0.93098        -0.39587
  H         0.60362         -0.84005        -0.39836
6
 step=         412     theta[rad]=           4.3145
  C        -0.00519         -0.00544        -0.00950
  C         0.08627          0.01866         1.47035
  O         1.01528         -0.00933         2.21436
  H        -1.04057         -0.04348        -0.34097
  H         0.46165          0.90257        -0.39665
  H         0.53910         -0.86846        -0.39759
6
 step=         413     theta[rad]=           4.3249
  C        -0.00519          0.01875        -0.00950
  C         0.08627         -0.06429         1.47035
  O         1.01528          0.03215         2.21436
  H        -1.04057          0.14976        -0.34097
  H         0.63377          0.82677        -0.39873
  H         0.36698         -0.94426        -0.39551
6
 step=         414     theta[rad]=           4.3354
  C        -0.00519         -0.00855        -0.00950
  C         0.08627          0.02932         1.47035
  O         1.01528         -0.01466         2.21436
  H        -1.04057         -0.06829        -0.34097
  H         0.43954          0.91230        -0.39638
  H         0.56121         -0.85872        -0.39785
6
 step=         415     theta[rad]=           4.3459
  C        -0.00519         -0.01260        -0.00950
  C         0.08627          0.04321         1.47035
  O         1.01528         -0.02161         2.21436
  H        -1.04057         -0.10066        -0.34097
  H         0.41072          0.92500        -0.39603
  H         0.59004         -0.84603        -0.39820
6
 step=         416     theta[rad]=           4.3563
  C        -0.00519          0.01752        -0.00950
  C         0.08627         -0.06004         1.47035
  O         1.01528          0.03003         2.21436
  H        -1.04057          0.13986        -0.34097
  H         0.62496          0.83065        -0.39863
  H         0.37579         -0.94038        -0.39562
6
 step=         417     theta[rad]=           4.3668
  C        -0.00519          0.00059        -0.00950
  C         0.08627         -0.00203         1.47035
  O         1.01528          0.00101         2.21436
  H        -1.04057          0.00472        -0.34097
  H         0.50458          0.88366        -0.39717
  H         0.49617         -0.88737        -0.39707
6
 step=         418     theta[rad]=           4.3773
  C        -0.00519         -0.01798        -0.00950
  C         0.08627          0.06162         1.47035
  O         1.01528         -0.03082         2.21436
  H        -1.04057         -0.14354        -0.34097
  H         0.37251          0.94182        -0.39557
  H         0.62824         -0.82921        -0.39866
6
 step=         419     theta[rad]=           4.3878
  C        -0.00519          0.01107        -0.00950
  C         0.08627         -0.03796         1.47035
  O         1.01528          0.01898         2.21436
  H        -1.04057          0.08842        -0.34097
  H         0.57913          0.85083        -0.39807
  H         0.42162         -0.92020        -0.39617
6
 step=         420     theta[rad]=           4.3982
  C        -0.00519          0.01107        -0.00950
  C         0.08627         -0.03796         1.47035
  O         1.01528          0.01898         2.21436
  H        -1.04057          0.08842        -0.34097
  H         0.57913          0.85083        -0.39807
  H         0.42162         -0.92020        -0.39617
6
 step=         421     theta[rad]=           4.4087
  C        -0.00519         -0.01785        -0.00950
  C         0.08627          0.06120         1.47035
  O         1.01528         -0.03061         2.21436
  H        -1.04057         -0.14257        -0.34097
  H         0.37338          0.94144        -0.39558
  H         0.62737         -0.82959        -0.39865
6
 step=         422     theta[rad]=           4.4192
  C        -0.00519         -0.00059        -0.00950
  C         0.08627          0.00203         1.47035
  O         1.01528         -0.00101         2.21436
  H        -1.04057         -0.00473        -0.34097
  H         0.49617          0.88737        -0.39707
  H         0.50458         -0.88366        -0.39717
6
 step=         423     theta[rad]=           4.4296
  C        -0.00519          0.01825        -0.00950
  C         0.08627         -0.06255         1.47035
  O         1.01528          0.03128         2.21436
  H        -1.04057          0.14570        -0.34097
  H         0.63016          0.82836        -0.39869
  H         0.37059         -0.94267        -0.39555
6
 step=         424     theta[rad]=           4.4401
  C        -0.00519         -0.00942        -0.00950
  C         0.08627          0.03229         1.47035
  O         1.01528         -0.01615         2.21436
  H        -1.04057         -0.07521        -0.34097
  H         0.43338          0.91502        -0.39631
  H         0.56737         -0.85601        -0.39793
6
 step=         425     theta[rad]=           4.4506
  C        -0.00519         -0.01332        -0.00950
  C         0.08627          0.04566         1.47035
  O         1.01528         -0.02284         2.21436
  H        -1.04057         -0.10637        -0.34097
  H         0.40563          0.92724        -0.39597
  H         0.59512         -0.84379        -0.39826
6
 step=         426     theta[rad]=           4.4611
  C        -0.00519          0.01621        -0.00950
  C         0.08627         -0.05558         1.47035
  O         1.01528          0.02780         2.21436
  H        -1.04057          0.12948        -0.34097
  H         0.61571          0.83472        -0.39851
  H         0.38504         -0.93631        -0.39573
6
 step=         427     theta[rad]=           4.4715
  C        -0.00519          0.00544        -0.00950
  C         0.08627         -0.01866         1.47035
  O         1.01528          0.00933         2.21436
  H        -1.04057          0.04348        -0.34097
  H         0.53910          0.86846        -0.39759
  H         0.46165         -0.90257        -0.39665
6
 step=         428     theta[rad]=           4.4820
  C        -0.00519         -0.01880        -0.00950
  C         0.08627          0.06445         1.47035
  O         1.01528         -0.03223         2.21436
  H        -1.04057         -0.15013        -0.34097
  H         0.36665          0.94441        -0.39550
  H         0.63411         -0.82662        -0.39873
6
 step=         429     theta[rad]=           4.4925
  C        -0.00519          0.00295        -0.00950
  C         0.08627         -0.01010         1.47035
  O         1.01528          0.00505         2.21436
  H        -1.04057          0.02353        -0.34097
  H         0.52134          0.87628        -0.39737
  H         0.47941         -0.89474        -0.39687
6
 step=         430     theta[rad]=           4.5029
  C        -0.00519          0.01759        -0.00950
  C         0.08627         -0.06029         1.47035
  O         1.01528          0.03015         2.21436
  H        -1.04057          0.14044        -0.34097
  H         0.62547          0.83042        -0.39863
  H         0.37528         -0.94060        -0.39561
6
 step=         431     theta[rad]=           4.5134
  C        -0.00519         -0.01009        -0.00950
  C         0.08627          0.03460         1.47035
  O         1.01528         -0.01731         2.21436
  H        -1.04057         -0.08060        -0.34097
  H         0.42858          0.91713        -0.39625
  H         0.57217         -0.85390        -0.39798
6
 step=         432     theta[rad]=           4.5239
  C        -0.00519         -0.01373        -0.00950
  C         0.08627          0.04707         1.47035
  O         1.01528         -0.02354         2.21436
  H        -1.04057         -0.10966        -0.34097
  H         0.40270          0.92853        -0.39594
  H         0.59805         -0.84250        -0.39830
6
 step=         433     theta[rad]=           4.5344
  C        -0.00519          0.01512        -0.00950
  C         0.08627         -0.05184         1.47035
  O         1.01528          0.02593         2.21436
  H        -1.04057          0.12077        -0.34097
  H         0.60795          0.83814        -0.39842
  H         0.39280         -0.93289        -0.39582
6
 step=         434     theta[rad]=           4.5448
  C        -0.00519          0.00855        -0.00950
  C         0.08627         -0.02932         1.47035
  O         1.01528          0.01466         2.21436
  H        -1.04057          0.06829        -0.34097
  H         0.56121          0.85872        -0.39786
  H         0.43954         -0.91230        -0.39639
6
 step=         435     theta[rad]=           4.5553
  C        -0.00519         -0.01792        -0.00950
  C         0.08627          0.06142         1.47035
  O         1.01528         -0.03072         2.21436
  H        -1.04057         -0.14306        -0.34097
  H         0.37294          0.94164        -0.39558
  H         0.62781         -0.82939        -0.39866
6
 step=         436     theta[rad]=           4.5658
  C        -0.00519         -0.00314        -0.00950
  C         0.08627          0.01077         1.47035
  O         1.01528         -0.00539         2.21436
  H        -1.04057         -0.02509        -0.34097
  H         0.47803          0.89535        -0.39685
  H         0.52272         -0.87567        -0.39739
6
 step=         437     theta[rad]=           4.5763
  C        -0.00519          0.01883        -0.00950
  C         0.08627         -0.06455         1.47035
  O         1.01528          0.03228         2.21436
  H        -1.04057          0.15035        -0.34097
  H         0.63430          0.82653        -0.39874
  H         0.36645         -0.94449        -0.39550
6
 step=         438     theta[rad]=           4.5867
  C        -0.00519         -0.00177        -0.00950
  C         0.08627          0.00608         1.47035
  O         1.01528         -0.00304         2.21436
  H        -1.04057         -0.01416        -0.34097
  H         0.48777          0.89107        -0.39697
  H         0.51299         -0.87996        -0.39727
6
 step=         439     theta[rad]=           4.5972
  C        -0.00519         -0.01843        -0.00950
  C         0.08627          0.06317         1.47035
  O         1.01528         -0.03159         2.21436
  H        -1.04057         -0.14714        -0.34097
  H         0.36931          0.94323        -0.39553
  H         0.63144         -0.82779        -0.39870
6
 step=         440     theta[rad]=           4.6077
  C        -0.00519          0.00582        -0.00950
  C         0.08627         -0.01996         1.47035
  O         1.01528          0.00998         2.21436
  H        -1.04057          0.04648        -0.34097
  H         0.54178          0.86728        -0.39762
  H         0.45897         -0.90375        -0.39662
6
 step=         441     theta[rad]=           4.6181
  C        -0.00519          0.01729        -0.00950
  C         0.08627         -0.05927         1.47035
  O         1.01528          0.02964         2.21436
  H        -1.04057          0.13805        -0.34097
  H         0.62335          0.83136        -0.39861
  H         0.37740         -0.93967        -0.39564
6
 step=         442     theta[rad]=           4.6286
  C        -0.00519         -0.00890        -0.00950
  C         0.08627          0.03052         1.47035
  O         1.01528         -0.01526         2.21436
  H        -1.04057         -0.07108        -0.34097
  H         0.43706          0.91340        -0.39635
  H         0.56369         -0.85763        -0.39788
6
 step=         443     theta[rad]=           4.6391
  C        -0.00519         -0.01591        -0.00950
  C         0.08627          0.05452         1.47035
  O         1.01528         -0.02727         2.21436
  H        -1.04057         -0.12701        -0.34097
  H         0.38724          0.93534        -0.39575
  H         0.61351         -0.83569        -0.39848
6
 step=         444     theta[rad]=           4.6496
  C        -0.00519          0.01107        -0.00950
  C         0.08627         -0.03796         1.47035
  O         1.01528          0.01898         2.21436
  H        -1.04057          0.08842        -0.34097
  H         0.57913          0.85083        -0.39807
  H         0.42162         -0.92020        -0.39617
6
 step=         445     theta[rad]=           4.6600
  C        -0.00519          0.01464        -0.00950
  C         0.08627         -0.05019         1.47035
  O         1.01528          0.02510         2.21436
  H        -1.04057          0.11690        -0.34097
  H         0.60451          0.83965        -0.39838
  H         0.39624         -0.93137        -0.39586
6
 step=         446     theta[rad]=           4.6705
  C        -0.00519         -0.01246        -0.00950
  C         0.08627          0.04271         1.47035
  O         1.01528         -0.02136         2.21436
  H        -1.04057         -0.09948        -0.34097
  H         0.41176          0.92454        -0.39605
  H         0.58899         -0.84649        -0.39819
6
 step=         447     theta[rad]=           4.6810
  C        -0.00519         -0.01373        -0.00950
  C         0.08627          0.04707         1.47035
  O         1.01528         -0.02354         2.21436
  H        -1.04057         -0.10966        -0.34097
  H         0.40270          0.92853        -0.39594
  H         0.59805         -0.84250        -0.39830
6
 step=         448     theta[rad]=           4.6914
  C        -0.00519          0.01318        -0.00950
  C         0.08627         -0.04518         1.47035
  O         1.01528          0.02260         2.21436
  H        -1.04057          0.10525        -0.34097
  H         0.59412          0.84423        -0.39825
  H         0.40662         -0.92680        -0.39599
6
 step=         449     theta[rad]=           4.7019
  C        -0.00519          0.01332        -0.00950
  C         0.08627         -0.04566         1.47035
  O         1.01528          0.02284         2.21436
  H        -1.04057          0.10637        -0.34097
  H         0.59512          0.84379        -0.39827
  H         0.40563         -0.92724        -0.39598
6
 step=         450     theta[rad]=           4.7124
  C        -0.00519         -0.01332        -0.00950
  C         0.08627          0.04566         1.47035
  O         1.01528         -0.02284         2.21436
  H        -1.04057         -0.10637        -0.34097
  H         0.40563          0.92724        -0.39597
  H         0.59512         -0.84379        -0.39826
6
 step=         451     theta[rad]=           4.7229
  C        -0.00519         -0.01346        -0.00950
  C         0.08627          0.04614         1.47035
  O         1.01528         -0.02307         2.21436
  H        -1.04057         -0.10748        -0.34097
  H         0.40464          0.92767        -0.39596
  H         0.59611         -0.84335        -0.39827
6
 step=         452     theta[rad]=           4.7333
  C        -0.00519          0.01290        -0.00950
  C         0.08627         -0.04421         1.47035
  O         1.01528          0.02211         2.21436
  H        -1.04057          0.10297        -0.34097
  H         0.59210          0.84512        -0.39823
  H         0.40865         -0.92591        -0.39601
6
 step=         453     theta[rad]=           4.7438
  C        -0.00519          0.01413        -0.00950
  C         0.08627         -0.04844         1.47035
  O         1.01528          0.02423         2.21436
  H        -1.04057          0.11284        -0.34097
  H         0.60088          0.84125        -0.39834
  H         0.39986         -0.92978        -0.39591
6
 step=         454     theta[rad]=           4.7543
  C        -0.00519         -0.01186        -0.00950
  C         0.08627          0.04064         1.47035
  O         1.01528         -0.02032         2.21436
  H        -1.04057         -0.09467        -0.34097
  H         0.41605          0.92265        -0.39610
  H         0.58470         -0.84838        -0.39814
6
 step=         455     theta[rad]=           4.7647
  C        -0.00519         -0.01524        -0.00950
  C         0.08627          0.05224         1.47035
  O         1.01528         -0.02613         2.21436
  H        -1.04057         -0.12170        -0.34097
  H         0.39197          0.93325        -0.39581
  H         0.60878         -0.83777        -0.39843
6
 step=         456     theta[rad]=           4.7752
  C        -0.00519          0.01009        -0.00950
  C         0.08627         -0.03460         1.47035
  O         1.01528          0.01731         2.21436
  H        -1.04057          0.08060        -0.34097
  H         0.57217          0.85389        -0.39799
  H         0.42858         -0.91713        -0.39625
6
 step=         457     theta[rad]=           4.7857
  C        -0.00519          0.01660        -0.00950
  C         0.08627         -0.05691         1.47035
  O         1.01528          0.02846         2.21436
  H        -1.04057          0.13257        -0.34097
  H         0.61846          0.83351        -0.39855
  H         0.38229         -0.93752        -0.39569
6
 step=         458     theta[rad]=           4.7962
  C        -0.00519         -0.00748        -0.00950
  C         0.08627          0.02565         1.47035
  O         1.01528         -0.01283         2.21436
  H        -1.04057         -0.05974        -0.34097
  H         0.44716          0.90895        -0.39648
  H         0.55359         -0.86208        -0.39776
6
 step=         459     theta[rad]=           4.8066
  C        -0.00519         -0.01792        -0.00950
  C         0.08627          0.06142         1.47035
  O         1.01528         -0.03072         2.21436
  H        -1.04057         -0.14306        -0.34097
  H         0.37294          0.94164        -0.39558
  H         0.62781         -0.82939        -0.39866
6
 step=         460     theta[rad]=           4.8171
  C        -0.00519          0.00392        -0.00950
  C         0.08627         -0.01343         1.47035
  O         1.01528          0.00671         2.21436
  H        -1.04057          0.03128        -0.34097
  H         0.52823          0.87325        -0.39746
  H         0.47252         -0.89778        -0.39678
6
 step=         461     theta[rad]=           4.8276
  C        -0.00519          0.01875        -0.00950
  C         0.08627         -0.06429         1.47035
  O         1.01528          0.03215         2.21436
  H        -1.04057          0.14976        -0.34097
  H         0.63377          0.82677        -0.39873
  H         0.36698         -0.94426        -0.39551
6
 step=         462     theta[rad]=           4.8381
  C        -0.00519          0.00059        -0.00950
  C         0.08627         -0.00203         1.47035
  O         1.01528          0.00101         2.21436
  H        -1.04057          0.00472        -0.34097
  H         0.50458          0.88366        -0.39717
  H         0.49617         -0.88737        -0.39707
6
 step=         463     theta[rad]=           4.8485
  C        -0.00519         -0.01857        -0.00950
  C         0.08627          0.06367         1.47035
  O         1.01528         -0.03184         2.21436
  H        -1.04057         -0.14832        -0.34097
  H         0.36826          0.94370        -0.39552
  H         0.63249         -0.82733        -0.39871
6
 step=         464     theta[rad]=           4.8590
  C        -0.00519         -0.00582        -0.00950
  C         0.08627          0.01996         1.47035
  O         1.01528         -0.00998         2.21436
  H        -1.04057         -0.04648        -0.34097
  H         0.45897          0.90375        -0.39662
  H         0.54178         -0.86728        -0.39762
6
 step=         465     theta[rad]=           4.8695
  C        -0.00519          0.01678        -0.00950
  C         0.08627         -0.05754         1.47035
  O         1.01528          0.02878         2.21436
  H        -1.04057          0.13403        -0.34097
  H         0.61976          0.83294        -0.39856
  H         0.38098         -0.93809        -0.39568
6
 step=         466     theta[rad]=           4.8799
  C        -0.00519          0.01123        -0.00950
  C         0.08627         -0.03850         1.47035
  O         1.01528          0.01926         2.21436
  H        -1.04057          0.08969        -0.34097
  H         0.58026          0.85033        -0.39809
  H         0.42048         -0.92070        -0.39616
6
 step=         467     theta[rad]=           4.8904
  C        -0.00519         -0.01290        -0.00950
  C         0.08627          0.04421         1.47035
  O         1.01528         -0.02211         2.21436
  H        -1.04057         -0.10297        -0.34097
  H         0.40865          0.92591        -0.39601
  H         0.59210         -0.84512        -0.39823
6
 step=         468     theta[rad]=           4.9009
  C        -0.00519         -0.01591        -0.00950
  C         0.08627          0.05452         1.47035
  O         1.01528         -0.02727         2.21436
  H        -1.04057         -0.12701        -0.34097
  H         0.38724          0.93534        -0.39575
  H         0.61351         -0.83569        -0.39848
6
 step=         469     theta[rad]=           4.9114
  C        -0.00519          0.00675        -0.00950
  C         0.08627         -0.02314         1.47035
  O         1.01528          0.01157         2.21436
  H        -1.04057          0.05391        -0.34097
  H         0.54839          0.86437        -0.39770
  H         0.45236         -0.90666        -0.39654
6
 step=         470     theta[rad]=           4.9218
  C        -0.00519          0.01861        -0.00950
  C         0.08627         -0.06378         1.47035
  O         1.01528          0.03190         2.21436
  H        -1.04057          0.14857        -0.34097
  H         0.63272          0.82723        -0.39872
  H         0.36803         -0.94380        -0.39552
6
 step=         471     theta[rad]=           4.9323
  C        -0.00519          0.00118        -0.00950
  C         0.08627         -0.00405         1.47035
  O         1.01528          0.00203         2.21436
  H        -1.04057          0.00945        -0.34097
  H         0.50879          0.88181        -0.39722
  H         0.49196         -0.88922        -0.39702
6
 step=         472     theta[rad]=           4.9428
  C        -0.00519         -0.01803        -0.00950
  C         0.08627          0.06182         1.47035
  O         1.01528         -0.03092         2.21436
  H        -1.04057         -0.14401        -0.34097
  H         0.37210          0.94201        -0.39557
  H         0.62865         -0.82902        -0.39867
6
 step=         473     theta[rad]=           4.9532
  C        -0.00519         -0.00959        -0.00950
  C         0.08627          0.03287         1.47035
  O         1.01528         -0.01644         2.21436
  H        -1.04057         -0.07657        -0.34097
  H         0.43217          0.91555        -0.39629
  H         0.56858         -0.85548        -0.39794
6
 step=         474     theta[rad]=           4.9637
  C        -0.00519          0.01332        -0.00950
  C         0.08627         -0.04566         1.47035
  O         1.01528          0.02284         2.21436
  H        -1.04057          0.10637        -0.34097
  H         0.59512          0.84379        -0.39827
  H         0.40563         -0.92724        -0.39598
6
 step=         475     theta[rad]=           4.9742
  C        -0.00519          0.01631        -0.00950
  C         0.08627         -0.05593         1.47035
  O         1.01528          0.02797         2.21436
  H        -1.04057          0.13027        -0.34097
  H         0.61642          0.83441        -0.39852
  H         0.38433         -0.93662        -0.39572
6
 step=         476     theta[rad]=           4.9847
  C        -0.00519         -0.00468        -0.00950
  C         0.08627          0.01606         1.47035
  O         1.01528         -0.00803         2.21436
  H        -1.04057         -0.03741        -0.34097
  H         0.46705          0.90019        -0.39672
  H         0.53370         -0.87084        -0.39752
6
 step=         477     theta[rad]=           4.9951
  C        -0.00519         -0.01883        -0.00950
  C         0.08627          0.06455         1.47035
  O         1.01528         -0.03228         2.21436
  H        -1.04057         -0.15035        -0.34097
  H         0.36645          0.94449        -0.39550
  H         0.63430         -0.82653        -0.39873
6
 step=         478     theta[rad]=           5.0056
  C        -0.00519         -0.00601        -0.00950
  C         0.08627          0.02060         1.47035
  O         1.01528         -0.01030         2.21436
  H        -1.04057         -0.04798        -0.34097
  H         0.45764          0.90434        -0.39660
  H         0.54311         -0.86669        -0.39763
6
 step=         479     theta[rad]=           5.0161
  C        -0.00519          0.01524        -0.00950
  C         0.08627         -0.05224         1.47035
  O         1.01528          0.02613         2.21436
  H        -1.04057          0.12170        -0.34097
  H         0.60878          0.83777        -0.39843
  H         0.39197         -0.93325        -0.39581
6
 step=         480     theta[rad]=           5.0265
  C        -0.00519          0.01524        -0.00950
  C         0.08627         -0.05224         1.47035
  O         1.01528          0.02613         2.21436
  H        -1.04057          0.12170        -0.34097
  H         0.60878          0.83777        -0.39843
  H         0.39197         -0.93325        -0.39581
6
 step=         481     theta[rad]=           5.0370
  C        -0.00519         -0.00563        -0.00950
  C         0.08627          0.01931         1.47035
  O         1.01528         -0.00966         2.21436
  H        -1.04057         -0.04498        -0.34097
  H         0.46031          0.90316        -0.39663
  H         0.54045         -0.86787        -0.39760
6
 step=         482     theta[rad]=           5.0475
  C        -0.00519         -0.01883        -0.00950
  C         0.08627          0.06455         1.47035
  O         1.01528         -0.03228         2.21436
  H        -1.04057         -0.15035        -0.34097
  H         0.36645          0.94449        -0.39550
  H         0.63430         -0.82653        -0.39873
6
 step=         483     theta[rad]=           5.0580
  C        -0.00519         -0.00693        -0.00950
  C         0.08627          0.02377         1.47035
  O         1.01528         -0.01189         2.21436
  H        -1.04057         -0.05538        -0.34097
  H         0.45105          0.90724        -0.39652
  H         0.54970         -0.86379        -0.39771
6
 step=         484     theta[rad]=           5.0684
  C        -0.00519          0.01400        -0.00950
  C         0.08627         -0.04799         1.47035
  O         1.01528          0.02400         2.21436
  H        -1.04057          0.11179        -0.34097
  H         0.59995          0.84166        -0.39832
  H         0.40080         -0.92937        -0.39592
6
 step=         485     theta[rad]=           5.0789
  C        -0.00519          0.01678        -0.00950
  C         0.08627         -0.05754         1.47035
  O         1.01528          0.02878         2.21436
  H        -1.04057          0.13403        -0.34097
  H         0.61976          0.83294        -0.39856
  H         0.38098         -0.93809        -0.39568
6
 step=         486     theta[rad]=           5.0894
  C        -0.00519         -0.00177        -0.00950
  C         0.08627          0.00608         1.47035
  O         1.01528         -0.00304         2.21436
  H        -1.04057         -0.01416        -0.34097
  H         0.48777          0.89107        -0.39697
  H         0.51299         -0.87996        -0.39727
6
 step=         487     theta[rad]=           5.0999
  C        -0.00519         -0.01803        -0.00950
  C         0.08627          0.06182         1.47035
  O         1.01528         -0.03092         2.21436
  H        -1.04057         -0.14401        -0.34097
  H         0.37210          0.94201        -0.39557
  H         0.62865         -0.82902        -0.39867
6
 step=         488     theta[rad]=           5.1103
  C        -0.00519         -0.01201        -0.00950
  C         0.08627          0.04116         1.47035
  O         1.01528         -0.02059         2.21436
  H        -1.04057         -0.09589        -0.34097
  H         0.41497          0.92313        -0.39609
  H         0.58579         -0.84790        -0.39815
6
 step=         489     theta[rad]=           5.1208
  C        -0.00519          0.00855        -0.00950
  C         0.08627         -0.02932         1.47035
  O         1.01528          0.01466         2.21436
  H        -1.04057          0.06829        -0.34097
  H         0.56121          0.85872        -0.39786
  H         0.43954         -0.91230        -0.39639
6
 step=         490     theta[rad]=           5.1313
  C        -0.00519          0.01881        -0.00950
  C         0.08627         -0.06449         1.47035
  O         1.01528          0.03225         2.21436
  H        -1.04057          0.15022        -0.34097
  H         0.63418          0.82658        -0.39874
  H         0.36656         -0.94444        -0.39550
6
 step=         491     theta[rad]=           5.1417
  C        -0.00519          0.00693        -0.00950
  C         0.08627         -0.02377         1.47035
  O         1.01528          0.01189         2.21436
  H        -1.04057          0.05538        -0.34097
  H         0.54970          0.86379        -0.39772
  H         0.45105         -0.90724        -0.39652
6
 step=         492     theta[rad]=           5.1522
  C        -0.00519         -0.01290        -0.00950
  C         0.08627          0.04421         1.47035
  O         1.01528         -0.02211         2.21436
  H        -1.04057         -0.10297        -0.34097
  H         0.40865          0.92591        -0.39601
  H         0.59210         -0.84512        -0.39823
6
 step=         493     theta[rad]=           5.1627
  C        -0.00519         -0.01798        -0.00950
  C         0.08627          0.06162         1.47035
  O         1.01528         -0.03082         2.21436
  H        -1.04057         -0.14354        -0.34097
  H         0.37251          0.94182        -0.39557
  H         0.62824         -0.82921        -0.39866
6
 step=         494     theta[rad]=           5.1732
  C        -0.00519         -0.00295        -0.00950
  C         0.08627          0.01010         1.47035
  O         1.01528         -0.00505         2.21436
  H        -1.04057         -0.02353        -0.34097
  H         0.47941          0.89475        -0.39687
  H         0.52134         -0.87628        -0.39737
6
 step=         495     theta[rad]=           5.1836
  C        -0.00519          0.01524        -0.00950
  C         0.08627         -0.05224         1.47035
  O         1.01528          0.02613         2.21436
  H        -1.04057          0.12170        -0.34097
  H         0.60878          0.83777        -0.39843
  H         0.39197         -0.93325        -0.39581
6
 step=         496     theta[rad]=           5.1941
  C        -0.00519          0.01687        -0.00950
  C         0.08627         -0.05784         1.47035
  O         1.01528          0.02893         2.21436
  H        -1.04057          0.13474        -0.34097
  H         0.62039          0.83266        -0.39857
  H         0.38035         -0.93837        -0.39567
6
 step=         497     theta[rad]=           5.2046
  C        -0.00519          0.00059        -0.00950
  C         0.08627         -0.00203         1.47035
  O         1.01528          0.00101         2.21436
  H        -1.04057          0.00472        -0.34097
  H         0.50458          0.88366        -0.39717
  H         0.49617         -0.88737        -0.39707
6
 step=         498     theta[rad]=           5.2150
  C        -0.00519         -0.01621        -0.00950
  C         0.08627          0.05558         1.47035
  O         1.01528         -0.02780         2.21436
  H        -1.04057         -0.12948        -0.34097
  H         0.38504          0.93631        -0.39572
  H         0.61571         -0.83472        -0.39851
6
 step=         499     theta[rad]=           5.2255
  C        -0.00519         -0.01631        -0.00950
  C         0.08627          0.05593         1.47035
  O         1.01528         -0.02797         2.21436
  H        -1.04057         -0.13027        -0.34097
  H         0.38433          0.93662        -0.39571
  H         0.61642         -0.83441        -0.39852
6
 step=         500     theta[rad]=           5.2360
  C        -0.00519          0.00000        -0.00950
  C         0.08627          0.00000         1.47035
  O         1.01528         -0.00000         2.21436
  H        -1.04057         -0.00000        -0.34097
  H         0.50038          0.88551        -0.39712
  H         0.50038         -0.88551        -0.39712
6
 step=         501     theta[rad]=           5.2465
  C        -0.00519          0.01621        -0.00950
  C         0.08627         -0.05558         1.47035
  O         1.01528          0.02780         2.21436
  H        -1.04057          0.12948        -0.34097
  H         0.61571          0.83472        -0.39851
  H         0.38504         -0.93631        -0.39573
6
 step=         502     theta[rad]=           5.2569
  C        -0.00519          0.01660        -0.00950
  C         0.08627         -0.05691         1.47035
  O         1.01528          0.02846         2.21436
  H        -1.04057          0.13257        -0.34097
  H         0.61846          0.83351        -0.39855
  H         0.38229         -0.93752        -0.39569
6
 step=         503     theta[rad]=           5.2674
  C        -0.00519          0.00118        -0.00950
  C         0.08627         -0.00405         1.47035
  O         1.01528          0.00203         2.21436
  H        -1.04057          0.00945        -0.34097
  H         0.50879          0.88181        -0.39722
  H         0.49196         -0.88922        -0.39702
6
 step=         504     theta[rad]=           5.2779
  C        -0.00519         -0.01524        -0.00950
  C         0.08627          0.05224         1.47035
  O         1.01528         -0.02613         2.21436
  H        -1.04057         -0.12170        -0.34097
  H         0.39197          0.93325        -0.39581
  H         0.60878         -0.83777        -0.39843
6
 step=         505     theta[rad]=           5.2883
  C        -0.00519         -0.01759        -0.00950
  C         0.08627          0.06029         1.47035
  O         1.01528         -0.03015         2.21436
  H        -1.04057         -0.14044        -0.34097
  H         0.37528          0.94060        -0.39561
  H         0.62547         -0.83042        -0.39863
6
 step=         506     theta[rad]=           5.2988
  C        -0.00519         -0.00411        -0.00950
  C         0.08627          0.01409         1.47035
  O         1.01528         -0.00705         2.21436
  H        -1.04057         -0.03281        -0.34097
  H         0.47115          0.89839        -0.39677
  H         0.52961         -0.87264        -0.39747
6
 step=         507     theta[rad]=           5.3093
  C        -0.00519          0.01290        -0.00950
  C         0.08627         -0.04421         1.47035
  O         1.01528          0.02211         2.21436
  H        -1.04057          0.10297        -0.34097
  H         0.59210          0.84512        -0.39823
  H         0.40865         -0.92591        -0.39601
6
 step=         508     theta[rad]=           5.3198
  C        -0.00519          0.01864        -0.00950
  C         0.08627         -0.06388         1.47035
  O         1.01528          0.03195         2.21436
  H        -1.04057          0.14881        -0.34097
  H         0.63293          0.82714        -0.39872
  H         0.36782         -0.94389        -0.39552
6
 step=         509     theta[rad]=           5.3302
  C        -0.00519          0.00855        -0.00950
  C         0.08627         -0.02932         1.47035
  O         1.01528          0.01466         2.21436
  H        -1.04057          0.06829        -0.34097
  H         0.56121          0.85872        -0.39786
  H         0.43954         -0.91230        -0.39639
6
 step=         510     theta[rad]=           5.3407
  C        -0.00519         -0.00855        -0.00950
  C         0.08627          0.02932         1.47035
  O         1.01528         -0.01466         2.21436
  H        -1.04057         -0.06829        -0.34097
  H         0.43954          0.91230        -0.39638
  H         0.56121         -0.85872        -0.39785
6
 step=         511     theta[rad]=           5.3512
  C        -0.00519         -0.01857        -0.00950
  C         0.08627          0.06367         1.47035
  O         1.01528         -0.03184         2.21436
  H        -1.04057         -0.14832        -0.34097
  H         0.36826          0.94370        -0.39552
  H         0.63249         -0.82733        -0.39871
6
 step=         512     theta[rad]=           5.3617
  C        -0.00519         -0.01373        -0.00950
  C         0.08627          0.04707         1.47035
  O         1.01528         -0.02354         2.21436
  H        -1.04057         -0.10966        -0.34097
  H         0.40270          0.92853        -0.39594
  H         0.59805         -0.84250        -0.39830
6
 step=         513     theta[rad]=           5.3721
  C        -0.00519          0.00177        -0.00950
  C         0.08627         -0.00608         1.47035
  O         1.01528          0.00304         2.21436
  H        -1.04057          0.01416        -0.34097
  H         0.51298          0.87996        -0.39727
  H         0.48777         -0.89107        -0.39697
6
 step=         514     theta[rad]=           5.3826
  C        -0.00519          0.01580        -0.00950
  C         0.08627         -0.05416         1.47035
  O         1.01528          0.02709         2.21436
  H        -1.04057          0.12616        -0.34097
  H         0.61275          0.83602        -0.39848
  H         0.38800         -0.93500        -0.39576
6
 step=         515     theta[rad]=           5.3931
  C        -0.00519          0.01792        -0.00950
  C         0.08627         -0.06142         1.47035
  O         1.01528          0.03072         2.21436
  H        -1.04057          0.14306        -0.34097
  H         0.62781          0.82939        -0.39866
  H         0.37294         -0.94163        -0.39558
6
 step=         516     theta[rad]=           5.4035
  C        -0.00519          0.00693        -0.00950
  C         0.08627         -0.02377         1.47035
  O         1.01528          0.01189         2.21436
  H        -1.04057          0.05538        -0.34097
  H         0.54970          0.86379        -0.39772
  H         0.45105         -0.90724        -0.39652
6
 step=         517     theta[rad]=           5.4140
  C        -0.00519         -0.00890        -0.00950
  C         0.08627          0.03052         1.47035
  O         1.01528         -0.01526         2.21436
  H        -1.04057         -0.07108        -0.34097
  H         0.43706          0.91340        -0.39635
  H         0.56369         -0.85763        -0.39788
6
 step=         518     theta[rad]=           5.4245
  C        -0.00519         -0.01838        -0.00950
  C         0.08627          0.06302         1.47035
  O         1.01528         -0.03152         2.21436
  H        -1.04057         -0.14680        -0.34097
  H         0.36961          0.94310        -0.39554
  H         0.63114         -0.82793        -0.39870
6
 step=         519     theta[rad]=           5.4350
  C        -0.00519         -0.01524        -0.00950
  C         0.08627          0.05224         1.47035
  O         1.01528         -0.02613         2.21436
  H        -1.04057         -0.12170        -0.34097
  H         0.39197          0.93325        -0.39581
  H         0.60878         -0.83777        -0.39843
6
 step=         520     theta[rad]=           5.4454
  C        -0.00519         -0.00197        -0.00950
  C         0.08627          0.00675         1.47035
  O         1.01528         -0.00338         2.21436
  H        -1.04057         -0.01572        -0.34097
  H         0.48637          0.89168        -0.39695
  H         0.51438         -0.87935        -0.39729
6
 step=         521     theta[rad]=           5.4559
  C        -0.00519          0.01246        -0.00950
  C         0.08627         -0.04271         1.47035
  O         1.01528          0.02136         2.21436
  H        -1.04057          0.09948        -0.34097
  H         0.58899          0.84649        -0.39819
  H         0.41176         -0.92454        -0.39605
6
 step=         522     theta[rad]=           5.4664
  C        -0.00519          0.01883        -0.00950
  C         0.08627         -0.06455         1.47035
  O         1.01528          0.03228         2.21436
  H        -1.04057          0.15035        -0.34097
  H         0.63430          0.82653        -0.39874
  H         0.36645         -0.94449        -0.39550
6
 step=         523     theta[rad]=           5.4768
  C        -0.00519          0.01346        -0.00950
  C         0.08627         -0.04614         1.47035
  O         1.01528          0.02307         2.21436
  H        -1.04057          0.10748        -0.34097
  H         0.59611          0.84335        -0.39828
  H         0.40464         -0.92767        -0.39596
6
 step=         524     theta[rad]=           5.4873
  C        -0.00519          0.00000        -0.00950
  C         0.08627          0.00000         1.47035
  O         1.01528         -0.00000         2.21436
  H        -1.04057         -0.00000        -0.34097
  H         0.50038          0.88551        -0.39712
  H         0.50038         -0.88551        -0.39712
6
 step=         525     theta[rad]=           5.4978
  C        -0.00519         -0.01332        -0.00950
  C         0.08627          0.04566         1.47035
  O         1.01528         -0.02284         2.21436
  H        -1.04057         -0.10637        -0.34097
  H         0.40563          0.92724        -0.39597
  H         0.59512         -0.84379        -0.39826
6
 step=         526     theta[rad]=           5.5083
  C        -0.00519         -0.01884        -0.00950
  C         0.08627          0.06457         1.47035
  O         1.01528         -0.03229         2.21436
  H        -1.04057         -0.15042        -0.34097
  H         0.36639          0.94452        -0.39550
  H         0.63436         -0.82651        -0.39874
6
 step=         527     theta[rad]=           5.5187
  C        -0.00519         -0.01373        -0.00950
  C         0.08627          0.04707         1.47035
  O         1.01528         -0.02354         2.21436
  H        -1.04057         -0.10966        -0.34097
  H         0.40270          0.92853        -0.39594
  H         0.59805         -0.84250        -0.39830
6
 step=         528     theta[rad]=           5.5292
  C        -0.00519         -0.00118        -0.00950
  C         0.08627          0.00405         1.47035
  O         1.01528         -0.00203         2.21436
  H        -1.04057         -0.00945        -0.34097
  H         0.49196          0.88922        -0.39702
  H         0.50879         -0.88181        -0.39722
6
 step=         529     theta[rad]=           5.5397
  C        -0.00519          0.01186        -0.00950
  C         0.08627         -0.04064         1.47035
  O         1.01528          0.02032         2.21436
  H        -1.04057          0.09467        -0.34097
  H         0.58470          0.84838        -0.39814
  H         0.41605         -0.92265        -0.39610
6
 step=         530     theta[rad]=           5.5501
  C        -0.00519          0.01861        -0.00950
  C         0.08627         -0.06378         1.47035
  O         1.01528          0.03190         2.21436
  H        -1.04057          0.14857        -0.34097
  H         0.63272          0.82723        -0.39872
  H         0.36803         -0.94380        -0.39552
6
 step=         531     theta[rad]=           5.5606
  C        -0.00519          0.01591        -0.00950
  C         0.08627         -0.05452         1.47035
  O         1.01528          0.02727         2.21436
  H        -1.04057          0.12701        -0.34097
  H         0.61351          0.83569        -0.39849
  H         0.38724         -0.93534        -0.39575
6
 step=         532     theta[rad]=           5.5711
  C        -0.00519          0.00544        -0.00950
  C         0.08627         -0.01866         1.47035
  O         1.01528          0.00933         2.21436
  H        -1.04057          0.04348        -0.34097
  H         0.53910          0.86846        -0.39759
  H         0.46165         -0.90257        -0.39665
6
 step=         533     theta[rad]=           5.5816
  C        -0.00519         -0.00748        -0.00950
  C         0.08627          0.02565         1.47035
  O         1.01528         -0.01283         2.21436
  H        -1.04057         -0.05974        -0.34097
  H         0.44716          0.90895        -0.39648
  H         0.55359         -0.86208        -0.39776
6
 step=         534     theta[rad]=           5.5920
  C        -0.00519         -0.01678        -0.00950
  C         0.08627          0.05754         1.47035
  O         1.01528         -0.02878         2.21436
  H        -1.04057         -0.13403        -0.34097
  H         0.38099          0.93809        -0.39567
  H         0.61977         -0.83294        -0.39856
6
 step=         535     theta[rad]=           5.6025
  C        -0.00519         -0.01843        -0.00950
  C         0.08627          0.06317         1.47035
  O         1.01528         -0.03159         2.21436
  H        -1.04057         -0.14714        -0.34097
  H         0.36931          0.94323        -0.39553
  H         0.63144         -0.82779        -0.39870
6
 step=         536     theta[rad]=           5.6130
  C        -0.00519         -0.01201        -0.00950
  C         0.08627          0.04116         1.47035
  O         1.01528         -0.02059         2.21436
  H        -1.04057         -0.09589        -0.34097
  H         0.41497          0.92313        -0.39609
  H         0.58579         -0.84790        -0.39815
6
 step=         537     theta[rad]=           5.6235
  C        -0.00519         -0.00059        -0.00950
  C         0.08627          0.00203         1.47035
  O         1.01528         -0.00101         2.21436
  H        -1.04057         -0.00473        -0.34097
  H         0.49617          0.88737        -0.39707
  H         0.50458         -0.88366        -0.39717
6
 step=         538     theta[rad]=           5.6339
  C        -0.00519          0.01091        -0.00950
  C         0.08627         -0.03741         1.47035
  O         1.01528          0.01871         2.21436
  H        -1.04057          0.08714        -0.34097
  H         0.57799          0.85133        -0.39806
  H         0.42275         -0.91970        -0.39618
6
 step=         539     theta[rad]=           5.6444
  C        -0.00519          0.01792        -0.00950
  C         0.08627         -0.06142         1.47035
  O         1.01528          0.03072         2.21436
  H        -1.04057          0.14306        -0.34097
  H         0.62781          0.82939        -0.39866
  H         0.37294         -0.94163        -0.39558
6
 step=         540     theta[rad]=           5.6549
  C        -0.00519          0.01792        -0.00950
  C         0.08627         -0.06142         1.47035
  O         1.01528          0.03072         2.21436
  H        -1.04057          0.14306        -0.34097
  H         0.62781          0.82939        -0.39866
  H         0.37294         -0.94163        -0.39558
6
 step=         541     theta[rad]=           5.6653
  C        -0.00519          0.01123        -0.00950
  C         0.08627         -0.03850         1.47035
  O         1.01528          0.01926         2.21436
  H        -1.04057          0.08969        -0.34097
  H         0.58026          0.85033        -0.39809
  H         0.42048         -0.92070        -0.39616
6
 step=         542     theta[rad]=           5.6758
  C        -0.00519          0.00059        -0.00950
  C         0.08627         -0.00203         1.47035
  O         1.01528          0.00101         2.21436
  H        -1.04057          0.00472        -0.34097
  H         0.50458          0.88366        -0.39717
  H         0.49617         -0.88737        -0.39707
6
 step=         543     theta[rad]=           5.6863
  C        -0.00519         -0.01009        -0.00950
  C         0.08627          0.03460         1.47035
  O         1.01528         -0.01731         2.21436
  H        -1.04057         -0.08060        -0.34097
  H         0.42858          0.91713        -0.39625
  H         0.57217         -0.85390        -0.39798
6
 step=         544     theta[rad]=           5.6968
  C        -0.00519         -0.01721        -0.00950
  C         0.08627          0.05899         1.47035
  O         1.01528         -0.02950         2.21436
  H        -1.04057         -0.13742        -0.34097
  H         0.37797          0.93942        -0.39564
  H         0.62279         -0.83161        -0.39860
6
 step=         545     theta[rad]=           5.7072
  C        -0.00519         -0.01861        -0.00950
  C         0.08627          0.06378         1.47035
  O         1.01528         -0.03190         2.21436
  H        -1.04057         -0.14857        -0.34097
  H         0.36803          0.94380        -0.39552
  H         0.63272         -0.82723        -0.39872
6
 step=         546     theta[rad]=           5.7177
  C        -0.00519         -0.01413        -0.00950
  C         0.08627          0.04844         1.47035
  O         1.01528         -0.02423         2.21436
  H        -1.04057         -0.11284        -0.34097
  H         0.39987          0.92978        -0.39590
  H         0.60089         -0.84125        -0.39833
6
 step=         547     theta[rad]=           5.7282
  C        -0.00519         -0.00544        -0.00950
  C         0.08627          0.01866         1.47035
  O         1.01528         -0.00933         2.21436
  H        -1.04057         -0.04348        -0.34097
  H         0.46165          0.90257        -0.39665
  H         0.53910         -0.86846        -0.39759
6
 step=         548     theta[rad]=           5.7386
  C        -0.00519          0.00468        -0.00950
  C         0.08627         -0.01606         1.47035
  O         1.01528          0.00803         2.21436
  H        -1.04057          0.03741        -0.34097
  H         0.53370          0.87084        -0.39752
  H         0.46705         -0.90019        -0.39672
6
 step=         549     theta[rad]=           5.7491
  C        -0.00519          0.01332        -0.00950
  C         0.08627         -0.04566         1.47035
  O         1.01528          0.02284         2.21436
  H        -1.04057          0.10637        -0.34097
  H         0.59512          0.84379        -0.39827
  H         0.40563         -0.92724        -0.39598
6
 step=         550     theta[rad]=           5.7596
  C        -0.00519          0.01820        -0.00950
  C         0.08627         -0.06238         1.47035
  O         1.01528          0.03120         2.21436
  H        -1.04057          0.14530        -0.34097
  H         0.62980          0.82851        -0.39869
  H         0.37095         -0.94251        -0.39556
6
 step=         551     theta[rad]=           5.7701
  C        -0.00519          0.01825        -0.00950
  C         0.08627         -0.06255         1.47035
  O         1.01528          0.03128         2.21436
  H        -1.04057          0.14570        -0.34097
  H         0.63016          0.82836        -0.39869
  H         0.37059         -0.94267        -0.39555
6
 step=         552     theta[rad]=           5.7805
  C        -0.00519          0.01373        -0.00950
  C         0.08627         -0.04707         1.47035
  O         1.01528          0.02354         2.21436
  H        -1.04057          0.10966        -0.34097
  H         0.59805          0.84250        -0.39830
  H         0.40270         -0.92853        -0.39594
6
 step=         553     theta[rad]=           5.7910
  C        -0.00519          0.00601        -0.00950
  C         0.08627         -0.02060         1.47035
  O         1.01528          0.01030         2.21436
  H        -1.04057          0.04798        -0.34097
  H         0.54311          0.86669        -0.39764
  H         0.45764         -0.90434        -0.39660
6
 step=         554     theta[rad]=           5.8015
  C        -0.00519         -0.00295        -0.00950
  C         0.08627          0.01010         1.47035
  O         1.01528         -0.00505         2.21436
  H        -1.04057         -0.02353        -0.34097
  H         0.47941          0.89475        -0.39687
  H         0.52134         -0.87628        -0.39737
6
 step=         555     theta[rad]=           5.8119
  C        -0.00519         -0.01107        -0.00950
  C         0.08627          0.03796         1.47035
  O         1.01528         -0.01898         2.21436
  H        -1.04057         -0.08842        -0.34097
  H         0.42162          0.92020        -0.39617
  H         0.57914         -0.85083        -0.39807
6
 step=         556     theta[rad]=           5.8224
  C        -0.00519         -0.01669        -0.00950
  C         0.08627          0.05723         1.47035
  O         1.01528         -0.02862         2.21436
  H        -1.04057         -0.13331        -0.34097
  H         0.38163          0.93781        -0.39568
  H         0.61912         -0.83322        -0.39855
6
 step=         557     theta[rad]=           5.8329
  C        -0.00519         -0.01883        -0.00950
  C         0.08627          0.06455         1.47035
  O         1.01528         -0.03228         2.21436
  H        -1.04057         -0.15035        -0.34097
  H         0.36645          0.94449        -0.39550
  H         0.63430         -0.82653        -0.39873
6
 step=         558     theta[rad]=           5.8434
  C        -0.00519         -0.01729        -0.00950
  C         0.08627          0.05927         1.47035
  O         1.01528         -0.02964         2.21436
  H        -1.04057         -0.13805        -0.34097
  H         0.37740          0.93967        -0.39563
  H         0.62335         -0.83136        -0.39860
6
 step=         559     theta[rad]=           5.8538
  C        -0.00519         -0.01260        -0.00950
  C         0.08627          0.04321         1.47035
  O         1.01528         -0.02161         2.21436
  H        -1.04057         -0.10066        -0.34097
  H         0.41072          0.92500        -0.39603
  H         0.59004         -0.84603        -0.39820
6
 step=         560     theta[rad]=           5.8643
  C        -0.00519         -0.00582        -0.00950
  C         0.08627          0.01996         1.47035
  O         1.01528         -0.00998         2.21436
  H        -1.04057         -0.04648        -0.34097
  H         0.45897          0.90375        -0.39662
  H         0.54178         -0.86728        -0.39762
6
 step=         561     theta[rad]=           5.8748
  C        -0.00519          0.00177        -0.00950
  C         0.08627         -0.00608         1.47035
  O         1.01528          0.00304         2.21436
  H        -1.04057          0.01416        -0.34097
  H         0.51298          0.87996        -0.39727
  H         0.48777         -0.89107        -0.39697
6
 step=         562     theta[rad]=           5.8853
  C        -0.00519          0.00890        -0.00950
  C         0.08627         -0.03052         1.47035
  O         1.01528          0.01526         2.21436
  H        -1.04057          0.07108        -0.34097
  H         0.56369          0.85763        -0.39789
  H         0.43706         -0.91340        -0.39636
6
 step=         563     theta[rad]=           5.8957
  C        -0.00519          0.01451        -0.00950
  C         0.08627         -0.04976         1.47035
  O         1.01528          0.02488         2.21436
  H        -1.04057          0.11591        -0.34097
  H         0.60362          0.84005        -0.39837
  H         0.39713         -0.93098        -0.39587
6
 step=         564     theta[rad]=           5.9062
  C        -0.00519          0.01792        -0.00950
  C         0.08627         -0.06142         1.47035
  O         1.01528          0.03072         2.21436
  H        -1.04057          0.14306        -0.34097
  H         0.62781          0.82939        -0.39866
  H         0.37294         -0.94163        -0.39558
6
 step=         565     theta[rad]=           5.9167
  C        -0.00519          0.01881        -0.00950
  C         0.08627         -0.06449         1.47035
  O         1.01528          0.03225         2.21436
  H        -1.04057          0.15022        -0.34097
  H         0.63418          0.82658        -0.39874
  H         0.36656         -0.94444        -0.39550
6
 step=         566     theta[rad]=           5.9271
  C        -0.00519          0.01729        -0.00950
  C         0.08627         -0.05927         1.47035
  O         1.01528          0.02964         2.21436
  H        -1.04057          0.13805        -0.34097
  H         0.62335          0.83136        -0.39861
  H         0.37740         -0.93967        -0.39564
6
 step=         567     theta[rad]=           5.9376
  C        -0.00519          0.01373        -0.00950
  C         0.08627         -0.04707         1.47035
  O         1.01528          0.02354         2.21436
  H        -1.04057          0.10966        -0.34097
  H         0.59805          0.84250        -0.39830
  H         0.40270         -0.92853        -0.39594
6
 step=         568     theta[rad]=           5.9481
  C        -0.00519          0.00873        -0.00950
  C         0.08627         -0.02992         1.47035
  O         1.01528          0.01496         2.21436
  H        -1.04057          0.06969        -0.34097
  H         0.56245          0.85817        -0.39787
  H         0.43830         -0.91285        -0.39637
6
 step=         569     theta[rad]=           5.9586
  C        -0.00519          0.00295        -0.00950
  C         0.08627         -0.01010         1.47035
  O         1.01528          0.00505         2.21436
  H        -1.04057          0.02353        -0.34097
  H         0.52134          0.87628        -0.39737
  H         0.47941         -0.89474        -0.39687
6
 step=         570     theta[rad]=           5.9690
  C        -0.00519         -0.00295        -0.00950
  C         0.08627          0.01010         1.47035
  O         1.01528         -0.00505         2.21436
  H        -1.04057         -0.02353        -0.34097
  H         0.47941          0.89475        -0.39687
  H         0.52134         -0.87628        -0.39737
6
 step=         571     theta[rad]=           5.9795
  C        -0.00519         -0.00838        -0.00950
  C         0.08627          0.02871         1.47035
  O         1.01528         -0.01436         2.21436
  H        -1.04057         -0.06688        -0.34097
  H         0.44080          0.91175        -0.39640
  H         0.55995         -0.85928        -0.39784
6
 step=         572     theta[rad]=           5.9900
  C        -0.00519         -0.01290        -0.00950
  C         0.08627          0.04421         1.47035
  O         1.01528         -0.02211         2.21436
  H        -1.04057         -0.10297        -0.34097
  H         0.40865          0.92591        -0.39601
  H         0.59210         -0.84512        -0.39823
6
 step=         573     theta[rad]=           6.0004
  C        -0.00519         -0.01621        -0.00950
  C         0.08627          0.05558         1.47035
  O         1.01528         -0.02780         2.21436
  H        -1.04057         -0.12948        -0.34097
  H         0.38504          0.93631        -0.39572
  H         0.61571         -0.83472        -0.39851
6
 step=         574     theta[rad]=           6.0109
  C        -0.00519         -0.01820        -0.00950
  C         0.08627          0.06238         1.47035
  O         1.01528         -0.03120         2.21436
  H        -1.04057         -0.14530        -0.34097
  H         0.37095          0.94251        -0.39555
  H         0.62980         -0.82852        -0.39868
6
 step=         575     theta[rad]=           6.0214
  C        -0.00519         -0.01884        -0.00950
  C         0.08627          0.06458         1.47035
  O         1.01528         -0.03230         2.21436
  H        -1.04057         -0.15043        -0.34097
  H         0.36638          0.94452        -0.39550
  H         0.63437         -0.82650        -0.39874
6
 step=         576     theta[rad]=           6.0319
  C        -0.00519         -0.01825        -0.00950
  C         0.08627          0.06255         1.47035
  O         1.01528         -0.03128         2.21436
  H        -1.04057         -0.14570        -0.34097
  H         0.37059          0.94267        -0.39555
  H         0.63016         -0.82836        -0.39868
6
 step=         577     theta[rad]=           6.0423
  C        -0.00519         -0.01660        -0.00950
  C         0.08627          0.05691         1.47035
  O         1.01528         -0.02846         2.21436
  H        -1.04057         -0.13257        -0.34097
  H         0.38229          0.93752        -0.39569
  H         0.61847         -0.83351        -0.39854
6
 step=         578     theta[rad]=           6.0528
  C        -0.00519         -0.01413        -0.00950
  C         0.08627          0.04844         1.47035
  O         1.01528         -0.02423         2.21436
  H        -1.04057         -0.11284        -0.34097
  H         0.39987          0.92978        -0.39590
  H         0.60089         -0.84125        -0.39833
6
 step=         579     theta[rad]=           6.0633
  C        -0.00519         -0.01107        -0.00950
  C         0.08627          0.03796         1.47035
  O         1.01528         -0.01898         2.21436
  H        -1.04057         -0.08842        -0.34097
  H         0.42162          0.92020        -0.39617
  H         0.57914         -0.85083        -0.39807
6
 step=         580     theta[rad]=           6.0737
  C        -0.00519         -0.00766        -0.00950
  C         0.08627          0.02627         1.47035
  O         1.01528         -0.01314         2.21436
  H        -1.04057         -0.06118        -0.34097
  H         0.44588          0.90952        -0.39646
  H         0.55488         -0.86151        -0.39778
6
 step=         581     theta[rad]=           6.0842
  C        -0.00519         -0.00411        -0.00950
  C         0.08627          0.01409         1.47035
  O         1.01528         -0.00705         2.21436
  H        -1.04057         -0.03281        -0.34097
  H         0.47115          0.89839        -0.39677
  H         0.52961         -0.87264        -0.39747
6
 step=         582     theta[rad]=           6.0947
  C        -0.00519         -0.00059        -0.00950
  C         0.08627          0.00203         1.47035
  O         1.01528         -0.00101         2.21436
  H        -1.04057         -0.00473        -0.34097
  H         0.49617          0.88737        -0.39707
  H         0.50458         -0.88366        -0.39717
6
 step=         583     theta[rad]=           6.1052
  C        -0.00519          0.00275        -0.00950
  C         0.08627         -0.00943         1.47035
  O         1.01528          0.00472         2.21436
  H        -1.04057          0.02197        -0.34097
  H         0.51995          0.87689        -0.39736
  H         0.48080         -0.89413        -0.39688
6
 step=         584     theta[rad]=           6.1156
  C        -0.00519          0.00582        -0.00950
  C         0.08627         -0.01996         1.47035
  O         1.01528          0.00998         2.21436
  H        -1.04057          0.04648        -0.34097
  H         0.54178          0.86728        -0.39762
  H         0.45897         -0.90375        -0.39662
6
 step=         585     theta[rad]=           6.1261
  C        -0.00519          0.00855        -0.00950
  C         0.08627         -0.02932         1.47035
  O         1.01528          0.01466         2.21436
  H        -1.04057          0.06829        -0.34097
  H         0.56121          0.85872        -0.39786
  H         0.43954         -0.91230        -0.39639
6
 step=         586     theta[rad]=           6.1366
  C        -0.00519          0.01091        -0.00950
  C         0.08627         -0.03741         1.47035
  O         1.01528          0.01871         2.21436
  H        -1.04057          0.08714        -0.34097
  H         0.57799          0.85133        -0.39806
  H         0.42275         -0.91970        -0.39618
6
 step=         587     theta[rad]=           6.1470
  C        -0.00519          0.01290        -0.00950
  C         0.08627         -0.04421         1.47035
  O         1.01528          0.02211         2.21436
  H        -1.04057          0.10297        -0.34097
  H         0.59210          0.84512        -0.39823
  H         0.40865         -0.92591        -0.39601
6
 step=         588     theta[rad]=           6.1575
  C        -0.00519          0.01451        -0.00950
  C         0.08627         -0.04976         1.47035
  O         1.01528          0.02488         2.21436
  H        -1.04057          0.11591        -0.34097
  H         0.60362          0.84005        -0.39837
  H         0.39713         -0.93098        -0.39587
6
 step=         589     theta[rad]=           6.1680
  C        -0.00519          0.01580        -0.00950
  C         0.08627         -0.05416         1.47035
  O         1.01528          0.02709         2.21436
  H        -1.04057          0.12616        -0.34097
  H         0.61275          0.83602        -0.39848
  H         0.38800         -0.93500        -0.39576
6
 step=         590     theta[rad]=           6.1785
  C        -0.00519          0.01678        -0.00950
  C         0.08627         -0.05754         1.47035
  O         1.01528          0.02878         2.21436
  H        -1.04057          0.13403        -0.34097
  H         0.61976          0.83294        -0.39856
  H         0.38098         -0.93809        -0.39568
6
 step=         591     theta[rad]=           6.1889
  C        -0.00519          0.01752        -0.00950
  C         0.08627         -0.06004         1.47035
  O         1.01528          0.03003         2.21436
  H        -1.04057          0.13986        -0.34097
  H         0.62496          0.83065        -0.39863
  H         0.37579         -0.94038        -0.39562
6
 step=         592     theta[rad]=           6.1994
  C        -0.00519          0.01803        -0.00950
  C         0.08627         -0.06182         1.47035
  O         1.01528          0.03092         2.21436
  H        -1.04057          0.14401        -0.34097
  H         0.62865          0.82902        -0.39867
  H         0.37210         -0.94200        -0.39557
6
 step=         593     theta[rad]=           6.2099
  C        -0.00519          0.01838        -0.00950
  C         0.08627         -0.06302         1.47035
  O         1.01528          0.03152         2.21436
  H        -1.04057          0.14680        -0.34097
  H         0.63114          0.82793        -0.39870
  H         0.36961         -0.94310        -0.39554
6
 step=         594     theta[rad]=           6.2204
  C        -0.00519          0.01861        -0.00950
  C         0.08627         -0.06378         1.47035
  O         1.01528          0.03190         2.21436
  H        -1.04057          0.14857        -0.34097
  H         0.63272          0.82723        -0.39872
  H         0.36803         -0.94380        -0.39552
6
 step=         595     theta[rad]=           6.2308
  C        -0.00519          0.01873        -0.00950
  C         0.08627         -0.06422         1.47035
  O         1.01528          0.03212         2.21436
  H        -1.04057          0.14960        -0.34097
  H         0.63363          0.82683        -0.39873
  H         0.36711         -0.94420        -0.39551
6
 step=         596     theta[rad]=           6.2413
  C        -0.00519          0.01880        -0.00950
  C         0.08627         -0.06445         1.47035
  O         1.01528          0.03223         2.21436
  H        -1.04057          0.15013        -0.34097
  H         0.63410          0.82662        -0.39874
  H         0.36664         -0.94441        -0.39551
6
 step=         597     theta[rad]=           6.2518
  C        -0.00519          0.01883        -0.00950
  C         0.08627         -0.06455         1.47035
  O         1.01528          0.03228         2.21436
  H        -1.04057          0.15035        -0.34097
  H         0.63430          0.82653        -0.39874
  H         0.36645         -0.94449        -0.39550
6
 step=         598     theta[rad]=           6.2622
  C        -0.00519          0.01884        -0.00950
  C         0.08627         -0.06457         1.47035
  O         1.01528          0.03229         2.21436
  H        -1.04057          0.15042        -0.34097
  H         0.63436          0.82651        -0.39874
  H         0.36639         -0.94452        -0.39550
6
 step=         599     theta[rad]=           6.2727
  C        -0.00519          0.01884        -0.00950
  C         0.08627         -0.06458         1.47035
  O         1.01528          0.03230         2.21436
  H        -1.04057          0.15043        -0.34097
  H         0.63437          0.82650        -0.39874
  H         0.36638         -0.94452        -0.39550
6
 step=         600     theta[rad]=           6.2832
  C        -0.00519          0.01884        -0.00950
  C         0.08627         -0.06458         1.47035
  O         1.01528          0.03230         2.21436
  H        -1.04057          0.15043        -0.34097
  H         0.63437          0.82650        -0.39874
  H         0.36638         -0.94452        -0.39550
