6
 step=           0     theta[rad]=           0.0000
  C        -0.00956          0.00000        -0.01494
  C         0.15072          0.00000         1.52326
  O         0.96999         -0.00000         2.17982
  H        -1.03657          0.00000        -0.37148
  H         0.49998          0.88888        -0.39064
  H         0.49998         -0.88888        -0.39064
6
 step=           1     theta[rad]=           0.0105
  C        -0.00956          0.00000        -0.01494
  C         0.15071          0.00000         1.52326
  O         0.96999         -0.00000         2.17983
  H        -1.03657          0.00000        -0.37148
  H         0.49998          0.88888        -0.39064
  H         0.49998         -0.88888        -0.39064
6
 step=           2     theta[rad]=           0.0209
  C        -0.00956          0.00000        -0.01494
  C         0.15069          0.00000         1.52324
  O         0.97001         -0.00000         2.17984
  H        -1.03657          0.00000        -0.37147
  H         0.49998          0.88888        -0.39064
  H         0.49998         -0.88888        -0.39064
6
 step=           3     theta[rad]=           0.0314
  C        -0.00955          0.00000        -0.01493
  C         0.15059          0.00000         1.52316
  O         0.97007         -0.00000         2.17989
  H        -1.03657          0.00000        -0.37142
  H         0.49998          0.88888        -0.39065
  H         0.49998         -0.88888        -0.39065
6
 step=           4     theta[rad]=           0.0419
  C        -0.00954          0.00000        -0.01491
  C         0.15037          0.00000         1.52297
  O         0.97023         -0.00000         2.18001
  H        -1.03659          0.00000        -0.37131
  H         0.49998          0.88887        -0.39068
  H         0.49998         -0.88887        -0.39068
6
 step=           5     theta[rad]=           0.0524
  C        -0.00951          0.00000        -0.01488
  C         0.14992          0.00000         1.52261
  O         0.97054         -0.00000         2.18025
  H        -1.03661          0.00000        -0.37111
  H         0.49998          0.88884        -0.39072
  H         0.49998         -0.88884        -0.39072
6
 step=           6     theta[rad]=           0.0628
  C        -0.00946          0.00000        -0.01481
  C         0.14917          0.00000         1.52199
  O         0.97108         -0.00000         2.18066
  H        -1.03666          0.00000        -0.37075
  H         0.49999          0.88880        -0.39080
  H         0.49999         -0.88880        -0.39080
6
 step=           7     theta[rad]=           0.0733
  C        -0.00938          0.00000        -0.01471
  C         0.14797          0.00000         1.52100
  O         0.97192         -0.00000         2.18130
  H        -1.03674          0.00000        -0.37018
  H         0.50000          0.88874        -0.39092
  H         0.50000         -0.88874        -0.39092
6
 step=           8     theta[rad]=           0.0838
  C        -0.00925          0.00000        -0.01456
  C         0.14619          0.00000         1.51955
  O         0.97317         -0.00000         2.18225
  H        -1.03685          0.00000        -0.36934
  H         0.50001          0.88865        -0.39110
  H         0.50001         -0.88865        -0.39110
6
 step=           9     theta[rad]=           0.0942
  C        -0.00908          0.00000        -0.01435
  C         0.14369          0.00000         1.51750
  O         0.97492         -0.00000         2.18359
  H        -1.03700          0.00000        -0.36816
  H         0.50002          0.88852        -0.39135
  H         0.50002         -0.88852        -0.39135
6
 step=          10     theta[rad]=           0.1047
  C        -0.00886          0.00000        -0.01406
  C         0.14032          0.00000         1.51473
  O         0.97729         -0.00000         2.18539
  H        -1.03721          0.00000        -0.36656
  H         0.50004          0.88834        -0.39169
  H         0.50004         -0.88834        -0.39169
6
 step=          11     theta[rad]=           0.1152
  C        -0.00856          0.00000        -0.01369
  C         0.13593          0.00000         1.51112
  O         0.98038         -0.00000         2.18775
  H        -1.03748          0.00000        -0.36448
  H         0.50007          0.88811        -0.39213
  H         0.50007         -0.88811        -0.39213
6
 step=          12     theta[rad]=           0.1257
  C        -0.00818          0.00000        -0.01323
  C         0.13039          0.00000         1.50657
  O         0.98427         -0.00000         2.19072
  H        -1.03783          0.00000        -0.36186
  H         0.50010          0.88782        -0.39268
  H         0.50010         -0.88782        -0.39268
6
 step=          13     theta[rad]=           0.1361
  C        -0.00772          0.00000        -0.01265
  C         0.12361          0.00000         1.50100
  O         0.98904         -0.00000         2.19435
  H        -1.03825          0.00000        -0.35864
  H         0.50015          0.88747        -0.39337
  H         0.50015         -0.88747        -0.39337
6
 step=          14     theta[rad]=           0.1466
  C        -0.00717          0.00000        -0.01197
  C         0.11553          0.00000         1.49437
  O         0.99472         -0.00000         2.19868
  H        -1.03875          0.00000        -0.35482
  H         0.50019          0.88704        -0.39418
  H         0.50020         -0.88704        -0.39418
6
 step=          15     theta[rad]=           0.1571
  C        -0.00654          0.00000        -0.01118
  C         0.10619          0.00000         1.48670
  O         1.00128         -0.00000         2.20369
  H        -1.03933          0.00000        -0.35040
  H         0.50025          0.88656        -0.39512
  H         0.50025         -0.88656        -0.39512
6
 step=          16     theta[rad]=           0.1676
  C        -0.00582          0.00000        -0.01030
  C         0.09569          0.00000         1.47808
  O         1.00867         -0.00000         2.20931
  H        -1.03999         -0.00000        -0.34543
  H         0.50032          0.88601        -0.39617
  H         0.50032         -0.88601        -0.39617
6
 step=          17     theta[rad]=           0.1780
  C        -0.00505          0.00000        -0.00933
  C         0.08425          0.00000         1.46869
  O         1.01671         -0.00000         2.21544
  H        -1.04070         -0.00000        -0.34001
  H         0.50039          0.88541        -0.39732
  H         0.50039         -0.88541        -0.39732
6
 step=          18     theta[rad]=           0.1885
  C        -0.00423          0.00000        -0.00831
  C         0.07222          0.00000         1.45881
  O         1.02516         -0.00000         2.22189
  H        -1.04144         -0.00000        -0.33431
  H         0.50046          0.88478        -0.39853
  H         0.50046         -0.88478        -0.39853
6
 step=          19     theta[rad]=           0.1990
  C        -0.00341          0.00000        -0.00729
  C         0.06006          0.00000         1.44883
  O         1.03371         -0.00000         2.22840
  H        -1.04220         -0.00000        -0.32856
  H         0.50054          0.88414        -0.39975
  H         0.50054         -0.88414        -0.39975
6
 step=          20     theta[rad]=           0.2094
  C        -0.00261         -0.00000        -0.00630
  C         0.04839          0.00000         1.43925
  O         1.04191         -0.00000         2.23465
  H        -1.04292         -0.00000        -0.32303
  H         0.50061          0.88353        -0.40093
  H         0.50061         -0.88353        -0.40093
6
 step=          21     theta[rad]=           0.2199
  C        -0.00190         -0.00000        -0.00542
  C         0.03793          0.00000         1.43066
  O         1.04926         -0.00000         2.24026
  H        -1.04357         -0.00000        -0.31808
  H         0.50067          0.88299        -0.40198
  H         0.50067         -0.88299        -0.40198
6
 step=          22     theta[rad]=           0.2304
  C        -0.00133         -0.00000        -0.00470
  C         0.02948          0.00000         1.42371
  O         1.05520         -0.00000         2.24479
  H        -1.04410         -0.00000        -0.31408
  H         0.50073          0.88254        -0.40283
  H         0.50072         -0.88254        -0.40283
6
 step=          23     theta[rad]=           0.2409
  C        -0.00095         -0.00000        -0.00423
  C         0.02385          0.00000         1.41910
  O         1.05916         -0.00000         2.24780
  H        -1.04445         -0.00000        -0.31141
  H         0.50076          0.88225        -0.40339
  H         0.50076         -0.88225        -0.40339
6
 step=          24     theta[rad]=           0.2513
  C        -0.00081         -0.00000        -0.00406
  C         0.02183          0.00000         1.41743
  O         1.06058         -0.00000         2.24889
  H        -1.04457         -0.00000        -0.31045
  H         0.50077          0.88214        -0.40360
  H         0.50077         -0.88214        -0.40360
6
 step=          25     theta[rad]=           0.2618
  C        -0.00096         -0.00000        -0.00424
  C         0.02403          0.00000         1.41924
  O         1.05904         -0.00000         2.24771
  H        -1.04444         -0.00000        -0.31149
  H         0.50076          0.88226        -0.40338
  H         0.50076         -0.88226        -0.40338
6
 step=          26     theta[rad]=           0.2723
  C        -0.00142         -0.00000        -0.00482
  C         0.03080          0.00000         1.42480
  O         1.05427         -0.00000         2.24408
  H        -1.04402         -0.00000        -0.31470
  H         0.50072          0.88261        -0.40269
  H         0.50072         -0.88261        -0.40270
6
 step=          27     theta[rad]=           0.2827
  C        -0.00219         -0.00000        -0.00577
  C         0.04216          0.00000         1.43413
  O         1.04629         -0.00000         2.23800
  H        -1.04331         -0.00000        -0.32008
  H         0.50065          0.88321        -0.40155
  H         0.50065         -0.88321        -0.40155
6
 step=          28     theta[rad]=           0.2932
  C        -0.00324          0.00000        -0.00708
  C         0.05762          0.00000         1.44682
  O         1.03542         -0.00000         2.22971
  H        -1.04235         -0.00000        -0.32740
  H         0.50055          0.88402        -0.40000
  H         0.50055         -0.88402        -0.40000
6
 step=          29     theta[rad]=           0.3037
  C        -0.00450          0.00000        -0.00865
  C         0.07619          0.00000         1.46207
  O         1.02237         -0.00000         2.21976
  H        -1.04120         -0.00000        -0.33619
  H         0.50044          0.88499        -0.39813
  H         0.50044         -0.88499        -0.39813
6
 step=          30     theta[rad]=           0.3142
  C        -0.00587          0.00000        -0.01035
  C         0.09636          0.00000         1.47863
  O         1.00820         -0.00000         2.20895
  H        -1.03994         -0.00000        -0.34574
  H         0.50031          0.88604        -0.39611
  H         0.50031         -0.88604        -0.39611
6
 step=          31     theta[rad]=           0.3246
  C        -0.00721          0.00000        -0.01202
  C         0.11613          0.00000         1.49486
  O         0.99430         -0.00000         2.19836
  H        -1.03871          0.00000        -0.35511
  H         0.50019          0.88708        -0.39412
  H         0.50019         -0.88708        -0.39412
6
 step=          32     theta[rad]=           0.3351
  C        -0.00838          0.00000        -0.01347
  C         0.13325          0.00000         1.50892
  O         0.98226         -0.00000         2.18918
  H        -1.03765          0.00000        -0.36321
  H         0.50009          0.88797        -0.39240
  H         0.50009         -0.88797        -0.39240
6
 step=          33     theta[rad]=           0.3456
  C        -0.00920          0.00000        -0.01449
  C         0.14542          0.00000         1.51891
  O         0.97371         -0.00000         2.18266
  H        -1.03689          0.00000        -0.36897
  H         0.50001          0.88861        -0.39117
  H         0.50001         -0.88861        -0.39117
6
 step=          34     theta[rad]=           0.3560
  C        -0.00956          0.00000        -0.01493
  C         0.15063          0.00000         1.52319
  O         0.97005         -0.00000         2.17987
  H        -1.03657          0.00000        -0.37144
  H         0.49998          0.88888        -0.39065
  H         0.49998         -0.88888        -0.39065
6
 step=          35     theta[rad]=           0.3665
  C        -0.00935          0.00000        -0.01468
  C         0.14756          0.00000         1.52067
  O         0.97220         -0.00000         2.18151
  H        -1.03676          0.00000        -0.36999
  H         0.50000          0.88872        -0.39096
  H         0.50000         -0.88872        -0.39096
6
 step=          36     theta[rad]=           0.3770
  C        -0.00856          0.00000        -0.01369
  C         0.13593          0.00000         1.51112
  O         0.98038         -0.00000         2.18775
  H        -1.03748          0.00000        -0.36448
  H         0.50007          0.88811        -0.39213
  H         0.50007         -0.88811        -0.39213
6
 step=          37     theta[rad]=           0.3875
  C        -0.00725          0.00000        -0.01207
  C         0.11673          0.00000         1.49535
  O         0.99388         -0.00000         2.19804
  H        -1.03868          0.00000        -0.35539
  H         0.50019          0.88711        -0.39406
  H         0.50019         -0.88711        -0.39406
6
 step=          38     theta[rad]=           0.3979
  C        -0.00560          0.00000        -0.01001
  C         0.09234          0.00000         1.47533
  O         1.01102         -0.00000         2.21111
  H        -1.04019         -0.00000        -0.34384
  H         0.50034          0.88583        -0.39651
  H         0.50034         -0.88583        -0.39651
6
 step=          39     theta[rad]=           0.4084
  C        -0.00383          0.00000        -0.00782
  C         0.06636          0.00000         1.45400
  O         1.02928         -0.00000         2.22503
  H        -1.04181         -0.00000        -0.33154
  H         0.50050          0.88447        -0.39912
  H         0.50050         -0.88447        -0.39912
6
 step=          40     theta[rad]=           0.4189
  C        -0.00226         -0.00000        -0.00586
  C         0.04315          0.00000         1.43494
  O         1.04559         -0.00000         2.23746
  H        -1.04325         -0.00000        -0.32055
  H         0.50064          0.88326        -0.40145
  H         0.50064         -0.88326        -0.40145
6
 step=          41     theta[rad]=           0.4294
  C        -0.00117         -0.00000        -0.00451
  C         0.02713          0.00000         1.42179
  O         1.05685         -0.00000         2.24605
  H        -1.04425         -0.00000        -0.31296
  H         0.50074          0.88242        -0.40306
  H         0.50074         -0.88242        -0.40306
6
 step=          42     theta[rad]=           0.4398
  C        -0.00081         -0.00000        -0.00406
  C         0.02186          0.00000         1.41746
  O         1.06056         -0.00000         2.24887
  H        -1.04457         -0.00000        -0.31047
  H         0.50077          0.88215        -0.40359
  H         0.50077         -0.88214        -0.40359
6
 step=          43     theta[rad]=           0.4503
  C        -0.00131         -0.00000        -0.00468
  C         0.02916          0.00000         1.42346
  O         1.05543         -0.00000         2.24496
  H        -1.04412         -0.00000        -0.31393
  H         0.50073          0.88253        -0.40286
  H         0.50073         -0.88253        -0.40286
6
 step=          44     theta[rad]=           0.4608
  C        -0.00261         -0.00000        -0.00630
  C         0.04839          0.00000         1.43925
  O         1.04191         -0.00000         2.23465
  H        -1.04292         -0.00000        -0.32303
  H         0.50061          0.88353        -0.40093
  H         0.50061         -0.88353        -0.40093
6
 step=          45     theta[rad]=           0.4712
  C        -0.00450          0.00000        -0.00865
  C         0.07619          0.00000         1.46207
  O         1.02237         -0.00000         2.21976
  H        -1.04120         -0.00000        -0.33619
  H         0.50044          0.88499        -0.39813
  H         0.50044         -0.88499        -0.39813
6
 step=          46     theta[rad]=           0.4817
  C        -0.00658          0.00000        -0.01124
  C         0.10683          0.00000         1.48723
  O         1.00083         -0.00000         2.20334
  H        -1.03929          0.00000        -0.35070
  H         0.50025          0.88659        -0.39505
  H         0.50025         -0.88659        -0.39505
6
 step=          47     theta[rad]=           0.4922
  C        -0.00838          0.00000        -0.01347
  C         0.13325          0.00000         1.50892
  O         0.98226         -0.00000         2.18918
  H        -1.03765          0.00000        -0.36321
  H         0.50009          0.88797        -0.39240
  H         0.50009         -0.88797        -0.39240
6
 step=          48     theta[rad]=           0.5027
  C        -0.00942          0.00000        -0.01477
  C         0.14869          0.00000         1.52160
  O         0.97141         -0.00000         2.18091
  H        -1.03669          0.00000        -0.37052
  H         0.49999          0.88878        -0.39084
  H         0.49999         -0.88878        -0.39084
6
 step=          49     theta[rad]=           0.5131
  C        -0.00941          0.00000        -0.01476
  C         0.14852          0.00000         1.52146
  O         0.97153         -0.00000         2.18100
  H        -1.03670          0.00000        -0.37044
  H         0.49999          0.88877        -0.39086
  H         0.49999         -0.88877        -0.39086
6
 step=          50     theta[rad]=           0.5236
  C        -0.00828          0.00000        -0.01335
  C         0.13184          0.00000         1.50776
  O         0.98325         -0.00000         2.18994
  H        -1.03774          0.00000        -0.36254
  H         0.50009          0.88790        -0.39254
  H         0.50009         -0.88790        -0.39254
6
 step=          51     theta[rad]=           0.5341
  C        -0.00627          0.00000        -0.01085
  C         0.10230          0.00000         1.48351
  O         1.00402         -0.00000         2.20577
  H        -1.03957          0.00000        -0.34856
  H         0.50028          0.88635        -0.39551
  H         0.50028         -0.88635        -0.39551
6
 step=          52     theta[rad]=           0.5445
  C        -0.00392          0.00000        -0.00793
  C         0.06765          0.00000         1.45505
  O         1.02838         -0.00000         2.22434
  H        -1.04173         -0.00000        -0.33215
  H         0.50049          0.88454        -0.39899
  H         0.50049         -0.88454        -0.39899
6
 step=          53     theta[rad]=           0.5550
  C        -0.00190         -0.00000        -0.00542
  C         0.03793          0.00000         1.43066
  O         1.04926         -0.00000         2.24026
  H        -1.04357         -0.00000        -0.31808
  H         0.50067          0.88299        -0.40198
  H         0.50067         -0.88299        -0.40198
6
 step=          54     theta[rad]=           0.5655
  C        -0.00086         -0.00000        -0.00412
  C         0.02262          0.00000         1.41809
  O         1.06002         -0.00000         2.24846
  H        -1.04453         -0.00000        -0.31083
  H         0.50077          0.88218        -0.40352
  H         0.50077         -0.88218        -0.40352
6
 step=          55     theta[rad]=           0.5760
  C        -0.00119         -0.00000        -0.00453
  C         0.02740          0.00000         1.42201
  O         1.05666         -0.00000         2.24590
  H        -1.04423         -0.00000        -0.31309
  H         0.50074          0.88243        -0.40304
  H         0.50074         -0.88243        -0.40304
6
 step=          56     theta[rad]=           0.5864
  C        -0.00284          0.00000        -0.00658
  C         0.05174          0.00000         1.44200
  O         1.03955         -0.00000         2.23286
  H        -1.04272         -0.00000        -0.32462
  H         0.50059          0.88371        -0.40059
  H         0.50059         -0.88371        -0.40059
6
 step=          57     theta[rad]=           0.5969
  C        -0.00532          0.00000        -0.00967
  C         0.08830          0.00000         1.47201
  O         1.01386         -0.00000         2.21327
  H        -1.04044         -0.00000        -0.34193
  H         0.50036          0.88562        -0.39692
  H         0.50036         -0.88562        -0.39692
6
 step=          58     theta[rad]=           0.6074
  C        -0.00779          0.00000        -0.01274
  C         0.12470          0.00000         1.50190
  O         0.98828         -0.00000         2.19377
  H        -1.03818          0.00000        -0.35916
  H         0.50014          0.88752        -0.39326
  H         0.50014         -0.88752        -0.39326
6
 step=          59     theta[rad]=           0.6178
  C        -0.00935          0.00000        -0.01468
  C         0.14756          0.00000         1.52067
  O         0.97220         -0.00000         2.18151
  H        -1.03676          0.00000        -0.36999
  H         0.50000          0.88872        -0.39096
  H         0.50000         -0.88872        -0.39096
6
 step=          60     theta[rad]=           0.6283
  C        -0.00935          0.00000        -0.01468
  C         0.14756          0.00000         1.52067
  O         0.97220         -0.00000         2.18151
  H        -1.03676          0.00000        -0.36999
  H         0.50000          0.88872        -0.39096
  H         0.50000         -0.88872        -0.39096
6
 step=          61     theta[rad]=           0.6388
  C        -0.00772          0.00000        -0.01265
  C         0.12361          0.00000         1.50100
  O         0.98904         -0.00000         2.19435
  H        -1.03825          0.00000        -0.35864
  H         0.50015          0.88747        -0.39337
  H         0.50015         -0.88747        -0.39337
6
 step=          62     theta[rad]=           0.6493
  C        -0.00505          0.00000        -0.00933
  C         0.08425          0.00000         1.46869
  O         1.01671         -0.00000         2.21544
  H        -1.04070         -0.00000        -0.34001
  H         0.50039          0.88541        -0.39732
  H         0.50039         -0.88541        -0.39732
6
 step=          63     theta[rad]=           0.6597
  C        -0.00240         -0.00000        -0.00603
  C         0.04520          0.00000         1.43662
  O         1.04416         -0.00000         2.23637
  H        -1.04312         -0.00000        -0.32152
  H         0.50063          0.88337        -0.40125
  H         0.50063         -0.88337        -0.40125
6
 step=          64     theta[rad]=           0.6702
  C        -0.00090         -0.00000        -0.00418
  C         0.02324          0.00000         1.41859
  O         1.05959         -0.00000         2.24814
  H        -1.04449         -0.00000        -0.31112
  H         0.50076          0.88222        -0.40346
  H         0.50076         -0.88222        -0.40346
6
 step=          65     theta[rad]=           0.6807
  C        -0.00129         -0.00000        -0.00465
  C         0.02885          0.00000         1.42320
  O         1.05564         -0.00000         2.24513
  H        -1.04414         -0.00000        -0.31378
  H         0.50073          0.88251        -0.40289
  H         0.50073         -0.88251        -0.40289
6
 step=          66     theta[rad]=           0.6912
  C        -0.00345          0.00000        -0.00734
  C         0.06068          0.00000         1.44933
  O         1.03327         -0.00000         2.22807
  H        -1.04216         -0.00000        -0.32885
  H         0.50053          0.88418        -0.39969
  H         0.50053         -0.88418        -0.39969
6
 step=          67     theta[rad]=           0.7016
  C        -0.00645          0.00000        -0.01107
  C         0.10490          0.00000         1.48564
  O         1.00219         -0.00000         2.20438
  H        -1.03941          0.00000        -0.34979
  H         0.50026          0.88649        -0.39525
  H         0.50026         -0.88649        -0.39525
6
 step=          68     theta[rad]=           0.7121
  C        -0.00888          0.00000        -0.01410
  C         0.14069          0.00000         1.51503
  O         0.97704         -0.00000         2.18520
  H        -1.03719          0.00000        -0.36673
  H         0.50004          0.88836        -0.39165
  H         0.50004         -0.88836        -0.39165
6
 step=          69     theta[rad]=           0.7226
  C        -0.00951          0.00000        -0.01488
  C         0.14992          0.00000         1.52261
  O         0.97054         -0.00000         2.18025
  H        -1.03661          0.00000        -0.37111
  H         0.49998          0.88884        -0.39072
  H         0.49998         -0.88884        -0.39072
6
 step=          70     theta[rad]=           0.7330
  C        -0.00794          0.00000        -0.01293
  C         0.12683          0.00000         1.50365
  O         0.98678         -0.00000         2.19262
  H        -1.03805          0.00000        -0.36017
  H         0.50013          0.88763        -0.39304
  H         0.50013         -0.88764        -0.39304
6
 step=          71     theta[rad]=           0.7435
  C        -0.00491          0.00000        -0.00916
  C         0.08223          0.00000         1.46703
  O         1.01813         -0.00000         2.21653
  H        -1.04082         -0.00000        -0.33905
  H         0.50040          0.88530        -0.39753
  H         0.50040         -0.88530        -0.39753
6
 step=          72     theta[rad]=           0.7540
  C        -0.00200         -0.00000        -0.00553
  C         0.03930          0.00000         1.43178
  O         1.04830         -0.00000         2.23953
  H        -1.04349         -0.00000        -0.31873
  H         0.50066          0.88306        -0.40184
  H         0.50066         -0.88306        -0.40184
6
 step=          73     theta[rad]=           0.7645
  C        -0.00081         -0.00000        -0.00406
  C         0.02183          0.00000         1.41744
  O         1.06058         -0.00000         2.24889
  H        -1.04457         -0.00000        -0.31046
  H         0.50077          0.88214        -0.40360
  H         0.50077         -0.88214        -0.40360
6
 step=          74     theta[rad]=           0.7749
  C        -0.00209         -0.00000        -0.00565
  C         0.04070          0.00000         1.43293
  O         1.04731         -0.00000         2.23878
  H        -1.04340         -0.00000        -0.31939
  H         0.50066          0.88313        -0.40170
  H         0.50066         -0.88313        -0.40170
6
 step=          75     theta[rad]=           0.7854
  C        -0.00519          0.00000        -0.00950
  C         0.08627          0.00000         1.47035
  O         1.01528         -0.00000         2.21436
  H        -1.04057         -0.00000        -0.34097
  H         0.50038          0.88551        -0.39712
  H         0.50038         -0.88551        -0.39712
6
 step=          76     theta[rad]=           0.7959
  C        -0.00831          0.00000        -0.01339
  C         0.13232          0.00000         1.50815
  O         0.98292         -0.00000         2.18968
  H        -1.03771          0.00000        -0.36277
  H         0.50009          0.88792        -0.39249
  H         0.50009         -0.88792        -0.39249
6
 step=          77     theta[rad]=           0.8063
  C        -0.00956          0.00000        -0.01494
  C         0.15069          0.00000         1.52324
  O         0.97001         -0.00000         2.17984
  H        -1.03657          0.00000        -0.37147
  H         0.49998          0.88888        -0.39064
  H         0.49998         -0.88888        -0.39064
6
 step=          78     theta[rad]=           0.8168
  C        -0.00808          0.00000        -0.01310
  C         0.12889          0.00000         1.50534
  O         0.98533         -0.00000         2.19152
  H        -1.03792          0.00000        -0.36115
  H         0.50011          0.88774        -0.39284
  H         0.50011         -0.88774        -0.39283
6
 step=          79     theta[rad]=           0.8273
  C        -0.00473          0.00000        -0.00893
  C         0.07954          0.00000         1.46482
  O         1.02002         -0.00000         2.21797
  H        -1.04099         -0.00000        -0.33778
  H         0.50042          0.88516        -0.39780
  H         0.50042         -0.88516        -0.39780
6
 step=          80     theta[rad]=           0.8378
  C        -0.00165         -0.00000        -0.00510
  C         0.03414          0.00000         1.42754
  O         1.05193         -0.00000         2.24229
  H        -1.04381         -0.00000        -0.31628
  H         0.50070          0.88279        -0.40236
  H         0.50070         -0.88279        -0.40236
6
 step=          81     theta[rad]=           0.8482
  C        -0.00091         -0.00000        -0.00419
  C         0.02338          0.00000         1.41871
  O         1.05949         -0.00000         2.24806
  H        -1.04448         -0.00000        -0.31119
  H         0.50076          0.88222        -0.40344
  H         0.50076         -0.88222        -0.40344
6
 step=          82     theta[rad]=           0.8587
  C        -0.00312          0.00000        -0.00693
  C         0.05582          0.00000         1.44534
  O         1.03669         -0.00000         2.23068
  H        -1.04246         -0.00000        -0.32655
  H         0.50056          0.88392        -0.40018
  H         0.50056         -0.88392        -0.40018
6
 step=          83     theta[rad]=           0.8692
  C        -0.00680          0.00000        -0.01150
  C         0.11000          0.00000         1.48983
  O         0.99861         -0.00000         2.20164
  H        -1.03910          0.00000        -0.35220
  H         0.50023          0.88675        -0.39473
  H         0.50023         -0.88675        -0.39473
6
 step=          84     theta[rad]=           0.8796
  C        -0.00935          0.00000        -0.01468
  C         0.14756          0.00000         1.52067
  O         0.97220         -0.00000         2.18151
  H        -1.03676          0.00000        -0.36999
  H         0.50000          0.88872        -0.39096
  H         0.50000         -0.88872        -0.39096
6
 step=          85     theta[rad]=           0.8901
  C        -0.00886          0.00000        -0.01406
  C         0.14032          0.00000         1.51473
  O         0.97729         -0.00000         2.18539
  H        -1.03721          0.00000        -0.36656
  H         0.50004          0.88834        -0.39169
  H         0.50004         -0.88834        -0.39169
6
 step=          86     theta[rad]=           0.9006
  C        -0.00560          0.00000        -0.01001
  C         0.09234          0.00000         1.47533
  O         1.01102         -0.00000         2.21111
  H        -1.04019         -0.00000        -0.34384
  H         0.50034          0.88583        -0.39651
  H         0.50034         -0.88583        -0.39651
6
 step=          87     theta[rad]=           0.9111
  C        -0.00200         -0.00000        -0.00553
  C         0.03930          0.00000         1.43178
  O         1.04830         -0.00000         2.23953
  H        -1.04349         -0.00000        -0.31873
  H         0.50066          0.88306        -0.40184
  H         0.50066         -0.88306        -0.40184
6
 step=          88     theta[rad]=           0.9215
  C        -0.00087         -0.00000        -0.00413
  C         0.02273          0.00000         1.41817
  O         1.05995         -0.00000         2.24841
  H        -1.04452         -0.00000        -0.31088
  H         0.50077          0.88219        -0.40351
  H         0.50077         -0.88219        -0.40351
6
 step=          89     theta[rad]=           0.9320
  C        -0.00320          0.00000        -0.00703
  C         0.05702          0.00000         1.44633
  O         1.03585         -0.00000         2.23003
  H        -1.04239         -0.00000        -0.32712
  H         0.50056          0.88398        -0.40006
  H         0.50056         -0.88398        -0.40006
6
 step=          90     theta[rad]=           0.9425
  C        -0.00717          0.00000        -0.01197
  C         0.11553          0.00000         1.49437
  O         0.99472         -0.00000         2.19868
  H        -1.03875          0.00000        -0.35482
  H         0.50019          0.88704        -0.39418
  H         0.50020         -0.88704        -0.39418
6
 step=          91     theta[rad]=           0.9529
  C        -0.00952          0.00000        -0.01488
  C         0.15003          0.00000         1.52270
  O         0.97047         -0.00000         2.18019
  H        -1.03661          0.00000        -0.37115
  H         0.49998          0.88885        -0.39071
  H         0.49998         -0.88885        -0.39071
6
 step=          92     theta[rad]=           0.9634
  C        -0.00818          0.00000        -0.01323
  C         0.13039          0.00000         1.50657
  O         0.98427         -0.00000         2.19072
  H        -1.03783          0.00000        -0.36186
  H         0.50010          0.88782        -0.39268
  H         0.50010         -0.88782        -0.39268
6
 step=          93     theta[rad]=           0.9739
  C        -0.00423          0.00000        -0.00831
  C         0.07222          0.00000         1.45881
  O         1.02516         -0.00000         2.22189
  H        -1.04144         -0.00000        -0.33431
  H         0.50046          0.88478        -0.39853
  H         0.50046         -0.88478        -0.39853
6
 step=          94     theta[rad]=           0.9844
  C        -0.00110         -0.00000        -0.00442
  C         0.02611          0.00000         1.42095
  O         1.05757         -0.00000         2.24660
  H        -1.04431         -0.00000        -0.31248
  H         0.50075          0.88237        -0.40317
  H         0.50075         -0.88237        -0.40317
6
 step=          95     theta[rad]=           0.9948
  C        -0.00165         -0.00000        -0.00510
  C         0.03414          0.00000         1.42754
  O         1.05193         -0.00000         2.24229
  H        -1.04381         -0.00000        -0.31628
  H         0.50070          0.88279        -0.40236
  H         0.50070         -0.88279        -0.40236
6
 step=          96     theta[rad]=           1.0053
  C        -0.00546          0.00000        -0.00984
  C         0.09032          0.00000         1.47367
  O         1.01244         -0.00000         2.21219
  H        -1.04032         -0.00000        -0.34288
  H         0.50035          0.88573        -0.39671
  H         0.50035         -0.88573        -0.39671
6
 step=          97     theta[rad]=           1.0158
  C        -0.00904          0.00000        -0.01430
  C         0.14307          0.00000         1.51698
  O         0.97536         -0.00000         2.18392
  H        -1.03704          0.00000        -0.36786
  H         0.50003          0.88848        -0.39141
  H         0.50003         -0.88848        -0.39141
6
 step=          98     theta[rad]=           1.0263
  C        -0.00895          0.00000        -0.01418
  C         0.14174          0.00000         1.51589
  O         0.97629         -0.00000         2.18463
  H        -1.03712          0.00000        -0.36723
  H         0.50003          0.88841        -0.39154
  H         0.50003         -0.88842        -0.39154
6
 step=          99     theta[rad]=           1.0367
  C        -0.00519          0.00000        -0.00950
  C         0.08627          0.00000         1.47035
  O         1.01528         -0.00000         2.21436
  H        -1.04057         -0.00000        -0.34097
  H         0.50038          0.88551        -0.39712
  H         0.50038         -0.88551        -0.39712
6
 step=         100     theta[rad]=           1.0472
  C        -0.00140         -0.00000        -0.00479
  C         0.03046          0.00000         1.42452
  O         1.05451         -0.00000         2.24426
  H        -1.04404         -0.00000        -0.31454
  H         0.50072          0.88259        -0.40273
  H         0.50072         -0.88259        -0.40273
6
 step=         101     theta[rad]=           1.0577
  C        -0.00142         -0.00000        -0.00482
  C         0.03080          0.00000         1.42480
  O         1.05427         -0.00000         2.24408
  H        -1.04402         -0.00000        -0.31470
  H         0.50072          0.88261        -0.40269
  H         0.50072         -0.88261        -0.40270
6
 step=         102     theta[rad]=           1.0681
  C        -0.00532          0.00000        -0.00967
  C         0.08830          0.00000         1.47201
  O         1.01386         -0.00000         2.21327
  H        -1.04044         -0.00000        -0.34193
  H         0.50036          0.88562        -0.39692
  H         0.50036         -0.88562        -0.39692
6
 step=         103     theta[rad]=           1.0786
  C        -0.00911          0.00000        -0.01437
  C         0.14400          0.00000         1.51774
  O         0.97471         -0.00000         2.18343
  H        -1.03698          0.00000        -0.36830
  H         0.50002          0.88853        -0.39132
  H         0.50002         -0.88853        -0.39132
6
 step=         104     theta[rad]=           1.0891
  C        -0.00873          0.00000        -0.01390
  C         0.13841          0.00000         1.51316
  O         0.97864         -0.00000         2.18642
  H        -1.03733          0.00000        -0.36565
  H         0.50005          0.88824        -0.39188
  H         0.50005         -0.88824        -0.39188
6
 step=         105     theta[rad]=           1.0996
  C        -0.00450          0.00000        -0.00865
  C         0.07619          0.00000         1.46207
  O         1.02237         -0.00000         2.21976
  H        -1.04120         -0.00000        -0.33619
  H         0.50044          0.88499        -0.39813
  H         0.50044         -0.88499        -0.39813
6
 step=         106     theta[rad]=           1.1100
  C        -0.00101         -0.00000        -0.00431
  C         0.02478          0.00000         1.41986
  O         1.05851         -0.00000         2.24731
  H        -1.04439         -0.00000        -0.31185
  H         0.50075          0.88230        -0.40330
  H         0.50075         -0.88230        -0.40330
6
 step=         107     theta[rad]=           1.1205
  C        -0.00219         -0.00000        -0.00577
  C         0.04216          0.00000         1.43413
  O         1.04629         -0.00000         2.23800
  H        -1.04331         -0.00000        -0.32008
  H         0.50065          0.88321        -0.40155
  H         0.50065         -0.88321        -0.40155
6
 step=         108     theta[rad]=           1.1310
  C        -0.00680          0.00000        -0.01150
  C         0.11000          0.00000         1.48983
  O         0.99861         -0.00000         2.20164
  H        -1.03910          0.00000        -0.35220
  H         0.50023          0.88675        -0.39473
  H         0.50023         -0.88675        -0.39473
6
 step=         109     theta[rad]=           1.1414
  C        -0.00956          0.00000        -0.01493
  C         0.15063          0.00000         1.52319
  O         0.97005         -0.00000         2.17987
  H        -1.03657          0.00000        -0.37144
  H         0.49998          0.88888        -0.39065
  H         0.49998         -0.88888        -0.39065
6
 step=         110     theta[rad]=           1.1519
  C        -0.00717          0.00000        -0.01197
  C         0.11553          0.00000         1.49437
  O         0.99472         -0.00000         2.19868
  H        -1.03875          0.00000        -0.35482
  H         0.50019          0.88704        -0.39418
  H         0.50020         -0.88704        -0.39418
6
 step=         111     theta[rad]=           1.1624
  C        -0.00240         -0.00000        -0.00603
  C         0.04520          0.00000         1.43662
  O         1.04416         -0.00000         2.23637
  H        -1.04312         -0.00000        -0.32152
  H         0.50063          0.88337        -0.40125
  H         0.50063         -0.88337        -0.40125
6
 step=         112     theta[rad]=           1.1729
  C        -0.00100         -0.00000        -0.00429
  C         0.02458          0.00000         1.41969
  O         1.05865         -0.00000         2.24742
  H        -1.04440         -0.00000        -0.31176
  H         0.50076          0.88229        -0.40332
  H         0.50075         -0.88229        -0.40332
6
 step=         113     theta[rad]=           1.1833
  C        -0.00477          0.00000        -0.00899
  C         0.08021          0.00000         1.46537
  O         1.01955         -0.00000         2.21761
  H        -1.04095         -0.00000        -0.33810
  H         0.50041          0.88520        -0.39773
  H         0.50041         -0.88520        -0.39773
6
 step=         114     theta[rad]=           1.1938
  C        -0.00908          0.00000        -0.01435
  C         0.14369          0.00000         1.51750
  O         0.97492         -0.00000         2.18359
  H        -1.03700          0.00000        -0.36816
  H         0.50002          0.88852        -0.39135
  H         0.50002         -0.88852        -0.39135
6
 step=         115     theta[rad]=           1.2043
  C        -0.00844          0.00000        -0.01354
  C         0.13417          0.00000         1.50967
  O         0.98162         -0.00000         2.18869
  H        -1.03759          0.00000        -0.36364
  H         0.50008          0.88802        -0.39231
  H         0.50008         -0.88802        -0.39230
6
 step=         116     theta[rad]=           1.2147
  C        -0.00357          0.00000        -0.00750
  C         0.06255          0.00000         1.45087
  O         1.03196         -0.00000         2.22707
  H        -1.04204         -0.00000        -0.32974
  H         0.50052          0.88427        -0.39950
  H         0.50052         -0.88427        -0.39950
6
 step=         117     theta[rad]=           1.2252
  C        -0.00081         -0.00000        -0.00406
  C         0.02186          0.00000         1.41746
  O         1.06056         -0.00000         2.24887
  H        -1.04457         -0.00000        -0.31047
  H         0.50077          0.88215        -0.40359
  H         0.50077         -0.88214        -0.40359
6
 step=         118     theta[rad]=           1.2357
  C        -0.00388          0.00000        -0.00787
  C         0.06700          0.00000         1.45452
  O         1.02883         -0.00000         2.22468
  H        -1.04177         -0.00000        -0.33184
  H         0.50049          0.88451        -0.39906
  H         0.50049         -0.88451        -0.39906
6
 step=         119     theta[rad]=           1.2462
  C        -0.00873          0.00000        -0.01390
  C         0.13841          0.00000         1.51316
  O         0.97864         -0.00000         2.18642
  H        -1.03733          0.00000        -0.36565
  H         0.50005          0.88824        -0.39188
  H         0.50005         -0.88824        -0.39188
6
 step=         120     theta[rad]=           1.2566
  C        -0.00873          0.00000        -0.01390
  C         0.13841          0.00000         1.51316
  O         0.97864         -0.00000         2.18642
  H        -1.03733          0.00000        -0.36565
  H         0.50005          0.88824        -0.39188
  H         0.50005         -0.88824        -0.39188
6
 step=         121     theta[rad]=           1.2671
  C        -0.00379          0.00000        -0.00776
  C         0.06572          0.00000         1.45347
  O         1.02973         -0.00000         2.22537
  H        -1.04185         -0.00000        -0.33124
  H         0.50050          0.88444        -0.39919
  H         0.50050         -0.88444        -0.39919
6
 step=         122     theta[rad]=           1.2776
  C        -0.00081         -0.00000        -0.00406
  C         0.02186          0.00000         1.41746
  O         1.06056         -0.00000         2.24887
  H        -1.04457         -0.00000        -0.31047
  H         0.50077          0.88215        -0.40359
  H         0.50077         -0.88214        -0.40359
6
 step=         123     theta[rad]=           1.2881
  C        -0.00410          0.00000        -0.00815
  C         0.07025          0.00000         1.45719
  O         1.02655         -0.00000         2.22294
  H        -1.04157         -0.00000        -0.33338
  H         0.50047          0.88468        -0.39873
  H         0.50047         -0.88468        -0.39873
6
 step=         124     theta[rad]=           1.2985
  C        -0.00898          0.00000        -0.01421
  C         0.14208          0.00000         1.51617
  O         0.97605         -0.00000         2.18445
  H        -1.03710          0.00000        -0.36739
  H         0.50003          0.88843        -0.39151
  H         0.50003         -0.88843        -0.39151
6
 step=         125     theta[rad]=           1.3090
  C        -0.00828          0.00000        -0.01335
  C         0.13184          0.00000         1.50776
  O         0.98325         -0.00000         2.18994
  H        -1.03774          0.00000        -0.36254
  H         0.50009          0.88790        -0.39254
  H         0.50009         -0.88790        -0.39254
6
 step=         126     theta[rad]=           1.3195
  C        -0.00296          0.00000        -0.00673
  C         0.05347          0.00000         1.44341
  O         1.03834         -0.00000         2.23194
  H        -1.04261         -0.00000        -0.32544
  H         0.50058          0.88380        -0.40042
  H         0.50058         -0.88380        -0.40042
6
 step=         127     theta[rad]=           1.3299
  C        -0.00100         -0.00000        -0.00429
  C         0.02458          0.00000         1.41969
  O         1.05865         -0.00000         2.24742
  H        -1.04440         -0.00000        -0.31176
  H         0.50076          0.88229        -0.40332
  H         0.50075         -0.88229        -0.40332
6
 step=         128     theta[rad]=           1.3404
  C        -0.00546          0.00000        -0.00984
  C         0.09032          0.00000         1.47367
  O         1.01244         -0.00000         2.21219
  H        -1.04032         -0.00000        -0.34288
  H         0.50035          0.88573        -0.39671
  H         0.50035         -0.88573        -0.39671
6
 step=         129     theta[rad]=           1.3509
  C        -0.00951          0.00000        -0.01488
  C         0.14992          0.00000         1.52261
  O         0.97054         -0.00000         2.18025
  H        -1.03661          0.00000        -0.37111
  H         0.49998          0.88884        -0.39072
  H         0.49998         -0.88884        -0.39072
6
 step=         130     theta[rad]=           1.3614
  C        -0.00675          0.00000        -0.01145
  C         0.10937          0.00000         1.48931
  O         0.99905         -0.00000         2.20198
  H        -1.03913          0.00000        -0.35190
  H         0.50023          0.88672        -0.39480
  H         0.50023         -0.88672        -0.39480
6
 step=         131     theta[rad]=           1.3718
  C        -0.00149         -0.00000        -0.00490
  C         0.03186          0.00000         1.42567
  O         1.05353         -0.00000         2.24351
  H        -1.04395         -0.00000        -0.31521
  H         0.50071          0.88267        -0.40259
  H         0.50071         -0.88267        -0.40259
6
 step=         132     theta[rad]=           1.3823
  C        -0.00219         -0.00000        -0.00577
  C         0.04216          0.00000         1.43413
  O         1.04629         -0.00000         2.23800
  H        -1.04331         -0.00000        -0.32008
  H         0.50065          0.88321        -0.40155
  H         0.50065         -0.88321        -0.40155
6
 step=         133     theta[rad]=           1.3928
  C        -0.00779          0.00000        -0.01274
  C         0.12470          0.00000         1.50190
  O         0.98828         -0.00000         2.19377
  H        -1.03818          0.00000        -0.35916
  H         0.50014          0.88752        -0.39326
  H         0.50014         -0.88752        -0.39326
6
 step=         134     theta[rad]=           1.4032
  C        -0.00908          0.00000        -0.01435
  C         0.14369          0.00000         1.51750
  O         0.97492         -0.00000         2.18359
  H        -1.03700          0.00000        -0.36816
  H         0.50002          0.88852        -0.39135
  H         0.50002         -0.88852        -0.39135
6
 step=         135     theta[rad]=           1.4137
  C        -0.00383          0.00000        -0.00782
  C         0.06636          0.00000         1.45400
  O         1.02928         -0.00000         2.22503
  H        -1.04181         -0.00000        -0.33154
  H         0.50050          0.88447        -0.39912
  H         0.50050         -0.88447        -0.39912
6
 step=         136     theta[rad]=           1.4242
  C        -0.00087         -0.00000        -0.00413
  C         0.02273          0.00000         1.41817
  O         1.05995         -0.00000         2.24841
  H        -1.04452         -0.00000        -0.31088
  H         0.50077          0.88219        -0.40351
  H         0.50077         -0.88219        -0.40351
6
 step=         137     theta[rad]=           1.4347
  C        -0.00532          0.00000        -0.00967
  C         0.08830          0.00000         1.47201
  O         1.01386         -0.00000         2.21327
  H        -1.04044         -0.00000        -0.34193
  H         0.50036          0.88562        -0.39692
  H         0.50036         -0.88562        -0.39692
6
 step=         138     theta[rad]=           1.4451
  C        -0.00954          0.00000        -0.01492
  C         0.15043          0.00000         1.52303
  O         0.97019         -0.00000         2.17998
  H        -1.03658          0.00000        -0.37135
  H         0.49998          0.88887        -0.39067
  H         0.49998         -0.88887        -0.39067
6
 step=         139     theta[rad]=           1.4556
  C        -0.00610          0.00000        -0.01063
  C         0.09967          0.00000         1.48135
  O         1.00586         -0.00000         2.20718
  H        -1.03974          0.00000        -0.34731
  H         0.50029          0.88621        -0.39577
  H         0.50029         -0.88621        -0.39577
6
 step=         140     theta[rad]=           1.4661
  C        -0.00102         -0.00000        -0.00432
  C         0.02498          0.00000         1.42002
  O         1.05836         -0.00000         2.24720
  H        -1.04438         -0.00000        -0.31195
  H         0.50075          0.88231        -0.40328
  H         0.50075         -0.88231        -0.40328
6
 step=         141     theta[rad]=           1.4765
  C        -0.00345          0.00000        -0.00734
  C         0.06068          0.00000         1.44933
  O         1.03327         -0.00000         2.22807
  H        -1.04216         -0.00000        -0.32885
  H         0.50053          0.88418        -0.39969
  H         0.50053         -0.88418        -0.39969
6
 step=         142     theta[rad]=           1.4870
  C        -0.00904          0.00000        -0.01430
  C         0.14307          0.00000         1.51698
  O         0.97536         -0.00000         2.18392
  H        -1.03704          0.00000        -0.36786
  H         0.50003          0.88848        -0.39141
  H         0.50003         -0.88848        -0.39141
6
 step=         143     theta[rad]=           1.4975
  C        -0.00753          0.00000        -0.01242
  C         0.12080          0.00000         1.49870
  O         0.99101         -0.00000         2.19585
  H        -1.03842          0.00000        -0.35732
  H         0.50016          0.88732        -0.39365
  H         0.50016         -0.88732        -0.39365
6
 step=         144     theta[rad]=           1.5080
  C        -0.00165         -0.00000        -0.00510
  C         0.03414          0.00000         1.42754
  O         1.05193         -0.00000         2.24229
  H        -1.04381         -0.00000        -0.31628
  H         0.50070          0.88279        -0.40236
  H         0.50070         -0.88279        -0.40236
6
 step=         145     theta[rad]=           1.5184
  C        -0.00243         -0.00000        -0.00607
  C         0.04572          0.00000         1.43705
  O         1.04379         -0.00000         2.23609
  H        -1.04309         -0.00000        -0.32177
  H         0.50063          0.88339        -0.40120
  H         0.50062         -0.88339        -0.40120
6
 step=         146     theta[rad]=           1.5289
  C        -0.00847          0.00000        -0.01358
  C         0.13461          0.00000         1.51004
  O         0.98130         -0.00000         2.18845
  H        -1.03757          0.00000        -0.36386
  H         0.50008          0.88804        -0.39226
  H         0.50008         -0.88804        -0.39226
6
 step=         147     theta[rad]=           1.5394
  C        -0.00818          0.00000        -0.01323
  C         0.13039          0.00000         1.50657
  O         0.98427         -0.00000         2.19072
  H        -1.03783          0.00000        -0.36186
  H         0.50010          0.88782        -0.39268
  H         0.50010         -0.88782        -0.39268
6
 step=         148     theta[rad]=           1.5499
  C        -0.00206         -0.00000        -0.00561
  C         0.04023          0.00000         1.43254
  O         1.04765         -0.00000         2.23903
  H        -1.04343         -0.00000        -0.31917
  H         0.50066          0.88311        -0.40175
  H         0.50066         -0.88311        -0.40175
6
 step=         149     theta[rad]=           1.5603
  C        -0.00209         -0.00000        -0.00565
  C         0.04070          0.00000         1.43293
  O         1.04731         -0.00000         2.23878
  H        -1.04340         -0.00000        -0.31939
  H         0.50066          0.88313        -0.40170
  H         0.50066         -0.88313        -0.40170
6
 step=         150     theta[rad]=           1.5708
  C        -0.00828          0.00000        -0.01335
  C         0.13184          0.00000         1.50776
  O         0.98325         -0.00000         2.18994
  H        -1.03774          0.00000        -0.36254
  H         0.50009          0.88790        -0.39254
  H         0.50009         -0.88790        -0.39254
6
 step=         151     theta[rad]=           1.5813
  C        -0.00825          0.00000        -0.01331
  C         0.13136          0.00000         1.50737
  O         0.98359         -0.00000         2.19020
  H        -1.03777          0.00000        -0.36232
  H         0.50010          0.88787        -0.39259
  H         0.50010         -0.88787        -0.39259
6
 step=         152     theta[rad]=           1.5917
  C        -0.00200         -0.00000        -0.00553
  C         0.03930          0.00000         1.43178
  O         1.04830         -0.00000         2.23953
  H        -1.04349         -0.00000        -0.31873
  H         0.50066          0.88306        -0.40184
  H         0.50066         -0.88306        -0.40184
6
 step=         153     theta[rad]=           1.6022
  C        -0.00229         -0.00000        -0.00590
  C         0.04366          0.00000         1.43536
  O         1.04524         -0.00000         2.23719
  H        -1.04322         -0.00000        -0.32079
  H         0.50064          0.88328        -0.40140
  H         0.50064         -0.88328        -0.40140
6
 step=         154     theta[rad]=           1.6127
  C        -0.00859          0.00000        -0.01373
  C         0.13636          0.00000         1.51147
  O         0.98008         -0.00000         2.18752
  H        -1.03746          0.00000        -0.36468
  H         0.50007          0.88813        -0.39208
  H         0.50007         -0.88813        -0.39208
6
 step=         155     theta[rad]=           1.6232
  C        -0.00776          0.00000        -0.01270
  C         0.12415          0.00000         1.50145
  O         0.98866         -0.00000         2.19406
  H        -1.03822          0.00000        -0.35890
  H         0.50014          0.88749        -0.39331
  H         0.50014         -0.88750        -0.39331
6
 step=         156     theta[rad]=           1.6336
  C        -0.00149         -0.00000        -0.00490
  C         0.03186          0.00000         1.42567
  O         1.05353         -0.00000         2.24351
  H        -1.04395         -0.00000        -0.31521
  H         0.50071          0.88267        -0.40259
  H         0.50071         -0.88267        -0.40259
6
 step=         157     theta[rad]=           1.6441
  C        -0.00312          0.00000        -0.00693
  C         0.05582          0.00000         1.44534
  O         1.03669         -0.00000         2.23068
  H        -1.04246         -0.00000        -0.32655
  H         0.50056          0.88392        -0.40018
  H         0.50056         -0.88392        -0.40018
6
 step=         158     theta[rad]=           1.6546
  C        -0.00920          0.00000        -0.01449
  C         0.14542          0.00000         1.51891
  O         0.97371         -0.00000         2.18266
  H        -1.03689          0.00000        -0.36897
  H         0.50001          0.88861        -0.39117
  H         0.50001         -0.88861        -0.39117
6
 step=         159     theta[rad]=           1.6650
  C        -0.00654          0.00000        -0.01118
  C         0.10619          0.00000         1.48670
  O         1.00128         -0.00000         2.20369
  H        -1.03933          0.00000        -0.35040
  H         0.50025          0.88656        -0.39512
  H         0.50025         -0.88656        -0.39512
6
 step=         160     theta[rad]=           1.6755
  C        -0.00090         -0.00000        -0.00418
  C         0.02324          0.00000         1.41859
  O         1.05959         -0.00000         2.24814
  H        -1.04449         -0.00000        -0.31112
  H         0.50076          0.88222        -0.40346
  H         0.50076         -0.88222        -0.40346
6
 step=         161     theta[rad]=           1.6860
  C        -0.00477          0.00000        -0.00899
  C         0.08021          0.00000         1.46537
  O         1.01955         -0.00000         2.21761
  H        -1.04095         -0.00000        -0.33810
  H         0.50041          0.88520        -0.39773
  H         0.50041         -0.88520        -0.39773
6
 step=         162     theta[rad]=           1.6965
  C        -0.00956          0.00000        -0.01494
  C         0.15069          0.00000         1.52324
  O         0.97001         -0.00000         2.17984
  H        -1.03657          0.00000        -0.37147
  H         0.49998          0.88888        -0.39064
  H         0.49998         -0.88888        -0.39064
6
 step=         163     theta[rad]=           1.7069
  C        -0.00446          0.00000        -0.00859
  C         0.07553          0.00000         1.46152
  O         1.02284         -0.00000         2.22012
  H        -1.04124         -0.00000        -0.33588
  H         0.50044          0.88495        -0.39820
  H         0.50044         -0.88495        -0.39820
6
 step=         164     theta[rad]=           1.7174
  C        -0.00102         -0.00000        -0.00432
  C         0.02498          0.00000         1.42002
  O         1.05836         -0.00000         2.24720
  H        -1.04438         -0.00000        -0.31195
  H         0.50075          0.88231        -0.40328
  H         0.50075         -0.88231        -0.40328
6
 step=         165     theta[rad]=           1.7279
  C        -0.00717          0.00000        -0.01197
  C         0.11553          0.00000         1.49437
  O         0.99472         -0.00000         2.19868
  H        -1.03875          0.00000        -0.35482
  H         0.50019          0.88704        -0.39418
  H         0.50020         -0.88704        -0.39418
6
 step=         166     theta[rad]=           1.7383
  C        -0.00870          0.00000        -0.01387
  C         0.13801          0.00000         1.51283
  O         0.97892         -0.00000         2.18663
  H        -1.03736          0.00000        -0.36546
  H         0.50006          0.88822        -0.39192
  H         0.50006         -0.88822        -0.39192
6
 step=         167     theta[rad]=           1.7488
  C        -0.00200         -0.00000        -0.00553
  C         0.03930          0.00000         1.43178
  O         1.04830         -0.00000         2.23953
  H        -1.04349         -0.00000        -0.31873
  H         0.50066          0.88306        -0.40184
  H         0.50066         -0.88306        -0.40184
6
 step=         168     theta[rad]=           1.7593
  C        -0.00284          0.00000        -0.00658
  C         0.05174          0.00000         1.44200
  O         1.03955         -0.00000         2.23286
  H        -1.04272         -0.00000        -0.32462
  H         0.50059          0.88371        -0.40059
  H         0.50059         -0.88371        -0.40059
6
 step=         169     theta[rad]=           1.7698
  C        -0.00927          0.00000        -0.01458
  C         0.14644          0.00000         1.51975
  O         0.97299         -0.00000         2.18212
  H        -1.03683          0.00000        -0.36945
  H         0.50000          0.88866        -0.39107
  H         0.50001         -0.88866        -0.39107
6
 step=         170     theta[rad]=           1.7802
  C        -0.00587          0.00000        -0.01035
  C         0.09636          0.00000         1.47863
  O         1.00820         -0.00000         2.20895
  H        -1.03994         -0.00000        -0.34574
  H         0.50031          0.88604        -0.39611
  H         0.50031         -0.88604        -0.39611
6
 step=         171     theta[rad]=           1.7907
  C        -0.00082         -0.00000        -0.00407
  C         0.02196          0.00000         1.41754
  O         1.06049         -0.00000         2.24882
  H        -1.04457         -0.00000        -0.31052
  H         0.50077          0.88215        -0.40358
  H         0.50077         -0.88215        -0.40358
6
 step=         172     theta[rad]=           1.8012
  C        -0.00645          0.00000        -0.01107
  C         0.10490          0.00000         1.48564
  O         1.00219         -0.00000         2.20438
  H        -1.03941          0.00000        -0.34979
  H         0.50026          0.88649        -0.39525
  H         0.50026         -0.88649        -0.39525
6
 step=         173     theta[rad]=           1.8117
  C        -0.00895          0.00000        -0.01418
  C         0.14174          0.00000         1.51589
  O         0.97629         -0.00000         2.18463
  H        -1.03712          0.00000        -0.36723
  H         0.50003          0.88841        -0.39154
  H         0.50003         -0.88842        -0.39154
6
 step=         174     theta[rad]=           1.8221
  C        -0.00209         -0.00000        -0.00565
  C         0.04070          0.00000         1.43293
  O         1.04731         -0.00000         2.23878
  H        -1.04340         -0.00000        -0.31939
  H         0.50066          0.88313        -0.40170
  H         0.50066         -0.88313        -0.40170
6
 step=         175     theta[rad]=           1.8326
  C        -0.00300          0.00000        -0.00678
  C         0.05405          0.00000         1.44389
  O         1.03793         -0.00000         2.23162
  H        -1.04257         -0.00000        -0.32571
  H         0.50057          0.88383        -0.40036
  H         0.50057         -0.88383        -0.40036
6
 step=         176     theta[rad]=           1.8431
  C        -0.00942          0.00000        -0.01477
  C         0.14869          0.00000         1.52160
  O         0.97141         -0.00000         2.18091
  H        -1.03669          0.00000        -0.37052
  H         0.49999          0.88878        -0.39084
  H         0.49999         -0.88878        -0.39084
6
 step=         177     theta[rad]=           1.8535
  C        -0.00505          0.00000        -0.00933
  C         0.08425          0.00000         1.46869
  O         1.01671         -0.00000         2.21544
  H        -1.04070         -0.00000        -0.34001
  H         0.50039          0.88541        -0.39732
  H         0.50039         -0.88541        -0.39732
6
 step=         178     theta[rad]=           1.8640
  C        -0.00104         -0.00000        -0.00434
  C         0.02520          0.00000         1.42020
  O         1.05821         -0.00000         2.24709
  H        -1.04437         -0.00000        -0.31205
  H         0.50075          0.88232        -0.40326
  H         0.50075         -0.88232        -0.40326
6
 step=         179     theta[rad]=           1.8745
  C        -0.00776          0.00000        -0.01270
  C         0.12415          0.00000         1.50145
  O         0.98866         -0.00000         2.19406
  H        -1.03822          0.00000        -0.35890
  H         0.50014          0.88749        -0.39331
  H         0.50014         -0.88750        -0.39331
6
 step=         180     theta[rad]=           1.8850
  C        -0.00776          0.00000        -0.01270
  C         0.12415          0.00000         1.50145
  O         0.98866         -0.00000         2.19406
  H        -1.03822          0.00000        -0.35890
  H         0.50014          0.88749        -0.39331
  H         0.50014         -0.88750        -0.39331
6
 step=         181     theta[rad]=           1.8954
  C        -0.00101         -0.00000        -0.00431
  C         0.02478          0.00000         1.41986
  O         1.05851         -0.00000         2.24731
  H        -1.04439         -0.00000        -0.31185
  H         0.50075          0.88230        -0.40330
  H         0.50075         -0.88230        -0.40330
6
 step=         182     theta[rad]=           1.9059
  C        -0.00532          0.00000        -0.00967
  C         0.08830          0.00000         1.47201
  O         1.01386         -0.00000         2.21327
  H        -1.04044         -0.00000        -0.34193
  H         0.50036          0.88562        -0.39692
  H         0.50036         -0.88562        -0.39692
6
 step=         183     theta[rad]=           1.9164
  C        -0.00925          0.00000        -0.01456
  C         0.14619          0.00000         1.51955
  O         0.97317         -0.00000         2.18225
  H        -1.03685          0.00000        -0.36934
  H         0.50001          0.88865        -0.39110
  H         0.50001         -0.88865        -0.39110
6
 step=         184     theta[rad]=           1.9268
  C        -0.00226         -0.00000        -0.00586
  C         0.04315          0.00000         1.43494
  O         1.04559         -0.00000         2.23746
  H        -1.04325         -0.00000        -0.32055
  H         0.50064          0.88326        -0.40145
  H         0.50064         -0.88326        -0.40145
6
 step=         185     theta[rad]=           1.9373
  C        -0.00320          0.00000        -0.00703
  C         0.05702          0.00000         1.44633
  O         1.03585         -0.00000         2.23003
  H        -1.04239         -0.00000        -0.32712
  H         0.50056          0.88398        -0.40006
  H         0.50056         -0.88398        -0.40006
6
 step=         186     theta[rad]=           1.9478
  C        -0.00954          0.00000        -0.01492
  C         0.15043          0.00000         1.52303
  O         0.97019         -0.00000         2.17998
  H        -1.03658          0.00000        -0.37135
  H         0.49998          0.88887        -0.39067
  H         0.49998         -0.88887        -0.39067
6
 step=         187     theta[rad]=           1.9583
  C        -0.00392          0.00000        -0.00793
  C         0.06765          0.00000         1.45505
  O         1.02838         -0.00000         2.22434
  H        -1.04173         -0.00000        -0.33215
  H         0.50049          0.88454        -0.39899
  H         0.50049         -0.88454        -0.39899
6
 step=         188     theta[rad]=           1.9687
  C        -0.00181         -0.00000        -0.00531
  C         0.03662          0.00000         1.42958
  O         1.05018         -0.00000         2.24096
  H        -1.04366         -0.00000        -0.31746
  H         0.50068          0.88292        -0.40211
  H         0.50068         -0.88292        -0.40211
6
 step=         189     theta[rad]=           1.9792
  C        -0.00908          0.00000        -0.01435
  C         0.14369          0.00000         1.51750
  O         0.97492         -0.00000         2.18359
  H        -1.03700          0.00000        -0.36816
  H         0.50002          0.88852        -0.39135
  H         0.50002         -0.88852        -0.39135
6
 step=         190     theta[rad]=           1.9897
  C        -0.00541          0.00000        -0.00978
  C         0.08965          0.00000         1.47312
  O         1.01291         -0.00000         2.21255
  H        -1.04036         -0.00000        -0.34257
  H         0.50035          0.88569        -0.39678
  H         0.50035         -0.88569        -0.39678
6
 step=         191     theta[rad]=           2.0001
  C        -0.00112         -0.00000        -0.00444
  C         0.02635          0.00000         1.42115
  O         1.05740         -0.00000         2.24646
  H        -1.04429         -0.00000        -0.31260
  H         0.50074          0.88238        -0.40314
  H         0.50074         -0.88238        -0.40314
6
 step=         192     theta[rad]=           2.0106
  C        -0.00838          0.00000        -0.01347
  C         0.13325          0.00000         1.50892
  O         0.98226         -0.00000         2.18918
  H        -1.03765          0.00000        -0.36321
  H         0.50009          0.88797        -0.39240
  H         0.50009         -0.88797        -0.39240
6
 step=         193     theta[rad]=           2.0211
  C        -0.00649          0.00000        -0.01113
  C         0.10555          0.00000         1.48617
  O         1.00174         -0.00000         2.20403
  H        -1.03937          0.00000        -0.35009
  H         0.50026          0.88652        -0.39518
  H         0.50026         -0.88652        -0.39518
6
 step=         194     theta[rad]=           2.0316
  C        -0.00086         -0.00000        -0.00412
  C         0.02262          0.00000         1.41809
  O         1.06002         -0.00000         2.24846
  H        -1.04453         -0.00000        -0.31083
  H         0.50077          0.88218        -0.40352
  H         0.50077         -0.88218        -0.40352
6
 step=         195     theta[rad]=           2.0420
  C        -0.00776          0.00000        -0.01270
  C         0.12415          0.00000         1.50145
  O         0.98866         -0.00000         2.19406
  H        -1.03822          0.00000        -0.35890
  H         0.50014          0.88749        -0.39331
  H         0.50014         -0.88750        -0.39331
6
 step=         196     theta[rad]=           2.0525
  C        -0.00713          0.00000        -0.01192
  C         0.11493          0.00000         1.49388
  O         0.99514         -0.00000         2.19900
  H        -1.03879          0.00000        -0.35454
  H         0.50020          0.88701        -0.39424
  H         0.50020         -0.88701        -0.39424
6
 step=         197     theta[rad]=           2.0630
  C        -0.00081         -0.00000        -0.00406
  C         0.02186          0.00000         1.41746
  O         1.06056         -0.00000         2.24887
  H        -1.04457         -0.00000        -0.31047
  H         0.50077          0.88215        -0.40359
  H         0.50077         -0.88214        -0.40359
6
 step=         198     theta[rad]=           2.0735
  C        -0.00741          0.00000        -0.01227
  C         0.11908          0.00000         1.49728
  O         0.99222         -0.00000         2.19678
  H        -1.03853          0.00000        -0.35650
  H         0.50017          0.88723        -0.39382
  H         0.50017         -0.88723        -0.39382
6
 step=         199     theta[rad]=           2.0839
  C        -0.00737          0.00000        -0.01222
  C         0.11850          0.00000         1.49681
  O         0.99263         -0.00000         2.19709
  H        -1.03857          0.00000        -0.35623
  H         0.50018          0.88720        -0.39388
  H         0.50018         -0.88720        -0.39388
6
 step=         200     theta[rad]=           2.0944
  C        -0.00081         -0.00000        -0.00406
  C         0.02183          0.00000         1.41743
  O         1.06058         -0.00000         2.24889
  H        -1.04457         -0.00000        -0.31045
  H         0.50077          0.88214        -0.40360
  H         0.50077         -0.88214        -0.40360
6
 step=         201     theta[rad]=           2.1049
  C        -0.00741          0.00000        -0.01227
  C         0.11908          0.00000         1.49728
  O         0.99222         -0.00000         2.19678
  H        -1.03853          0.00000        -0.35650
  H         0.50017          0.88723        -0.39382
  H         0.50017         -0.88723        -0.39382
6
 step=         202     theta[rad]=           2.1153
  C        -0.00725          0.00000        -0.01207
  C         0.11673          0.00000         1.49535
  O         0.99388         -0.00000         2.19804
  H        -1.03868          0.00000        -0.35539
  H         0.50019          0.88711        -0.39406
  H         0.50019         -0.88711        -0.39406
6
 step=         203     theta[rad]=           2.1258
  C        -0.00082         -0.00000        -0.00407
  C         0.02196          0.00000         1.41754
  O         1.06049         -0.00000         2.24882
  H        -1.04457         -0.00000        -0.31052
  H         0.50077          0.88215        -0.40358
  H         0.50077         -0.88215        -0.40358
6
 step=         204     theta[rad]=           2.1363
  C        -0.00776          0.00000        -0.01270
  C         0.12415          0.00000         1.50145
  O         0.98866         -0.00000         2.19406
  H        -1.03822          0.00000        -0.35890
  H         0.50014          0.88749        -0.39331
  H         0.50014         -0.88750        -0.39331
6
 step=         205     theta[rad]=           2.1468
  C        -0.00675          0.00000        -0.01145
  C         0.10937          0.00000         1.48931
  O         0.99905         -0.00000         2.20198
  H        -1.03913          0.00000        -0.35190
  H         0.50023          0.88672        -0.39480
  H         0.50023         -0.88672        -0.39480
6
 step=         206     theta[rad]=           2.1572
  C        -0.00091         -0.00000        -0.00419
  C         0.02338          0.00000         1.41871
  O         1.05949         -0.00000         2.24806
  H        -1.04448         -0.00000        -0.31119
  H         0.50076          0.88222        -0.40344
  H         0.50076         -0.88222        -0.40344
6
 step=         207     theta[rad]=           2.1677
  C        -0.00838          0.00000        -0.01347
  C         0.13325          0.00000         1.50892
  O         0.98226         -0.00000         2.18918
  H        -1.03765          0.00000        -0.36321
  H         0.50009          0.88797        -0.39240
  H         0.50009         -0.88797        -0.39240
6
 step=         208     theta[rad]=           2.1782
  C        -0.00582          0.00000        -0.01030
  C         0.09569          0.00000         1.47808
  O         1.00867         -0.00000         2.20931
  H        -1.03999         -0.00000        -0.34543
  H         0.50032          0.88601        -0.39617
  H         0.50032         -0.88601        -0.39617
6
 step=         209     theta[rad]=           2.1886
  C        -0.00129         -0.00000        -0.00465
  C         0.02885          0.00000         1.42320
  O         1.05564         -0.00000         2.24513
  H        -1.04414         -0.00000        -0.31378
  H         0.50073          0.88251        -0.40289
  H         0.50073         -0.88251        -0.40289
6
 step=         210     theta[rad]=           2.1991
  C        -0.00908          0.00000        -0.01435
  C         0.14369          0.00000         1.51750
  O         0.97492         -0.00000         2.18359
  H        -1.03700          0.00000        -0.36816
  H         0.50002          0.88852        -0.39135
  H         0.50002         -0.88852        -0.39135
6
 step=         211     theta[rad]=           2.2096
  C        -0.00446          0.00000        -0.00859
  C         0.07553          0.00000         1.46152
  O         1.02284         -0.00000         2.22012
  H        -1.04124         -0.00000        -0.33588
  H         0.50044          0.88495        -0.39820
  H         0.50044         -0.88495        -0.39820
6
 step=         212     theta[rad]=           2.2201
  C        -0.00219         -0.00000        -0.00577
  C         0.04216          0.00000         1.43413
  O         1.04629         -0.00000         2.23800
  H        -1.04331         -0.00000        -0.32008
  H         0.50065          0.88321        -0.40155
  H         0.50065         -0.88321        -0.40155
6
 step=         213     theta[rad]=           2.2305
  C        -0.00954          0.00000        -0.01492
  C         0.15043          0.00000         1.52303
  O         0.97019         -0.00000         2.17998
  H        -1.03658          0.00000        -0.37135
  H         0.49998          0.88887        -0.39067
  H         0.49998         -0.88887        -0.39067
6
 step=         214     theta[rad]=           2.2410
  C        -0.00280          0.00000        -0.00654
  C         0.05117          0.00000         1.44153
  O         1.03995         -0.00000         2.23316
  H        -1.04275         -0.00000        -0.32435
  H         0.50059          0.88368        -0.40065
  H         0.50059         -0.88368        -0.40065
6
 step=         215     theta[rad]=           2.2515
  C        -0.00383          0.00000        -0.00782
  C         0.06636          0.00000         1.45400
  O         1.02928         -0.00000         2.22503
  H        -1.04181         -0.00000        -0.33154
  H         0.50050          0.88447        -0.39912
  H         0.50050         -0.88447        -0.39912
6
 step=         216     theta[rad]=           2.2619
  C        -0.00925          0.00000        -0.01456
  C         0.14619          0.00000         1.51955
  O         0.97317         -0.00000         2.18225
  H        -1.03685          0.00000        -0.36934
  H         0.50001          0.88865        -0.39110
  H         0.50001         -0.88865        -0.39110
6
 step=         217     theta[rad]=           2.2724
  C        -0.00133         -0.00000        -0.00470
  C         0.02948          0.00000         1.42371
  O         1.05520         -0.00000         2.24479
  H        -1.04410         -0.00000        -0.31408
  H         0.50073          0.88254        -0.40283
  H         0.50072         -0.88254        -0.40283
6
 step=         218     theta[rad]=           2.2829
  C        -0.00614          0.00000        -0.01069
  C         0.10033          0.00000         1.48189
  O         1.00540         -0.00000         2.20682
  H        -1.03970          0.00000        -0.34762
  H         0.50029          0.88625        -0.39571
  H         0.50029         -0.88625        -0.39571
6
 step=         219     theta[rad]=           2.2934
  C        -0.00776          0.00000        -0.01270
  C         0.12415          0.00000         1.50145
  O         0.98866         -0.00000         2.19406
  H        -1.03822          0.00000        -0.35890
  H         0.50014          0.88749        -0.39331
  H         0.50014         -0.88750        -0.39331
6
 step=         220     theta[rad]=           2.3038
  C        -0.00083         -0.00000        -0.00409
  C         0.02218          0.00000         1.41772
  O         1.06033         -0.00000         2.24870
  H        -1.04455         -0.00000        -0.31062
  H         0.50077          0.88216        -0.40356
  H         0.50077         -0.88216        -0.40356
6
 step=         221     theta[rad]=           2.3143
  C        -0.00847          0.00000        -0.01358
  C         0.13461          0.00000         1.51004
  O         0.98130         -0.00000         2.18845
  H        -1.03757          0.00000        -0.36386
  H         0.50008          0.88804        -0.39226
  H         0.50008         -0.88804        -0.39226
6
 step=         222     theta[rad]=           2.3248
  C        -0.00505          0.00000        -0.00933
  C         0.08425          0.00000         1.46869
  O         1.01671         -0.00000         2.21544
  H        -1.04070         -0.00000        -0.34001
  H         0.50039          0.88541        -0.39732
  H         0.50039         -0.88541        -0.39732
6
 step=         223     theta[rad]=           2.3353
  C        -0.00212         -0.00000        -0.00569
  C         0.04118          0.00000         1.43333
  O         1.04698         -0.00000         2.23852
  H        -1.04337         -0.00000        -0.31962
  H         0.50065          0.88316        -0.40165
  H         0.50065         -0.88316        -0.40165
6
 step=         224     theta[rad]=           2.3457
  C        -0.00956          0.00000        -0.01494
  C         0.15072          0.00000         1.52326
  O         0.96999         -0.00000         2.17982
  H        -1.03657          0.00000        -0.37148
  H         0.49998          0.88888        -0.39064
  H         0.49998         -0.88888        -0.39064
6
 step=         225     theta[rad]=           2.3562
  C        -0.00209         -0.00000        -0.00565
  C         0.04070          0.00000         1.43293
  O         1.04731         -0.00000         2.23878
  H        -1.04340         -0.00000        -0.31939
  H         0.50066          0.88313        -0.40170
  H         0.50066         -0.88313        -0.40170
6
 step=         226     theta[rad]=           2.3667
  C        -0.00523          0.00000        -0.00956
  C         0.08695          0.00000         1.47090
  O         1.01481         -0.00000         2.21400
  H        -1.04053         -0.00000        -0.34129
  H         0.50037          0.88555        -0.39705
  H         0.50037         -0.88555        -0.39705
6
 step=         227     theta[rad]=           2.3771
  C        -0.00818          0.00000        -0.01323
  C         0.13039          0.00000         1.50657
  O         0.98427         -0.00000         2.19072
  H        -1.03783          0.00000        -0.36186
  H         0.50010          0.88782        -0.39268
  H         0.50010         -0.88782        -0.39268
6
 step=         228     theta[rad]=           2.3876
  C        -0.00082         -0.00000        -0.00407
  C         0.02196          0.00000         1.41754
  O         1.06049         -0.00000         2.24882
  H        -1.04457         -0.00000        -0.31052
  H         0.50077          0.88215        -0.40358
  H         0.50077         -0.88215        -0.40358
6
 step=         229     theta[rad]=           2.3981
  C        -0.00859          0.00000        -0.01373
  C         0.13636          0.00000         1.51147
  O         0.98008         -0.00000         2.18752
  H        -1.03746          0.00000        -0.36468
  H         0.50007          0.88813        -0.39208
  H         0.50007         -0.88813        -0.39208
6
 step=         230     theta[rad]=           2.4086
  C        -0.00450          0.00000        -0.00865
  C         0.07619          0.00000         1.46207
  O         1.02237         -0.00000         2.21976
  H        -1.04120         -0.00000        -0.33619
  H         0.50044          0.88499        -0.39813
  H         0.50044         -0.88499        -0.39813
6
 step=         231     theta[rad]=           2.4190
  C        -0.00284          0.00000        -0.00658
  C         0.05174          0.00000         1.44200
  O         1.03955         -0.00000         2.23286
  H        -1.04272         -0.00000        -0.32462
  H         0.50059          0.88371        -0.40059
  H         0.50059         -0.88371        -0.40059
6
 step=         232     theta[rad]=           2.4295
  C        -0.00938          0.00000        -0.01471
  C         0.14797          0.00000         1.52100
  O         0.97192         -0.00000         2.18130
  H        -1.03674          0.00000        -0.37018
  H         0.50000          0.88874        -0.39092
  H         0.50000         -0.88874        -0.39092
6
 step=         233     theta[rad]=           2.4400
  C        -0.00117         -0.00000        -0.00451
  C         0.02713          0.00000         1.42179
  O         1.05685         -0.00000         2.24605
  H        -1.04425         -0.00000        -0.31296
  H         0.50074          0.88242        -0.40306
  H         0.50074         -0.88242        -0.40306
6
 step=         234     theta[rad]=           2.4504
  C        -0.00717          0.00000        -0.01197
  C         0.11553          0.00000         1.49437
  O         0.99472         -0.00000         2.19868
  H        -1.03875          0.00000        -0.35482
  H         0.50019          0.88704        -0.39418
  H         0.50020         -0.88704        -0.39418
6
 step=         235     theta[rad]=           2.4609
  C        -0.00610          0.00000        -0.01063
  C         0.09967          0.00000         1.48135
  O         1.00586         -0.00000         2.20718
  H        -1.03974          0.00000        -0.34731
  H         0.50029          0.88621        -0.39577
  H         0.50029         -0.88621        -0.39577
6
 step=         236     theta[rad]=           2.4714
  C        -0.00181         -0.00000        -0.00531
  C         0.03662          0.00000         1.42958
  O         1.05018         -0.00000         2.24096
  H        -1.04366         -0.00000        -0.31746
  H         0.50068          0.88292        -0.40211
  H         0.50068         -0.88292        -0.40211
6
 step=         237     theta[rad]=           2.4819
  C        -0.00956          0.00000        -0.01494
  C         0.15069          0.00000         1.52324
  O         0.97001         -0.00000         2.17984
  H        -1.03657          0.00000        -0.37147
  H         0.49998          0.88888        -0.39064
  H         0.49998         -0.88888        -0.39064
6
 step=         238     theta[rad]=           2.4923
  C        -0.00162         -0.00000        -0.00506
  C         0.03374          0.00000         1.42722
  O         1.05221         -0.00000         2.24251
  H        -1.04383         -0.00000        -0.31610
  H         0.50070          0.88277        -0.40240
  H         0.50070         -0.88277        -0.40240
6
 step=         239     theta[rad]=           2.5028
  C        -0.00654          0.00000        -0.01118
  C         0.10619          0.00000         1.48670
  O         1.00128         -0.00000         2.20369
  H        -1.03933          0.00000        -0.35040
  H         0.50025          0.88656        -0.39512
  H         0.50025         -0.88656        -0.39512
6
 step=         240     theta[rad]=           2.5133
  C        -0.00654          0.00000        -0.01118
  C         0.10619          0.00000         1.48670
  O         1.00128         -0.00000         2.20369
  H        -1.03933          0.00000        -0.35040
  H         0.50025          0.88656        -0.39512
  H         0.50025         -0.88656        -0.39512
6
 step=         241     theta[rad]=           2.5237
  C        -0.00167         -0.00000        -0.00513
  C         0.03454          0.00000         1.42787
  O         1.05165         -0.00000         2.24208
  H        -1.04379         -0.00000        -0.31647
  H         0.50069          0.88281        -0.40232
  H         0.50069         -0.88281        -0.40232
6
 step=         242     theta[rad]=           2.5342
  C        -0.00956          0.00000        -0.01494
  C         0.15069          0.00000         1.52324
  O         0.97001         -0.00000         2.17984
  H        -1.03657          0.00000        -0.37147
  H         0.49998          0.88888        -0.39064
  H         0.49998         -0.88888        -0.39064
6
 step=         243     theta[rad]=           2.5447
  C        -0.00149         -0.00000        -0.00490
  C         0.03186          0.00000         1.42567
  O         1.05353         -0.00000         2.24351
  H        -1.04395         -0.00000        -0.31521
  H         0.50071          0.88267        -0.40259
  H         0.50071         -0.88267        -0.40259
6
 step=         244     theta[rad]=           2.5552
  C        -0.00697          0.00000        -0.01171
  C         0.11249          0.00000         1.49187
  O         0.99686         -0.00000         2.20031
  H        -1.03894          0.00000        -0.35338
  H         0.50021          0.88688        -0.39448
  H         0.50021         -0.88688        -0.39448
6
 step=         245     theta[rad]=           2.5656
  C        -0.00587          0.00000        -0.01035
  C         0.09636          0.00000         1.47863
  O         1.00820         -0.00000         2.20895
  H        -1.03994         -0.00000        -0.34574
  H         0.50031          0.88604        -0.39611
  H         0.50031         -0.88604        -0.39611
6
 step=         246     theta[rad]=           2.5761
  C        -0.00229         -0.00000        -0.00590
  C         0.04366          0.00000         1.43536
  O         1.04524         -0.00000         2.23719
  H        -1.04322         -0.00000        -0.32079
  H         0.50064          0.88328        -0.40140
  H         0.50064         -0.88328        -0.40140
6
 step=         247     theta[rad]=           2.5866
  C        -0.00938          0.00000        -0.01471
  C         0.14797          0.00000         1.52100
  O         0.97192         -0.00000         2.18130
  H        -1.03674          0.00000        -0.37018
  H         0.50000          0.88874        -0.39092
  H         0.50000         -0.88874        -0.39092
6
 step=         248     theta[rad]=           2.5970
  C        -0.00095         -0.00000        -0.00423
  C         0.02385          0.00000         1.41910
  O         1.05916         -0.00000         2.24780
  H        -1.04445         -0.00000        -0.31141
  H         0.50076          0.88225        -0.40339
  H         0.50076         -0.88225        -0.40339
6
 step=         249     theta[rad]=           2.6075
  C        -0.00828          0.00000        -0.01335
  C         0.13184          0.00000         1.50776
  O         0.98325         -0.00000         2.18994
  H        -1.03774          0.00000        -0.36254
  H         0.50009          0.88790        -0.39254
  H         0.50009         -0.88790        -0.39254
6
 step=         250     theta[rad]=           2.6180
  C        -0.00405          0.00000        -0.00809
  C         0.06959          0.00000         1.45665
  O         1.02701         -0.00000         2.22329
  H        -1.04161         -0.00000        -0.33307
  H         0.50048          0.88464        -0.39880
  H         0.50048         -0.88464        -0.39880
6
 step=         251     theta[rad]=           2.6285
  C        -0.00410          0.00000        -0.00815
  C         0.07025          0.00000         1.45719
  O         1.02655         -0.00000         2.22294
  H        -1.04157         -0.00000        -0.33338
  H         0.50047          0.88468        -0.39873
  H         0.50047         -0.88468        -0.39873
6
 step=         252     theta[rad]=           2.6389
  C        -0.00818          0.00000        -0.01323
  C         0.13039          0.00000         1.50657
  O         0.98427         -0.00000         2.19072
  H        -1.03783          0.00000        -0.36186
  H         0.50010          0.88782        -0.39268
  H         0.50010         -0.88782        -0.39268
6
 step=         253     theta[rad]=           2.6494
  C        -0.00104         -0.00000        -0.00434
  C         0.02520          0.00000         1.42020
  O         1.05821         -0.00000         2.24709
  H        -1.04437         -0.00000        -0.31205
  H         0.50075          0.88232        -0.40326
  H         0.50075         -0.88232        -0.40326
6
 step=         254     theta[rad]=           2.6599
  C        -0.00951          0.00000        -0.01488
  C         0.14992          0.00000         1.52261
  O         0.97054         -0.00000         2.18025
  H        -1.03661          0.00000        -0.37111
  H         0.49998          0.88884        -0.39072
  H         0.49998         -0.88884        -0.39072
6
 step=         255     theta[rad]=           2.6704
  C        -0.00165         -0.00000        -0.00510
  C         0.03414          0.00000         1.42754
  O         1.05193         -0.00000         2.24229
  H        -1.04381         -0.00000        -0.31628
  H         0.50070          0.88279        -0.40236
  H         0.50070         -0.88279        -0.40236
6
 step=         256     theta[rad]=           2.6808
  C        -0.00721          0.00000        -0.01202
  C         0.11613          0.00000         1.49486
  O         0.99430         -0.00000         2.19836
  H        -1.03871          0.00000        -0.35511
  H         0.50019          0.88708        -0.39412
  H         0.50019         -0.88708        -0.39412
6
 step=         257     theta[rad]=           2.6913
  C        -0.00505          0.00000        -0.00933
  C         0.08425          0.00000         1.46869
  O         1.01671         -0.00000         2.21544
  H        -1.04070         -0.00000        -0.34001
  H         0.50039          0.88541        -0.39732
  H         0.50039         -0.88541        -0.39732
6
 step=         258     theta[rad]=           2.7018
  C        -0.00345          0.00000        -0.00734
  C         0.06068          0.00000         1.44933
  O         1.03327         -0.00000         2.22807
  H        -1.04216         -0.00000        -0.32885
  H         0.50053          0.88418        -0.39969
  H         0.50053         -0.88418        -0.39969
6
 step=         259     theta[rad]=           2.7122
  C        -0.00844          0.00000        -0.01354
  C         0.13417          0.00000         1.50967
  O         0.98162         -0.00000         2.18869
  H        -1.03759          0.00000        -0.36364
  H         0.50008          0.88802        -0.39231
  H         0.50008         -0.88802        -0.39230
6
 step=         260     theta[rad]=           2.7227
  C        -0.00102         -0.00000        -0.00432
  C         0.02498          0.00000         1.42002
  O         1.05836         -0.00000         2.24720
  H        -1.04438         -0.00000        -0.31195
  H         0.50075          0.88231        -0.40328
  H         0.50075         -0.88231        -0.40328
6
 step=         261     theta[rad]=           2.7332
  C        -0.00954          0.00000        -0.01492
  C         0.15043          0.00000         1.52303
  O         0.97019         -0.00000         2.17998
  H        -1.03658          0.00000        -0.37135
  H         0.49998          0.88887        -0.39067
  H         0.49998         -0.88887        -0.39067
6
 step=         262     theta[rad]=           2.7437
  C        -0.00133         -0.00000        -0.00470
  C         0.02948          0.00000         1.42371
  O         1.05520         -0.00000         2.24479
  H        -1.04410         -0.00000        -0.31408
  H         0.50073          0.88254        -0.40283
  H         0.50072         -0.88254        -0.40283
6
 step=         263     theta[rad]=           2.7541
  C        -0.00798          0.00000        -0.01297
  C         0.12735          0.00000         1.50408
  O         0.98641         -0.00000         2.19234
  H        -1.03802          0.00000        -0.36042
  H         0.50012          0.88766        -0.39299
  H         0.50012         -0.88766        -0.39299
6
 step=         264     theta[rad]=           2.7646
  C        -0.00383          0.00000        -0.00782
  C         0.06636          0.00000         1.45400
  O         1.02928         -0.00000         2.22503
  H        -1.04181         -0.00000        -0.33154
  H         0.50050          0.88447        -0.39912
  H         0.50050         -0.88447        -0.39912
6
 step=         265     theta[rad]=           2.7751
  C        -0.00496          0.00000        -0.00922
  C         0.08290          0.00000         1.46758
  O         1.01765         -0.00000         2.21616
  H        -1.04078         -0.00000        -0.33937
  H         0.50040          0.88534        -0.39746
  H         0.50040         -0.88534        -0.39746
6
 step=         266     theta[rad]=           2.7855
  C        -0.00692          0.00000        -0.01166
  C         0.11187          0.00000         1.49136
  O         0.99729         -0.00000         2.20064
  H        -1.03898          0.00000        -0.35309
  H         0.50022          0.88685        -0.39455
  H         0.50022         -0.88685        -0.39455
6
 step=         267     theta[rad]=           2.7960
  C        -0.00219         -0.00000        -0.00577
  C         0.04216          0.00000         1.43413
  O         1.04629         -0.00000         2.23800
  H        -1.04331         -0.00000        -0.32008
  H         0.50065          0.88321        -0.40155
  H         0.50065         -0.88321        -0.40155
6
 step=         268     theta[rad]=           2.8065
  C        -0.00906          0.00000        -0.01432
  C         0.14338          0.00000         1.51724
  O         0.97514         -0.00000         2.18375
  H        -1.03702          0.00000        -0.36801
  H         0.50002          0.88850        -0.39138
  H         0.50002         -0.88850        -0.39138
6
 step=         269     theta[rad]=           2.8170
  C        -0.00086         -0.00000        -0.00412
  C         0.02262          0.00000         1.41809
  O         1.06002         -0.00000         2.24846
  H        -1.04453         -0.00000        -0.31083
  H         0.50077          0.88218        -0.40352
  H         0.50077         -0.88218        -0.40352
6
 step=         270     theta[rad]=           2.8274
  C        -0.00951          0.00000        -0.01488
  C         0.14992          0.00000         1.52261
  O         0.97054         -0.00000         2.18025
  H        -1.03661          0.00000        -0.37111
  H         0.49998          0.88884        -0.39072
  H         0.49998         -0.88884        -0.39072
6
 step=         271     theta[rad]=           2.8379
  C        -0.00127         -0.00000        -0.00463
  C         0.02855          0.00000         1.42295
  O         1.05586         -0.00000         2.24529
  H        -1.04416         -0.00000        -0.31364
  H         0.50073          0.88249        -0.40292
  H         0.50073         -0.88249        -0.40292
6
 step=         272     theta[rad]=           2.8484
  C        -0.00838          0.00000        -0.01347
  C         0.13325          0.00000         1.50892
  O         0.98226         -0.00000         2.18918
  H        -1.03765          0.00000        -0.36321
  H         0.50009          0.88797        -0.39240
  H         0.50009         -0.88797        -0.39240
6
 step=         273     theta[rad]=           2.8588
  C        -0.00296          0.00000        -0.00673
  C         0.05347          0.00000         1.44341
  O         1.03834         -0.00000         2.23194
  H        -1.04261         -0.00000        -0.32544
  H         0.50058          0.88380        -0.40042
  H         0.50058         -0.88380        -0.40042
6
 step=         274     theta[rad]=           2.8693
  C        -0.00632          0.00000        -0.01091
  C         0.10295          0.00000         1.48404
  O         1.00356         -0.00000         2.20542
  H        -1.03953          0.00000        -0.34887
  H         0.50027          0.88639        -0.39544
  H         0.50027         -0.88639        -0.39544
6
 step=         275     theta[rad]=           2.8798
  C        -0.00519          0.00000        -0.00950
  C         0.08627          0.00000         1.47035
  O         1.01528         -0.00000         2.21436
  H        -1.04057         -0.00000        -0.34097
  H         0.50038          0.88551        -0.39712
  H         0.50038         -0.88551        -0.39712
6
 step=         276     theta[rad]=           2.8903
  C        -0.00410          0.00000        -0.00815
  C         0.07025          0.00000         1.45719
  O         1.02655         -0.00000         2.22294
  H        -1.04157         -0.00000        -0.33338
  H         0.50047          0.88468        -0.39873
  H         0.50047         -0.88468        -0.39873
6
 step=         277     theta[rad]=           2.9007
  C        -0.00725          0.00000        -0.01207
  C         0.11673          0.00000         1.49535
  O         0.99388         -0.00000         2.19804
  H        -1.03868          0.00000        -0.35539
  H         0.50019          0.88711        -0.39406
  H         0.50019         -0.88711        -0.39406
6
 step=         278     theta[rad]=           2.9112
  C        -0.00229         -0.00000        -0.00590
  C         0.04366          0.00000         1.43536
  O         1.04524         -0.00000         2.23719
  H        -1.04322         -0.00000        -0.32079
  H         0.50064          0.88328        -0.40140
  H         0.50064         -0.88328        -0.40140
6
 step=         279     theta[rad]=           2.9217
  C        -0.00873          0.00000        -0.01390
  C         0.13841          0.00000         1.51316
  O         0.97864         -0.00000         2.18642
  H        -1.03733          0.00000        -0.36565
  H         0.50005          0.88824        -0.39188
  H         0.50005         -0.88824        -0.39188
6
 step=         280     theta[rad]=           2.9322
  C        -0.00119         -0.00000        -0.00453
  C         0.02740          0.00000         1.42201
  O         1.05666         -0.00000         2.24590
  H        -1.04423         -0.00000        -0.31309
  H         0.50074          0.88243        -0.40304
  H         0.50074         -0.88243        -0.40304
6
 step=         281     theta[rad]=           2.9426
  C        -0.00946          0.00000        -0.01481
  C         0.14917          0.00000         1.52199
  O         0.97108         -0.00000         2.18066
  H        -1.03666          0.00000        -0.37075
  H         0.49999          0.88880        -0.39080
  H         0.49999         -0.88880        -0.39080
6
 step=         282     theta[rad]=           2.9531
  C        -0.00081         -0.00000        -0.00406
  C         0.02186          0.00000         1.41746
  O         1.06056         -0.00000         2.24887
  H        -1.04457         -0.00000        -0.31047
  H         0.50077          0.88215        -0.40359
  H         0.50077         -0.88214        -0.40359
6
 step=         283     theta[rad]=           2.9636
  C        -0.00952          0.00000        -0.01488
  C         0.15003          0.00000         1.52270
  O         0.97047         -0.00000         2.18019
  H        -1.03661          0.00000        -0.37115
  H         0.49998          0.88885        -0.39071
  H         0.49998         -0.88885        -0.39071
6
 step=         284     theta[rad]=           2.9740
  C        -0.00102         -0.00000        -0.00432
  C         0.02498          0.00000         1.42002
  O         1.05836         -0.00000         2.24720
  H        -1.04438         -0.00000        -0.31195
  H         0.50075          0.88231        -0.40328
  H         0.50075         -0.88231        -0.40328
6
 step=         285     theta[rad]=           2.9845
  C        -0.00908          0.00000        -0.01435
  C         0.14369          0.00000         1.51750
  O         0.97492         -0.00000         2.18359
  H        -1.03700          0.00000        -0.36816
  H         0.50002          0.88852        -0.39135
  H         0.50002         -0.88852        -0.39135
6
 step=         286     theta[rad]=           2.9950
  C        -0.00162         -0.00000        -0.00506
  C         0.03374          0.00000         1.42722
  O         1.05221         -0.00000         2.24251
  H        -1.04383         -0.00000        -0.31610
  H         0.50070          0.88277        -0.40240
  H         0.50070         -0.88277        -0.40240
6
 step=         287     theta[rad]=           3.0055
  C        -0.00838          0.00000        -0.01347
  C         0.13325          0.00000         1.50892
  O         0.98226         -0.00000         2.18918
  H        -1.03765          0.00000        -0.36321
  H         0.50009          0.88797        -0.39240
  H         0.50009         -0.88797        -0.39240
6
 step=         288     theta[rad]=           3.0159
  C        -0.00240         -0.00000        -0.00603
  C         0.04520          0.00000         1.43662
  O         1.04416         -0.00000         2.23637
  H        -1.04312         -0.00000        -0.32152
  H         0.50063          0.88337        -0.40125
  H         0.50063         -0.88337        -0.40125
6
 step=         289     theta[rad]=           3.0264
  C        -0.00757          0.00000        -0.01246
  C         0.12137          0.00000         1.49917
  O         0.99061         -0.00000         2.19555
  H        -1.03839          0.00000        -0.35759
  H         0.50016          0.88735        -0.39359
  H         0.50016         -0.88735        -0.39359
6
 step=         290     theta[rad]=           3.0369
  C        -0.00320          0.00000        -0.00703
  C         0.05702          0.00000         1.44633
  O         1.03585         -0.00000         2.23003
  H        -1.04239         -0.00000        -0.32712
  H         0.50056          0.88398        -0.40006
  H         0.50056         -0.88398        -0.40006
6
 step=         291     theta[rad]=           3.0473
  C        -0.00680          0.00000        -0.01150
  C         0.11000          0.00000         1.48983
  O         0.99861         -0.00000         2.20164
  H        -1.03910          0.00000        -0.35220
  H         0.50023          0.88675        -0.39473
  H         0.50023         -0.88675        -0.39473
6
 step=         292     theta[rad]=           3.0578
  C        -0.00392          0.00000        -0.00793
  C         0.06765          0.00000         1.45505
  O         1.02838         -0.00000         2.22434
  H        -1.04173         -0.00000        -0.33215
  H         0.50049          0.88454        -0.39899
  H         0.50049         -0.88454        -0.39899
6
 step=         293     theta[rad]=           3.0683
  C        -0.00614          0.00000        -0.01069
  C         0.10033          0.00000         1.48189
  O         1.00540         -0.00000         2.20682
  H        -1.03970          0.00000        -0.34762
  H         0.50029          0.88625        -0.39571
  H         0.50029         -0.88625        -0.39571
6
 step=         294     theta[rad]=           3.0788
  C        -0.00450          0.00000        -0.00865
  C         0.07619          0.00000         1.46207
  O         1.02237         -0.00000         2.21976
  H        -1.04120         -0.00000        -0.33619
  H         0.50044          0.88499        -0.39813
  H         0.50044         -0.88499        -0.39813
6
 step=         295     theta[rad]=           3.0892
  C        -0.00564          0.00000        -0.01007
  C         0.09301          0.00000         1.47588
  O         1.01055         -0.00000         2.21075
  H        -1.04015         -0.00000        -0.34416
  H         0.50033          0.88587        -0.39644
  H         0.50033         -0.88587        -0.39644
6
 step=         296     theta[rad]=           3.0997
  C        -0.00491          0.00000        -0.00916
  C         0.08223          0.00000         1.46703
  O         1.01813         -0.00000         2.21653
  H        -1.04082         -0.00000        -0.33905
  H         0.50040          0.88530        -0.39753
  H         0.50040         -0.88530        -0.39753
6
 step=         297     theta[rad]=           3.1102
  C        -0.00532          0.00000        -0.00967
  C         0.08830          0.00000         1.47201
  O         1.01386         -0.00000         2.21327
  H        -1.04044         -0.00000        -0.34193
  H         0.50036          0.88562        -0.39692
  H         0.50036         -0.88562        -0.39692
6
 step=         298     theta[rad]=           3.1206
  C        -0.00514          0.00000        -0.00944
  C         0.08560          0.00000         1.46979
  O         1.01576         -0.00000         2.21472
  H        -1.04061         -0.00000        -0.34065
  H         0.50038          0.88548        -0.39719
  H         0.50038         -0.88548        -0.39719
6
 step=         299     theta[rad]=           3.1311
  C        -0.00519          0.00000        -0.00950
  C         0.08627          0.00000         1.47035
  O         1.01528         -0.00000         2.21436
  H        -1.04057         -0.00000        -0.34097
  H         0.50038          0.88551        -0.39712
  H         0.50038         -0.88551        -0.39712
6
 step=         300     theta[rad]=           3.1416
  C        -0.00519          0.00000        -0.00950
  C         0.08627          0.00000         1.47035
  O         1.01528         -0.00000         2.21436
  H        -1.04057         -0.00000        -0.34097
  H         0.50038          0.88551        -0.39712
  H         0.50038         -0.88551        -0.39712
6
 step=         301     theta[rad]=           3.1521
  C        -0.00523          0.00000        -0.00956
  C         0.08695          0.00000         1.47090
  O         1.01481         -0.00000         2.21400
  H        -1.04053         -0.00000        -0.34129
  H         0.50037          0.88555        -0.39705
  H         0.50037         -0.88555        -0.39705
6
 step=         302     theta[rad]=           3.1625
  C        -0.00505          0.00000        -0.00933
  C         0.08425          0.00000         1.46869
  O         1.01671         -0.00000         2.21544
  H        -1.04070         -0.00000        -0.34001
  H         0.50039          0.88541        -0.39732
  H         0.50039         -0.88541        -0.39732
6
 step=         303     theta[rad]=           3.1730
  C        -0.00546          0.00000        -0.00984
  C         0.09032          0.00000         1.47367
  O         1.01244         -0.00000         2.21219
  H        -1.04032         -0.00000        -0.34288
  H         0.50035          0.88573        -0.39671
  H         0.50035         -0.88573        -0.39671
6
 step=         304     theta[rad]=           3.1835
  C        -0.00473          0.00000        -0.00893
  C         0.07954          0.00000         1.46482
  O         1.02002         -0.00000         2.21797
  H        -1.04099         -0.00000        -0.33778
  H         0.50042          0.88516        -0.39780
  H         0.50042         -0.88516        -0.39780
6
 step=         305     theta[rad]=           3.1940
  C        -0.00587          0.00000        -0.01035
  C         0.09636          0.00000         1.47863
  O         1.00820         -0.00000         2.20895
  H        -1.03994         -0.00000        -0.34574
  H         0.50031          0.88604        -0.39611
  H         0.50031         -0.88604        -0.39611
6
 step=         306     theta[rad]=           3.2044
  C        -0.00423          0.00000        -0.00831
  C         0.07222          0.00000         1.45881
  O         1.02516         -0.00000         2.22189
  H        -1.04144         -0.00000        -0.33431
  H         0.50046          0.88478        -0.39853
  H         0.50046         -0.88478        -0.39853
6
 step=         307     theta[rad]=           3.2149
  C        -0.00645          0.00000        -0.01107
  C         0.10490          0.00000         1.48564
  O         1.00219         -0.00000         2.20438
  H        -1.03941          0.00000        -0.34979
  H         0.50026          0.88649        -0.39525
  H         0.50026         -0.88649        -0.39525
6
 step=         308     theta[rad]=           3.2254
  C        -0.00357          0.00000        -0.00750
  C         0.06255          0.00000         1.45087
  O         1.03196         -0.00000         2.22707
  H        -1.04204         -0.00000        -0.32974
  H         0.50052          0.88427        -0.39950
  H         0.50052         -0.88427        -0.39950
6
 step=         309     theta[rad]=           3.2358
  C        -0.00717          0.00000        -0.01197
  C         0.11553          0.00000         1.49437
  O         0.99472         -0.00000         2.19868
  H        -1.03875          0.00000        -0.35482
  H         0.50019          0.88704        -0.39418
  H         0.50020         -0.88704        -0.39418
6
 step=         310     theta[rad]=           3.2463
  C        -0.00280          0.00000        -0.00654
  C         0.05117          0.00000         1.44153
  O         1.03995         -0.00000         2.23316
  H        -1.04275         -0.00000        -0.32435
  H         0.50059          0.88368        -0.40065
  H         0.50059         -0.88368        -0.40065
6
 step=         311     theta[rad]=           3.2568
  C        -0.00798          0.00000        -0.01297
  C         0.12735          0.00000         1.50408
  O         0.98641         -0.00000         2.19234
  H        -1.03802          0.00000        -0.36042
  H         0.50012          0.88766        -0.39299
  H         0.50012         -0.88766        -0.39299
6
 step=         312     theta[rad]=           3.2673
  C        -0.00200         -0.00000        -0.00553
  C         0.03930          0.00000         1.43178
  O         1.04830         -0.00000         2.23953
  H        -1.04349         -0.00000        -0.31873
  H         0.50066          0.88306        -0.40184
  H         0.50066         -0.88306        -0.40184
6
 step=         313     theta[rad]=           3.2777
  C        -0.00875          0.00000        -0.01394
  C         0.13880          0.00000         1.51348
  O         0.97836         -0.00000         2.18621
  H        -1.03731          0.00000        -0.36584
  H         0.50005          0.88826        -0.39184
  H         0.50005         -0.88826        -0.39184
6
 step=         314     theta[rad]=           3.2882
  C        -0.00129         -0.00000        -0.00465
  C         0.02885          0.00000         1.42320
  O         1.05564         -0.00000         2.24513
  H        -1.04414         -0.00000        -0.31378
  H         0.50073          0.88251        -0.40289
  H         0.50073         -0.88251        -0.40289
6
 step=         315     theta[rad]=           3.2987
  C        -0.00935          0.00000        -0.01468
  C         0.14756          0.00000         1.52067
  O         0.97220         -0.00000         2.18151
  H        -1.03676          0.00000        -0.36999
  H         0.50000          0.88872        -0.39096
  H         0.50000         -0.88872        -0.39096
6
 step=         316     theta[rad]=           3.3091
  C        -0.00086         -0.00000        -0.00412
  C         0.02252          0.00000         1.41800
  O         1.06009         -0.00000         2.24852
  H        -1.04453         -0.00000        -0.31078
  H         0.50077          0.88218        -0.40353
  H         0.50077         -0.88218        -0.40353
6
 step=         317     theta[rad]=           3.3196
  C        -0.00956          0.00000        -0.01494
  C         0.15069          0.00000         1.52324
  O         0.97001         -0.00000         2.17984
  H        -1.03657          0.00000        -0.37147
  H         0.49998          0.88888        -0.39064
  H         0.49998         -0.88888        -0.39064
6
 step=         318     theta[rad]=           3.3301
  C        -0.00091         -0.00000        -0.00419
  C         0.02338          0.00000         1.41871
  O         1.05949         -0.00000         2.24806
  H        -1.04448         -0.00000        -0.31119
  H         0.50076          0.88222        -0.40344
  H         0.50076         -0.88222        -0.40344
6
 step=         319     theta[rad]=           3.3406
  C        -0.00918          0.00000        -0.01447
  C         0.14515          0.00000         1.51869
  O         0.97390         -0.00000         2.18281
  H        -1.03691          0.00000        -0.36884
  H         0.50001          0.88859        -0.39120
  H         0.50001         -0.88859        -0.39120
6
 step=         320     theta[rad]=           3.3510
  C        -0.00165         -0.00000        -0.00510
  C         0.03414          0.00000         1.42754
  O         1.05193         -0.00000         2.24229
  H        -1.04381         -0.00000        -0.31628
  H         0.50070          0.88279        -0.40236
  H         0.50070         -0.88279        -0.40236
6
 step=         321     theta[rad]=           3.3615
  C        -0.00808          0.00000        -0.01310
  C         0.12889          0.00000         1.50534
  O         0.98533         -0.00000         2.19152
  H        -1.03792          0.00000        -0.36115
  H         0.50011          0.88774        -0.39284
  H         0.50011         -0.88774        -0.39283
6
 step=         322     theta[rad]=           3.3720
  C        -0.00312          0.00000        -0.00693
  C         0.05582          0.00000         1.44534
  O         1.03669         -0.00000         2.23068
  H        -1.04246         -0.00000        -0.32655
  H         0.50056          0.88392        -0.40018
  H         0.50056         -0.88392        -0.40018
6
 step=         323     theta[rad]=           3.3824
  C        -0.00627          0.00000        -0.01085
  C         0.10230          0.00000         1.48351
  O         1.00402         -0.00000         2.20577
  H        -1.03957          0.00000        -0.34856
  H         0.50028          0.88635        -0.39551
  H         0.50028         -0.88635        -0.39551
6
 step=         324     theta[rad]=           3.3929
  C        -0.00519          0.00000        -0.00950
  C         0.08627          0.00000         1.47035
  O         1.01528         -0.00000         2.21436
  H        -1.04057         -0.00000        -0.34097
  H         0.50038          0.88551        -0.39712
  H         0.50038         -0.88551        -0.39712
6
 step=         325     theta[rad]=           3.4034
  C        -0.00405          0.00000        -0.00809
  C         0.06959          0.00000         1.45665
  O         1.02701         -0.00000         2.22329
  H        -1.04161         -0.00000        -0.33307
  H         0.50048          0.88464        -0.39880
  H         0.50048         -0.88464        -0.39880
6
 step=         326     theta[rad]=           3.4139
  C        -0.00741          0.00000        -0.01227
  C         0.11908          0.00000         1.49728
  O         0.99222         -0.00000         2.19678
  H        -1.03853          0.00000        -0.35650
  H         0.50017          0.88723        -0.39382
  H         0.50017         -0.88723        -0.39382
6
 step=         327     theta[rad]=           3.4243
  C        -0.00200         -0.00000        -0.00553
  C         0.03930          0.00000         1.43178
  O         1.04830         -0.00000         2.23953
  H        -1.04349         -0.00000        -0.31873
  H         0.50066          0.88306        -0.40184
  H         0.50066         -0.88306        -0.40184
6
 step=         328     theta[rad]=           3.4348
  C        -0.00911          0.00000        -0.01437
  C         0.14400          0.00000         1.51774
  O         0.97471         -0.00000         2.18343
  H        -1.03698          0.00000        -0.36830
  H         0.50002          0.88853        -0.39132
  H         0.50002         -0.88853        -0.39132
6
 step=         329     theta[rad]=           3.4453
  C        -0.00086         -0.00000        -0.00412
  C         0.02262          0.00000         1.41809
  O         1.06002         -0.00000         2.24846
  H        -1.04453         -0.00000        -0.31083
  H         0.50077          0.88218        -0.40352
  H         0.50077         -0.88218        -0.40352
6
 step=         330     theta[rad]=           3.4558
  C        -0.00951          0.00000        -0.01488
  C         0.14992          0.00000         1.52261
  O         0.97054         -0.00000         2.18025
  H        -1.03661          0.00000        -0.37111
  H         0.49998          0.88884        -0.39072
  H         0.49998         -0.88884        -0.39072
6
 step=         331     theta[rad]=           3.4662
  C        -0.00131         -0.00000        -0.00468
  C         0.02916          0.00000         1.42346
  O         1.05543         -0.00000         2.24496
  H        -1.04412         -0.00000        -0.31393
  H         0.50073          0.88253        -0.40286
  H         0.50073         -0.88253        -0.40286
6
 step=         332     theta[rad]=           3.4767
  C        -0.00818          0.00000        -0.01323
  C         0.13039          0.00000         1.50657
  O         0.98427         -0.00000         2.19072
  H        -1.03783          0.00000        -0.36186
  H         0.50010          0.88782        -0.39268
  H         0.50010         -0.88782        -0.39268
6
 step=         333     theta[rad]=           3.4872
  C        -0.00345          0.00000        -0.00734
  C         0.06068          0.00000         1.44933
  O         1.03327         -0.00000         2.22807
  H        -1.04216         -0.00000        -0.32885
  H         0.50053          0.88418        -0.39969
  H         0.50053         -0.88418        -0.39969
6
 step=         334     theta[rad]=           3.4976
  C        -0.00541          0.00000        -0.00978
  C         0.08965          0.00000         1.47312
  O         1.01291         -0.00000         2.21255
  H        -1.04036         -0.00000        -0.34257
  H         0.50035          0.88569        -0.39678
  H         0.50035         -0.88569        -0.39678
6
 step=         335     theta[rad]=           3.5081
  C        -0.00654          0.00000        -0.01118
  C         0.10619          0.00000         1.48670
  O         1.00128         -0.00000         2.20369
  H        -1.03933          0.00000        -0.35040
  H         0.50025          0.88656        -0.39512
  H         0.50025         -0.88656        -0.39512
6
 step=         336     theta[rad]=           3.5186
  C        -0.00240         -0.00000        -0.00603
  C         0.04520          0.00000         1.43662
  O         1.04416         -0.00000         2.23637
  H        -1.04312         -0.00000        -0.32152
  H         0.50063          0.88337        -0.40125
  H         0.50063         -0.88337        -0.40125
6
 step=         337     theta[rad]=           3.5291
  C        -0.00904          0.00000        -0.01430
  C         0.14307          0.00000         1.51698
  O         0.97536         -0.00000         2.18392
  H        -1.03704          0.00000        -0.36786
  H         0.50003          0.88848        -0.39141
  H         0.50003         -0.88848        -0.39141
6
 step=         338     theta[rad]=           3.5395
  C        -0.00083         -0.00000        -0.00408
  C         0.02212          0.00000         1.41767
  O         1.06038         -0.00000         2.24874
  H        -1.04456         -0.00000        -0.31059
  H         0.50077          0.88216        -0.40357
  H         0.50077         -0.88216        -0.40357
6
 step=         339     theta[rad]=           3.5500
  C        -0.00935          0.00000        -0.01468
  C         0.14756          0.00000         1.52067
  O         0.97220         -0.00000         2.18151
  H        -1.03676          0.00000        -0.36999
  H         0.50000          0.88872        -0.39096
  H         0.50000         -0.88872        -0.39096
6
 step=         340     theta[rad]=           3.5605
  C        -0.00193         -0.00000        -0.00546
  C         0.03838          0.00000         1.43103
  O         1.04895         -0.00000         2.24002
  H        -1.04355         -0.00000        -0.31829
  H         0.50067          0.88301        -0.40193
  H         0.50067         -0.88301        -0.40193
6
 step=         341     theta[rad]=           3.5709
  C        -0.00692          0.00000        -0.01166
  C         0.11187          0.00000         1.49136
  O         0.99729         -0.00000         2.20064
  H        -1.03898          0.00000        -0.35309
  H         0.50022          0.88685        -0.39455
  H         0.50022         -0.88685        -0.39455
6
 step=         342     theta[rad]=           3.5814
  C        -0.00532          0.00000        -0.00967
  C         0.08830          0.00000         1.47201
  O         1.01386         -0.00000         2.21327
  H        -1.04044         -0.00000        -0.34193
  H         0.50036          0.88562        -0.39692
  H         0.50036         -0.88562        -0.39692
6
 step=         343     theta[rad]=           3.5919
  C        -0.00316          0.00000        -0.00698
  C         0.05642          0.00000         1.44583
  O         1.03627         -0.00000         2.23036
  H        -1.04243         -0.00000        -0.32683
  H         0.50056          0.88395        -0.40012
  H         0.50056         -0.88395        -0.40012
6
 step=         344     theta[rad]=           3.6024
  C        -0.00873          0.00000        -0.01390
  C         0.13841          0.00000         1.51316
  O         0.97864         -0.00000         2.18642
  H        -1.03733          0.00000        -0.36565
  H         0.50005          0.88824        -0.39188
  H         0.50005         -0.88824        -0.39188
6
 step=         345     theta[rad]=           3.6128
  C        -0.00086         -0.00000        -0.00412
  C         0.02262          0.00000         1.41809
  O         1.06002         -0.00000         2.24846
  H        -1.04453         -0.00000        -0.31083
  H         0.50077          0.88218        -0.40352
  H         0.50077         -0.88218        -0.40352
6
 step=         346     theta[rad]=           3.6233
  C        -0.00933          0.00000        -0.01466
  C         0.14735          0.00000         1.52050
  O         0.97235         -0.00000         2.18163
  H        -1.03677          0.00000        -0.36989
  H         0.50000          0.88871        -0.39098
  H         0.50000         -0.88871        -0.39098
6
 step=         347     theta[rad]=           3.6338
  C        -0.00219         -0.00000        -0.00577
  C         0.04216          0.00000         1.43413
  O         1.04629         -0.00000         2.23800
  H        -1.04331         -0.00000        -0.32008
  H         0.50065          0.88321        -0.40155
  H         0.50065         -0.88321        -0.40155
6
 step=         348     theta[rad]=           3.6442
  C        -0.00627          0.00000        -0.01085
  C         0.10230          0.00000         1.48351
  O         1.00402         -0.00000         2.20577
  H        -1.03957          0.00000        -0.34856
  H         0.50028          0.88635        -0.39551
  H         0.50028         -0.88635        -0.39551
6
 step=         349     theta[rad]=           3.6547
  C        -0.00632          0.00000        -0.01091
  C         0.10295          0.00000         1.48404
  O         1.00356         -0.00000         2.20542
  H        -1.03953          0.00000        -0.34887
  H         0.50027          0.88639        -0.39544
  H         0.50027         -0.88639        -0.39544
6
 step=         350     theta[rad]=           3.6652
  C        -0.00209         -0.00000        -0.00565
  C         0.04070          0.00000         1.43293
  O         1.04731         -0.00000         2.23878
  H        -1.04340         -0.00000        -0.31939
  H         0.50066          0.88313        -0.40170
  H         0.50066         -0.88313        -0.40170
6
 step=         351     theta[rad]=           3.6757
  C        -0.00942          0.00000        -0.01477
  C         0.14869          0.00000         1.52160
  O         0.97141         -0.00000         2.18091
  H        -1.03669          0.00000        -0.37052
  H         0.49999          0.88878        -0.39084
  H         0.49999         -0.88878        -0.39084
6
 step=         352     theta[rad]=           3.6861
  C        -0.00100         -0.00000        -0.00429
  C         0.02458          0.00000         1.41969
  O         1.05865         -0.00000         2.24742
  H        -1.04440         -0.00000        -0.31176
  H         0.50076          0.88229        -0.40332
  H         0.50075         -0.88229        -0.40332
6
 step=         353     theta[rad]=           3.6966
  C        -0.00808          0.00000        -0.01310
  C         0.12889          0.00000         1.50534
  O         0.98533         -0.00000         2.19152
  H        -1.03792          0.00000        -0.36115
  H         0.50011          0.88774        -0.39284
  H         0.50011         -0.88774        -0.39283
6
 step=         354     theta[rad]=           3.7071
  C        -0.00450          0.00000        -0.00865
  C         0.07619          0.00000         1.46207
  O         1.02237         -0.00000         2.21976
  H        -1.04120         -0.00000        -0.33619
  H         0.50044          0.88499        -0.39813
  H         0.50044         -0.88499        -0.39813
6
 step=         355     theta[rad]=           3.7176
  C        -0.00341          0.00000        -0.00729
  C         0.06006          0.00000         1.44883
  O         1.03371         -0.00000         2.22840
  H        -1.04220         -0.00000        -0.32856
  H         0.50054          0.88414        -0.39975
  H         0.50054         -0.88414        -0.39975
6
 step=         356     theta[rad]=           3.7280
  C        -0.00888          0.00000        -0.01410
  C         0.14069          0.00000         1.51503
  O         0.97704         -0.00000         2.18520
  H        -1.03719          0.00000        -0.36673
  H         0.50004          0.88836        -0.39165
  H         0.50004         -0.88836        -0.39165
6
 step=         357     theta[rad]=           3.7385
  C        -0.00081         -0.00000        -0.00406
  C         0.02186          0.00000         1.41746
  O         1.06056         -0.00000         2.24887
  H        -1.04457         -0.00000        -0.31047
  H         0.50077          0.88215        -0.40359
  H         0.50077         -0.88214        -0.40359
6
 step=         358     theta[rad]=           3.7490
  C        -0.00870          0.00000        -0.01387
  C         0.13801          0.00000         1.51283
  O         0.97892         -0.00000         2.18663
  H        -1.03736          0.00000        -0.36546
  H         0.50006          0.88822        -0.39192
  H         0.50006         -0.88822        -0.39192
6
 step=         359     theta[rad]=           3.7594
  C        -0.00383          0.00000        -0.00782
  C         0.06636          0.00000         1.45400
  O         1.02928         -0.00000         2.22503
  H        -1.04181         -0.00000        -0.33154
  H         0.50050          0.88447        -0.39912
  H         0.50050         -0.88447        -0.39912
6
 step=         360     theta[rad]=           3.7699
  C        -0.00383          0.00000        -0.00782
  C         0.06636          0.00000         1.45400
  O         1.02928         -0.00000         2.22503
  H        -1.04181         -0.00000        -0.33154
  H         0.50050          0.88447        -0.39912
  H         0.50050         -0.88447        -0.39912
6
 step=         361     theta[rad]=           3.7804
  C        -0.00875          0.00000        -0.01394
  C         0.13880          0.00000         1.51348
  O         0.97836         -0.00000         2.18621
  H        -1.03731          0.00000        -0.36584
  H         0.50005          0.88826        -0.39184
  H         0.50005         -0.88826        -0.39184
6
 step=         362     theta[rad]=           3.7909
  C        -0.00081         -0.00000        -0.00406
  C         0.02186          0.00000         1.41746
  O         1.06056         -0.00000         2.24887
  H        -1.04457         -0.00000        -0.31047
  H         0.50077          0.88215        -0.40359
  H         0.50077         -0.88214        -0.40359
6
 step=         363     theta[rad]=           3.8013
  C        -0.00856          0.00000        -0.01369
  C         0.13593          0.00000         1.51112
  O         0.98038         -0.00000         2.18775
  H        -1.03748          0.00000        -0.36448
  H         0.50007          0.88811        -0.39213
  H         0.50007         -0.88811        -0.39213
6
 step=         364     theta[rad]=           3.8118
  C        -0.00428          0.00000        -0.00837
  C         0.07288          0.00000         1.45935
  O         1.02470         -0.00000         2.22154
  H        -1.04140         -0.00000        -0.33462
  H         0.50046          0.88481        -0.39847
  H         0.50046         -0.88481        -0.39847
6
 step=         365     theta[rad]=           3.8223
  C        -0.00320          0.00000        -0.00703
  C         0.05702          0.00000         1.44633
  O         1.03585         -0.00000         2.23003
  H        -1.04239         -0.00000        -0.32712
  H         0.50056          0.88398        -0.40006
  H         0.50056         -0.88398        -0.40006
6
 step=         366     theta[rad]=           3.8327
  C        -0.00920          0.00000        -0.01449
  C         0.14542          0.00000         1.51891
  O         0.97371         -0.00000         2.18266
  H        -1.03689          0.00000        -0.36897
  H         0.50001          0.88861        -0.39117
  H         0.50001         -0.88861        -0.39117
6
 step=         367     theta[rad]=           3.8432
  C        -0.00100         -0.00000        -0.00429
  C         0.02458          0.00000         1.41969
  O         1.05865         -0.00000         2.24742
  H        -1.04440         -0.00000        -0.31176
  H         0.50076          0.88229        -0.40332
  H         0.50075         -0.88229        -0.40332
6
 step=         368     theta[rad]=           3.8537
  C        -0.00753          0.00000        -0.01242
  C         0.12080          0.00000         1.49870
  O         0.99101         -0.00000         2.19585
  H        -1.03842          0.00000        -0.35732
  H         0.50016          0.88732        -0.39365
  H         0.50016         -0.88732        -0.39365
6
 step=         369     theta[rad]=           3.8642
  C        -0.00587          0.00000        -0.01035
  C         0.09636          0.00000         1.47863
  O         1.00820         -0.00000         2.20895
  H        -1.03994         -0.00000        -0.34574
  H         0.50031          0.88604        -0.39611
  H         0.50031         -0.88604        -0.39611
6
 step=         370     theta[rad]=           3.8746
  C        -0.00178         -0.00000        -0.00527
  C         0.03619          0.00000         1.42923
  O         1.05049         -0.00000         2.24119
  H        -1.04368         -0.00000        -0.31726
  H         0.50068          0.88289        -0.40215
  H         0.50068         -0.88289        -0.40215
6
 step=         371     theta[rad]=           3.8851
  C        -0.00955          0.00000        -0.01493
  C         0.15059          0.00000         1.52316
  O         0.97007         -0.00000         2.17989
  H        -1.03657          0.00000        -0.37142
  H         0.49998          0.88888        -0.39065
  H         0.49998         -0.88888        -0.39065
6
 step=         372     theta[rad]=           3.8956
  C        -0.00219         -0.00000        -0.00577
  C         0.04216          0.00000         1.43413
  O         1.04629         -0.00000         2.23800
  H        -1.04331         -0.00000        -0.32008
  H         0.50065          0.88321        -0.40155
  H         0.50065         -0.88321        -0.40155
6
 step=         373     theta[rad]=           3.9060
  C        -0.00514          0.00000        -0.00944
  C         0.08560          0.00000         1.46979
  O         1.01576         -0.00000         2.21472
  H        -1.04061         -0.00000        -0.34065
  H         0.50038          0.88548        -0.39719
  H         0.50038         -0.88548        -0.39719
6
 step=         374     theta[rad]=           3.9165
  C        -0.00828          0.00000        -0.01335
  C         0.13184          0.00000         1.50776
  O         0.98325         -0.00000         2.18994
  H        -1.03774          0.00000        -0.36254
  H         0.50009          0.88790        -0.39254
  H         0.50009         -0.88790        -0.39254
6
 step=         375     theta[rad]=           3.9270
  C        -0.00081         -0.00000        -0.00406
  C         0.02183          0.00000         1.41743
  O         1.06058         -0.00000         2.24889
  H        -1.04457         -0.00000        -0.31045
  H         0.50077          0.88214        -0.40360
  H         0.50077         -0.88214        -0.40360
6
 step=         376     theta[rad]=           3.9375
  C        -0.00825          0.00000        -0.01331
  C         0.13136          0.00000         1.50737
  O         0.98359         -0.00000         2.19020
  H        -1.03777          0.00000        -0.36232
  H         0.50010          0.88787        -0.39259
  H         0.50010         -0.88787        -0.39259
6
 step=         377     theta[rad]=           3.9479
  C        -0.00532          0.00000        -0.00967
  C         0.08830          0.00000         1.47201
  O         1.01386         -0.00000         2.21327
  H        -1.04044         -0.00000        -0.34193
  H         0.50036          0.88562        -0.39692
  H         0.50036         -0.88562        -0.39692
6
 step=         378     theta[rad]=           3.9584
  C        -0.00190         -0.00000        -0.00542
  C         0.03793          0.00000         1.43066
  O         1.04926         -0.00000         2.24026
  H        -1.04357         -0.00000        -0.31808
  H         0.50067          0.88299        -0.40198
  H         0.50067         -0.88299        -0.40198
6
 step=         379     theta[rad]=           3.9689
  C        -0.00954          0.00000        -0.01491
  C         0.15037          0.00000         1.52297
  O         0.97023         -0.00000         2.18001
  H        -1.03659          0.00000        -0.37131
  H         0.49998          0.88887        -0.39068
  H         0.49998         -0.88887        -0.39068
6
 step=         380     theta[rad]=           3.9794
  C        -0.00261         -0.00000        -0.00630
  C         0.04839          0.00000         1.43925
  O         1.04191         -0.00000         2.23465
  H        -1.04292         -0.00000        -0.32303
  H         0.50061          0.88353        -0.40093
  H         0.50061         -0.88353        -0.40093
6
 step=         381     theta[rad]=           3.9898
  C        -0.00423          0.00000        -0.00831
  C         0.07222          0.00000         1.45881
  O         1.02516         -0.00000         2.22189
  H        -1.04144         -0.00000        -0.33431
  H         0.50046          0.88478        -0.39853
  H         0.50046         -0.88478        -0.39853
6
 step=         382     theta[rad]=           4.0003
  C        -0.00904          0.00000        -0.01430
  C         0.14307          0.00000         1.51698
  O         0.97536         -0.00000         2.18392
  H        -1.03704          0.00000        -0.36786
  H         0.50003          0.88848        -0.39141
  H         0.50003         -0.88848        -0.39141
6
 step=         383     theta[rad]=           4.0108
  C        -0.00112         -0.00000        -0.00444
  C         0.02635          0.00000         1.42115
  O         1.05740         -0.00000         2.24646
  H        -1.04429         -0.00000        -0.31260
  H         0.50074          0.88238        -0.40314
  H         0.50074         -0.88238        -0.40314
6
 step=         384     theta[rad]=           4.0212
  C        -0.00654          0.00000        -0.01118
  C         0.10619          0.00000         1.48670
  O         1.00128         -0.00000         2.20369
  H        -1.03933          0.00000        -0.35040
  H         0.50025          0.88656        -0.39512
  H         0.50025         -0.88656        -0.39512
6
 step=         385     theta[rad]=           4.0317
  C        -0.00757          0.00000        -0.01246
  C         0.12137          0.00000         1.49917
  O         0.99061         -0.00000         2.19555
  H        -1.03839          0.00000        -0.35759
  H         0.50016          0.88735        -0.39359
  H         0.50016         -0.88735        -0.39359
6
 step=         386     theta[rad]=           4.0422
  C        -0.00083         -0.00000        -0.00408
  C         0.02212          0.00000         1.41767
  O         1.06038         -0.00000         2.24874
  H        -1.04456         -0.00000        -0.31059
  H         0.50077          0.88216        -0.40357
  H         0.50077         -0.88216        -0.40357
6
 step=         387     theta[rad]=           4.0527
  C        -0.00818          0.00000        -0.01323
  C         0.13039          0.00000         1.50657
  O         0.98427         -0.00000         2.19072
  H        -1.03783          0.00000        -0.36186
  H         0.50010          0.88782        -0.39268
  H         0.50010         -0.88782        -0.39268
6
 step=         388     theta[rad]=           4.0631
  C        -0.00592          0.00000        -0.01041
  C         0.09702          0.00000         1.47917
  O         1.00773         -0.00000         2.20860
  H        -1.03990         -0.00000        -0.34606
  H         0.50031          0.88608        -0.39604
  H         0.50031         -0.88608        -0.39604
6
 step=         389     theta[rad]=           4.0736
  C        -0.00129         -0.00000        -0.00465
  C         0.02885          0.00000         1.42320
  O         1.05564         -0.00000         2.24513
  H        -1.04414         -0.00000        -0.31378
  H         0.50073          0.88251        -0.40289
  H         0.50073         -0.88251        -0.40289
6
 step=         390     theta[rad]=           4.0841
  C        -0.00908          0.00000        -0.01435
  C         0.14369          0.00000         1.51750
  O         0.97492         -0.00000         2.18359
  H        -1.03700          0.00000        -0.36816
  H         0.50002          0.88852        -0.39135
  H         0.50002         -0.88852        -0.39135
6
 step=         391     theta[rad]=           4.0945
  C        -0.00455          0.00000        -0.00870
  C         0.07686          0.00000         1.46262
  O         1.02190         -0.00000         2.21940
  H        -1.04116         -0.00000        -0.33651
  H         0.50043          0.88502        -0.39807
  H         0.50043         -0.88502        -0.39807
6
 step=         392     theta[rad]=           4.1050
  C        -0.00200         -0.00000        -0.00553
  C         0.03930          0.00000         1.43178
  O         1.04830         -0.00000         2.23953
  H        -1.04349         -0.00000        -0.31873
  H         0.50066          0.88306        -0.40184
  H         0.50066         -0.88306        -0.40184
6
 step=         393     theta[rad]=           4.1155
  C        -0.00946          0.00000        -0.01481
  C         0.14917          0.00000         1.52199
  O         0.97108         -0.00000         2.18066
  H        -1.03666          0.00000        -0.37075
  H         0.49999          0.88880        -0.39080
  H         0.49999         -0.88880        -0.39080
6
 step=         394     theta[rad]=           4.1260
  C        -0.00362          0.00000        -0.00755
  C         0.06318          0.00000         1.45139
  O         1.03152         -0.00000         2.22673
  H        -1.04201         -0.00000        -0.33003
  H         0.50052          0.88431        -0.39944
  H         0.50052         -0.88431        -0.39944
6
 step=         395     theta[rad]=           4.1364
  C        -0.00261         -0.00000        -0.00630
  C         0.04839          0.00000         1.43925
  O         1.04191         -0.00000         2.23465
  H        -1.04292         -0.00000        -0.32303
  H         0.50061          0.88353        -0.40093
  H         0.50061         -0.88353        -0.40093
6
 step=         396     theta[rad]=           4.1469
  C        -0.00955          0.00000        -0.01493
  C         0.15059          0.00000         1.52316
  O         0.97007         -0.00000         2.17989
  H        -1.03657          0.00000        -0.37142
  H         0.49998          0.88888        -0.39065
  H         0.49998         -0.88888        -0.39065
6
 step=         397     theta[rad]=           4.1574
  C        -0.00312          0.00000        -0.00693
  C         0.05582          0.00000         1.44534
  O         1.03669         -0.00000         2.23068
  H        -1.04246         -0.00000        -0.32655
  H         0.50056          0.88392        -0.40018
  H         0.50056         -0.88392        -0.40018
6
 step=         398     theta[rad]=           4.1678
  C        -0.00296          0.00000        -0.00673
  C         0.05347          0.00000         1.44341
  O         1.03834         -0.00000         2.23194
  H        -1.04261         -0.00000        -0.32544
  H         0.50058          0.88380        -0.40042
  H         0.50058         -0.88380        -0.40042
6
 step=         399     theta[rad]=           4.1783
  C        -0.00956          0.00000        -0.01494
  C         0.15072          0.00000         1.52326
  O         0.96999         -0.00000         2.17982
  H        -1.03657          0.00000        -0.37148
  H         0.49998          0.88888        -0.39064
  H         0.49998         -0.88888        -0.39064
6
 step=         400     theta[rad]=           4.1888
  C        -0.00300          0.00000        -0.00678
  C         0.05405          0.00000         1.44389
  O         1.03793         -0.00000         2.23162
  H        -1.04257         -0.00000        -0.32571
  H         0.50057          0.88383        -0.40036
  H         0.50057         -0.88383        -0.40036
6
 step=         401     theta[rad]=           4.1993
  C        -0.00296          0.00000        -0.00673
  C         0.05347          0.00000         1.44341
  O         1.03834         -0.00000         2.23194
  H        -1.04261         -0.00000        -0.32544
  H         0.50058          0.88380        -0.40042
  H         0.50058         -0.88380        -0.40042
6
 step=         402     theta[rad]=           4.2097
  C        -0.00956          0.00000        -0.01494
  C         0.15069          0.00000         1.52324
  O         0.97001         -0.00000         2.17984
  H        -1.03657          0.00000        -0.37147
  H         0.49998          0.88888        -0.39064
  H         0.49998         -0.88888        -0.39064
6
 step=         403     theta[rad]=           4.2202
  C        -0.00324          0.00000        -0.00708
  C         0.05762          0.00000         1.44682
  O         1.03542         -0.00000         2.22971
  H        -1.04235         -0.00000        -0.32740
  H         0.50055          0.88402        -0.40000
  H         0.50055         -0.88402        -0.40000
6
 step=         404     theta[rad]=           4.2307
  C        -0.00261         -0.00000        -0.00630
  C         0.04839          0.00000         1.43925
  O         1.04191         -0.00000         2.23465
  H        -1.04292         -0.00000        -0.32303
  H         0.50061          0.88353        -0.40093
  H         0.50061         -0.88353        -0.40093
6
 step=         405     theta[rad]=           4.2412
  C        -0.00951          0.00000        -0.01488
  C         0.14992          0.00000         1.52261
  O         0.97054         -0.00000         2.18025
  H        -1.03661          0.00000        -0.37111
  H         0.49998          0.88884        -0.39072
  H         0.49998         -0.88884        -0.39072
6
 step=         406     theta[rad]=           4.2516
  C        -0.00388          0.00000        -0.00787
  C         0.06700          0.00000         1.45452
  O         1.02883         -0.00000         2.22468
  H        -1.04177         -0.00000        -0.33184
  H         0.50049          0.88451        -0.39906
  H         0.50049         -0.88451        -0.39906
6
 step=         407     theta[rad]=           4.2621
  C        -0.00200         -0.00000        -0.00553
  C         0.03930          0.00000         1.43178
  O         1.04830         -0.00000         2.23953
  H        -1.04349         -0.00000        -0.31873
  H         0.50066          0.88306        -0.40184
  H         0.50066         -0.88306        -0.40184
6
 step=         408     theta[rad]=           4.2726
  C        -0.00925          0.00000        -0.01456
  C         0.14619          0.00000         1.51955
  O         0.97317         -0.00000         2.18225
  H        -1.03685          0.00000        -0.36934
  H         0.50001          0.88865        -0.39110
  H         0.50001         -0.88865        -0.39110
6
 step=         409     theta[rad]=           4.2830
  C        -0.00496          0.00000        -0.00922
  C         0.08290          0.00000         1.46758
  O         1.01765         -0.00000         2.21616
  H        -1.04078         -0.00000        -0.33937
  H         0.50040          0.88534        -0.39746
  H         0.50040         -0.88534        -0.39746
6
 step=         410     theta[rad]=           4.2935
  C        -0.00129         -0.00000        -0.00465
  C         0.02885          0.00000         1.42320
  O         1.05564         -0.00000         2.24513
  H        -1.04414         -0.00000        -0.31378
  H         0.50073          0.88251        -0.40289
  H         0.50073         -0.88251        -0.40289
6
 step=         411     theta[rad]=           4.3040
  C        -0.00856          0.00000        -0.01369
  C         0.13593          0.00000         1.51112
  O         0.98038         -0.00000         2.18775
  H        -1.03748          0.00000        -0.36448
  H         0.50007          0.88811        -0.39213
  H         0.50007         -0.88811        -0.39213
6
 step=         412     theta[rad]=           4.3145
  C        -0.00645          0.00000        -0.01107
  C         0.10490          0.00000         1.48564
  O         1.00219         -0.00000         2.20438
  H        -1.03941          0.00000        -0.34979
  H         0.50026          0.88649        -0.39525
  H         0.50026         -0.88649        -0.39525
6
 step=         413     theta[rad]=           4.3249
  C        -0.00083         -0.00000        -0.00408
  C         0.02212          0.00000         1.41767
  O         1.06038         -0.00000         2.24874
  H        -1.04456         -0.00000        -0.31059
  H         0.50077          0.88216        -0.40357
  H         0.50077         -0.88216        -0.40357
6
 step=         414     theta[rad]=           4.3354
  C        -0.00717          0.00000        -0.01197
  C         0.11553          0.00000         1.49437
  O         0.99472         -0.00000         2.19868
  H        -1.03875          0.00000        -0.35482
  H         0.50019          0.88704        -0.39418
  H         0.50020         -0.88704        -0.39418
6
 step=         415     theta[rad]=           4.3459
  C        -0.00811          0.00000        -0.01314
  C         0.12940          0.00000         1.50576
  O         0.98497         -0.00000         2.19125
  H        -1.03789          0.00000        -0.36139
  H         0.50011          0.88777        -0.39278
  H         0.50011         -0.88777        -0.39278
6
 step=         416     theta[rad]=           4.3563
  C        -0.00112         -0.00000        -0.00444
  C         0.02635          0.00000         1.42115
  O         1.05740         -0.00000         2.24646
  H        -1.04429         -0.00000        -0.31260
  H         0.50074          0.88238        -0.40314
  H         0.50074         -0.88238        -0.40314
6
 step=         417     theta[rad]=           4.3668
  C        -0.00505          0.00000        -0.00933
  C         0.08425          0.00000         1.46869
  O         1.01671         -0.00000         2.21544
  H        -1.04070         -0.00000        -0.34001
  H         0.50039          0.88541        -0.39732
  H         0.50039         -0.88541        -0.39732
6
 step=         418     theta[rad]=           4.3773
  C        -0.00936          0.00000        -0.01469
  C         0.14777          0.00000         1.52084
  O         0.97206         -0.00000         2.18140
  H        -1.03675          0.00000        -0.37009
  H         0.50000          0.88873        -0.39094
  H         0.50000         -0.88873        -0.39094
6
 step=         419     theta[rad]=           4.3878
  C        -0.00261         -0.00000        -0.00630
  C         0.04839          0.00000         1.43925
  O         1.04191         -0.00000         2.23465
  H        -1.04292         -0.00000        -0.32303
  H         0.50061          0.88353        -0.40093
  H         0.50061         -0.88353        -0.40093
6
 step=         420     theta[rad]=           4.3982
  C        -0.00261         -0.00000        -0.00630
  C         0.04839          0.00000         1.43925
  O         1.04191         -0.00000         2.23465
  H        -1.04292         -0.00000        -0.32303
  H         0.50061          0.88353        -0.40093
  H         0.50061         -0.88353        -0.40093
6
 step=         421     theta[rad]=           4.4087
  C        -0.00933          0.00000        -0.01466
  C         0.14735          0.00000         1.52050
  O         0.97235         -0.00000         2.18163
  H        -1.03677          0.00000        -0.36989
  H         0.50000          0.88871        -0.39098
  H         0.50000         -0.88871        -0.39098
6
 step=         422     theta[rad]=           4.4192
  C        -0.00532          0.00000        -0.00967
  C         0.08830          0.00000         1.47201
  O         1.01386         -0.00000         2.21327
  H        -1.04044         -0.00000        -0.34193
  H         0.50036          0.88562        -0.39692
  H         0.50036         -0.88562        -0.39692
6
 step=         423     theta[rad]=           4.4296
  C        -0.00095         -0.00000        -0.00423
  C         0.02385          0.00000         1.41910
  O         1.05916         -0.00000         2.24780
  H        -1.04445         -0.00000        -0.31141
  H         0.50076          0.88225        -0.40339
  H         0.50076         -0.88225        -0.40339
6
 step=         424     theta[rad]=           4.4401
  C        -0.00737          0.00000        -0.01222
  C         0.11850          0.00000         1.49681
  O         0.99263         -0.00000         2.19709
  H        -1.03857          0.00000        -0.35623
  H         0.50018          0.88720        -0.39388
  H         0.50018         -0.88720        -0.39388
6
 step=         425     theta[rad]=           4.4506
  C        -0.00828          0.00000        -0.01335
  C         0.13184          0.00000         1.50776
  O         0.98325         -0.00000         2.18994
  H        -1.03774          0.00000        -0.36254
  H         0.50009          0.88790        -0.39254
  H         0.50009         -0.88790        -0.39254
6
 step=         426     theta[rad]=           4.4611
  C        -0.00142         -0.00000        -0.00482
  C         0.03080          0.00000         1.42480
  O         1.05427         -0.00000         2.24408
  H        -1.04402         -0.00000        -0.31470
  H         0.50072          0.88261        -0.40269
  H         0.50072         -0.88261        -0.40270
6
 step=         427     theta[rad]=           4.4715
  C        -0.00392          0.00000        -0.00793
  C         0.06765          0.00000         1.45505
  O         1.02838         -0.00000         2.22434
  H        -1.04173         -0.00000        -0.33215
  H         0.50049          0.88454        -0.39899
  H         0.50049         -0.88454        -0.39899
6
 step=         428     theta[rad]=           4.4820
  C        -0.00955          0.00000        -0.01493
  C         0.15059          0.00000         1.52316
  O         0.97007         -0.00000         2.17989
  H        -1.03657          0.00000        -0.37142
  H         0.49998          0.88888        -0.39065
  H         0.49998         -0.88888        -0.39065
6
 step=         429     theta[rad]=           4.4925
  C        -0.00450          0.00000        -0.00865
  C         0.07619          0.00000         1.46207
  O         1.02237         -0.00000         2.21976
  H        -1.04120         -0.00000        -0.33619
  H         0.50044          0.88499        -0.39813
  H         0.50044         -0.88499        -0.39813
6
 step=         430     theta[rad]=           4.5029
  C        -0.00110         -0.00000        -0.00442
  C         0.02611          0.00000         1.42095
  O         1.05757         -0.00000         2.24660
  H        -1.04431         -0.00000        -0.31248
  H         0.50075          0.88237        -0.40317
  H         0.50075         -0.88237        -0.40317
6
 step=         431     theta[rad]=           4.5134
  C        -0.00753          0.00000        -0.01242
  C         0.12080          0.00000         1.49870
  O         0.99101         -0.00000         2.19585
  H        -1.03842          0.00000        -0.35732
  H         0.50016          0.88732        -0.39365
  H         0.50016         -0.88732        -0.39365
6
 step=         432     theta[rad]=           4.5239
  C        -0.00838          0.00000        -0.01347
  C         0.13325          0.00000         1.50892
  O         0.98226         -0.00000         2.18918
  H        -1.03765          0.00000        -0.36321
  H         0.50009          0.88797        -0.39240
  H         0.50009         -0.88797        -0.39240
6
 step=         433     theta[rad]=           4.5344
  C        -0.00167         -0.00000        -0.00513
  C         0.03454          0.00000         1.42787
  O         1.05165         -0.00000         2.24208
  H        -1.04379         -0.00000        -0.31647
  H         0.50069          0.88281        -0.40232
  H         0.50069         -0.88281        -0.40232
6
 step=         434     theta[rad]=           4.5448
  C        -0.00320          0.00000        -0.00703
  C         0.05702          0.00000         1.44633
  O         1.03585         -0.00000         2.23003
  H        -1.04239         -0.00000        -0.32712
  H         0.50056          0.88398        -0.40006
  H         0.50056         -0.88398        -0.40006
6
 step=         435     theta[rad]=           4.5553
  C        -0.00935          0.00000        -0.01468
  C         0.14756          0.00000         1.52067
  O         0.97220         -0.00000         2.18151
  H        -1.03676          0.00000        -0.36999
  H         0.50000          0.88872        -0.39096
  H         0.50000         -0.88872        -0.39096
6
 step=         436     theta[rad]=           4.5658
  C        -0.00592          0.00000        -0.01041
  C         0.09702          0.00000         1.47917
  O         1.00773         -0.00000         2.20860
  H        -1.03990         -0.00000        -0.34606
  H         0.50031          0.88608        -0.39604
  H         0.50031         -0.88608        -0.39604
6
 step=         437     theta[rad]=           4.5763
  C        -0.00081         -0.00000        -0.00406
  C         0.02186          0.00000         1.41746
  O         1.06056         -0.00000         2.24887
  H        -1.04457         -0.00000        -0.31047
  H         0.50077          0.88215        -0.40359
  H         0.50077         -0.88214        -0.40359
6
 step=         438     theta[rad]=           4.5867
  C        -0.00560          0.00000        -0.01001
  C         0.09234          0.00000         1.47533
  O         1.01102         -0.00000         2.21111
  H        -1.04019         -0.00000        -0.34384
  H         0.50034          0.88583        -0.39651
  H         0.50034         -0.88583        -0.39651
6
 step=         439     theta[rad]=           4.5972
  C        -0.00947          0.00000        -0.01482
  C         0.14931          0.00000         1.52211
  O         0.97097         -0.00000         2.18058
  H        -1.03665          0.00000        -0.37081
  H         0.49999          0.88881        -0.39078
  H         0.49999         -0.88881        -0.39078
6
 step=         440     theta[rad]=           4.6077
  C        -0.00383          0.00000        -0.00782
  C         0.06636          0.00000         1.45400
  O         1.02928         -0.00000         2.22503
  H        -1.04181         -0.00000        -0.33154
  H         0.50050          0.88447        -0.39912
  H         0.50050         -0.88447        -0.39912
6
 step=         441     theta[rad]=           4.6181
  C        -0.00117         -0.00000        -0.00451
  C         0.02713          0.00000         1.42179
  O         1.05685         -0.00000         2.24605
  H        -1.04425         -0.00000        -0.31296
  H         0.50074          0.88242        -0.40306
  H         0.50074         -0.88242        -0.40306
6
 step=         442     theta[rad]=           4.6286
  C        -0.00725          0.00000        -0.01207
  C         0.11673          0.00000         1.49535
  O         0.99388         -0.00000         2.19804
  H        -1.03868          0.00000        -0.35539
  H         0.50019          0.88711        -0.39406
  H         0.50019         -0.88711        -0.39406
6
 step=         443     theta[rad]=           4.6391
  C        -0.00888          0.00000        -0.01410
  C         0.14069          0.00000         1.51503
  O         0.97704         -0.00000         2.18520
  H        -1.03719          0.00000        -0.36673
  H         0.50004          0.88836        -0.39165
  H         0.50004         -0.88836        -0.39165
6
 step=         444     theta[rad]=           4.6496
  C        -0.00261         -0.00000        -0.00630
  C         0.04839          0.00000         1.43925
  O         1.04191         -0.00000         2.23465
  H        -1.04292         -0.00000        -0.32303
  H         0.50061          0.88353        -0.40093
  H         0.50061         -0.88353        -0.40093
6
 step=         445     theta[rad]=           4.6600
  C        -0.00178         -0.00000        -0.00527
  C         0.03619          0.00000         1.42923
  O         1.05049         -0.00000         2.24119
  H        -1.04368         -0.00000        -0.31726
  H         0.50068          0.88289        -0.40215
  H         0.50068         -0.88289        -0.40215
6
 step=         446     theta[rad]=           4.6705
  C        -0.00808          0.00000        -0.01310
  C         0.12889          0.00000         1.50534
  O         0.98533         -0.00000         2.19152
  H        -1.03792          0.00000        -0.36115
  H         0.50011          0.88774        -0.39284
  H         0.50011         -0.88774        -0.39283
6
 step=         447     theta[rad]=           4.6810
  C        -0.00838          0.00000        -0.01347
  C         0.13325          0.00000         1.50892
  O         0.98226         -0.00000         2.18918
  H        -1.03765          0.00000        -0.36321
  H         0.50009          0.88797        -0.39240
  H         0.50009         -0.88797        -0.39240
6
 step=         448     theta[rad]=           4.6914
  C        -0.00212         -0.00000        -0.00569
  C         0.04118          0.00000         1.43333
  O         1.04698         -0.00000         2.23852
  H        -1.04337         -0.00000        -0.31962
  H         0.50065          0.88316        -0.40165
  H         0.50065         -0.88316        -0.40165
6
 step=         449     theta[rad]=           4.7019
  C        -0.00209         -0.00000        -0.00565
  C         0.04070          0.00000         1.43293
  O         1.04731         -0.00000         2.23878
  H        -1.04340         -0.00000        -0.31939
  H         0.50066          0.88313        -0.40170
  H         0.50066         -0.88313        -0.40170
6
 step=         450     theta[rad]=           4.7124
  C        -0.00828          0.00000        -0.01335
  C         0.13184          0.00000         1.50776
  O         0.98325         -0.00000         2.18994
  H        -1.03774          0.00000        -0.36254
  H         0.50009          0.88790        -0.39254
  H         0.50009         -0.88790        -0.39254
6
 step=         451     theta[rad]=           4.7229
  C        -0.00831          0.00000        -0.01339
  C         0.13232          0.00000         1.50815
  O         0.98292         -0.00000         2.18968
  H        -1.03771          0.00000        -0.36277
  H         0.50009          0.88792        -0.39249
  H         0.50009         -0.88792        -0.39249
6
 step=         452     theta[rad]=           4.7333
  C        -0.00219         -0.00000        -0.00577
  C         0.04216          0.00000         1.43413
  O         1.04629         -0.00000         2.23800
  H        -1.04331         -0.00000        -0.32008
  H         0.50065          0.88321        -0.40155
  H         0.50065         -0.88321        -0.40155
6
 step=         453     theta[rad]=           4.7438
  C        -0.00190         -0.00000        -0.00542
  C         0.03793          0.00000         1.43066
  O         1.04926         -0.00000         2.24026
  H        -1.04357         -0.00000        -0.31808
  H         0.50067          0.88299        -0.40198
  H         0.50067         -0.88299        -0.40198
6
 step=         454     theta[rad]=           4.7543
  C        -0.00794          0.00000        -0.01293
  C         0.12683          0.00000         1.50365
  O         0.98678         -0.00000         2.19262
  H        -1.03805          0.00000        -0.36017
  H         0.50013          0.88763        -0.39304
  H         0.50013         -0.88764        -0.39304
6
 step=         455     theta[rad]=           4.7647
  C        -0.00873          0.00000        -0.01390
  C         0.13841          0.00000         1.51316
  O         0.97864         -0.00000         2.18642
  H        -1.03733          0.00000        -0.36565
  H         0.50005          0.88824        -0.39188
  H         0.50005         -0.88824        -0.39188
6
 step=         456     theta[rad]=           4.7752
  C        -0.00284          0.00000        -0.00658
  C         0.05174          0.00000         1.44200
  O         1.03955         -0.00000         2.23286
  H        -1.04272         -0.00000        -0.32462
  H         0.50059          0.88371        -0.40059
  H         0.50059         -0.88371        -0.40059
6
 step=         457     theta[rad]=           4.7857
  C        -0.00133         -0.00000        -0.00470
  C         0.02948          0.00000         1.42371
  O         1.05520         -0.00000         2.24479
  H        -1.04410         -0.00000        -0.31408
  H         0.50073          0.88254        -0.40283
  H         0.50072         -0.88254        -0.40283
6
 step=         458     theta[rad]=           4.7962
  C        -0.00692          0.00000        -0.01166
  C         0.11187          0.00000         1.49136
  O         0.99729         -0.00000         2.20064
  H        -1.03898          0.00000        -0.35309
  H         0.50022          0.88685        -0.39455
  H         0.50022         -0.88685        -0.39455
6
 step=         459     theta[rad]=           4.8066
  C        -0.00935          0.00000        -0.01468
  C         0.14756          0.00000         1.52067
  O         0.97220         -0.00000         2.18151
  H        -1.03676          0.00000        -0.36999
  H         0.50000          0.88872        -0.39096
  H         0.50000         -0.88872        -0.39096
6
 step=         460     theta[rad]=           4.8171
  C        -0.00428          0.00000        -0.00837
  C         0.07288          0.00000         1.45935
  O         1.02470         -0.00000         2.22154
  H        -1.04140         -0.00000        -0.33462
  H         0.50046          0.88481        -0.39847
  H         0.50046         -0.88481        -0.39847
6
 step=         461     theta[rad]=           4.8276
  C        -0.00083         -0.00000        -0.00408
  C         0.02212          0.00000         1.41767
  O         1.06038         -0.00000         2.24874
  H        -1.04456         -0.00000        -0.31059
  H         0.50077          0.88216        -0.40357
  H         0.50077         -0.88216        -0.40357
6
 step=         462     theta[rad]=           4.8381
  C        -0.00505          0.00000        -0.00933
  C         0.08425          0.00000         1.46869
  O         1.01671         -0.00000         2.21544
  H        -1.04070         -0.00000        -0.34001
  H         0.50039          0.88541        -0.39732
  H         0.50039         -0.88541        -0.39732
6
 step=         463     theta[rad]=           4.8485
  C        -0.00950          0.00000        -0.01487
  C         0.14982          0.00000         1.52252
  O         0.97062         -0.00000         2.18031
  H        -1.03662          0.00000        -0.37105
  H         0.49998          0.88884        -0.39073
  H         0.49998         -0.88884        -0.39073
6
 step=         464     theta[rad]=           4.8590
  C        -0.00654          0.00000        -0.01118
  C         0.10619          0.00000         1.48670
  O         1.00128         -0.00000         2.20369
  H        -1.03933          0.00000        -0.35040
  H         0.50025          0.88656        -0.39512
  H         0.50025         -0.88656        -0.39512
6
 step=         465     theta[rad]=           4.8695
  C        -0.00129         -0.00000        -0.00465
  C         0.02885          0.00000         1.42320
  O         1.05564         -0.00000         2.24513
  H        -1.04414         -0.00000        -0.31378
  H         0.50073          0.88251        -0.40289
  H         0.50073         -0.88251        -0.40289
6
 step=         466     theta[rad]=           4.8799
  C        -0.00258         -0.00000        -0.00626
  C         0.04785          0.00000         1.43880
  O         1.04229         -0.00000         2.23495
  H        -1.04296         -0.00000        -0.32278
  H         0.50061          0.88350        -0.40098
  H         0.50061         -0.88350        -0.40098
6
 step=         467     theta[rad]=           4.8904
  C        -0.00818          0.00000        -0.01323
  C         0.13039          0.00000         1.50657
  O         0.98427         -0.00000         2.19072
  H        -1.03783          0.00000        -0.36186
  H         0.50010          0.88782        -0.39268
  H         0.50010         -0.88782        -0.39268
6
 step=         468     theta[rad]=           4.9009
  C        -0.00888          0.00000        -0.01410
  C         0.14069          0.00000         1.51503
  O         0.97704         -0.00000         2.18520
  H        -1.03719          0.00000        -0.36673
  H         0.50004          0.88836        -0.39165
  H         0.50004         -0.88836        -0.39165
6
 step=         469     theta[rad]=           4.9114
  C        -0.00362          0.00000        -0.00755
  C         0.06318          0.00000         1.45139
  O         1.03152         -0.00000         2.22673
  H        -1.04201         -0.00000        -0.33003
  H         0.50052          0.88431        -0.39944
  H         0.50052         -0.88431        -0.39944
6
 step=         470     theta[rad]=           4.9218
  C        -0.00086         -0.00000        -0.00412
  C         0.02262          0.00000         1.41809
  O         1.06002         -0.00000         2.24846
  H        -1.04453         -0.00000        -0.31083
  H         0.50077          0.88218        -0.40352
  H         0.50077         -0.88218        -0.40352
6
 step=         471     theta[rad]=           4.9323
  C        -0.00491          0.00000        -0.00916
  C         0.08223          0.00000         1.46703
  O         1.01813         -0.00000         2.21653
  H        -1.04082         -0.00000        -0.33905
  H         0.50040          0.88530        -0.39753
  H         0.50040         -0.88530        -0.39753
6
 step=         472     theta[rad]=           4.9428
  C        -0.00938          0.00000        -0.01471
  C         0.14797          0.00000         1.52100
  O         0.97192         -0.00000         2.18130
  H        -1.03674          0.00000        -0.37018
  H         0.50000          0.88874        -0.39092
  H         0.50000         -0.88874        -0.39092
6
 step=         473     theta[rad]=           4.9532
  C        -0.00741          0.00000        -0.01227
  C         0.11908          0.00000         1.49728
  O         0.99222         -0.00000         2.19678
  H        -1.03853          0.00000        -0.35650
  H         0.50017          0.88723        -0.39382
  H         0.50017         -0.88723        -0.39382
6
 step=         474     theta[rad]=           4.9637
  C        -0.00209         -0.00000        -0.00565
  C         0.04070          0.00000         1.43293
  O         1.04731         -0.00000         2.23878
  H        -1.04340         -0.00000        -0.31939
  H         0.50066          0.88313        -0.40170
  H         0.50066         -0.88313        -0.40170
6
 step=         475     theta[rad]=           4.9742
  C        -0.00140         -0.00000        -0.00479
  C         0.03046          0.00000         1.42452
  O         1.05451         -0.00000         2.24426
  H        -1.04404         -0.00000        -0.31454
  H         0.50072          0.88259        -0.40273
  H         0.50072         -0.88259        -0.40273
6
 step=         476     theta[rad]=           4.9847
  C        -0.00627          0.00000        -0.01085
  C         0.10230          0.00000         1.48351
  O         1.00402         -0.00000         2.20577
  H        -1.03957          0.00000        -0.34856
  H         0.50028          0.88635        -0.39551
  H         0.50028         -0.88635        -0.39551
6
 step=         477     theta[rad]=           4.9951
  C        -0.00956          0.00000        -0.01494
  C         0.15069          0.00000         1.52324
  O         0.97001         -0.00000         2.17984
  H        -1.03657          0.00000        -0.37147
  H         0.49998          0.88888        -0.39064
  H         0.49998         -0.88888        -0.39064
6
 step=         478     theta[rad]=           5.0056
  C        -0.00658          0.00000        -0.01124
  C         0.10683          0.00000         1.48723
  O         1.00083         -0.00000         2.20334
  H        -1.03929          0.00000        -0.35070
  H         0.50025          0.88659        -0.39505
  H         0.50025         -0.88659        -0.39505
6
 step=         479     theta[rad]=           5.0161
  C        -0.00165         -0.00000        -0.00510
  C         0.03414          0.00000         1.42754
  O         1.05193         -0.00000         2.24229
  H        -1.04381         -0.00000        -0.31628
  H         0.50070          0.88279        -0.40236
  H         0.50070         -0.88279        -0.40236
6
 step=         480     theta[rad]=           5.0265
  C        -0.00165         -0.00000        -0.00510
  C         0.03414          0.00000         1.42754
  O         1.05193         -0.00000         2.24229
  H        -1.04381         -0.00000        -0.31628
  H         0.50070          0.88279        -0.40236
  H         0.50070         -0.88279        -0.40236
6
 step=         481     theta[rad]=           5.0370
  C        -0.00649          0.00000        -0.01113
  C         0.10555          0.00000         1.48617
  O         1.00174         -0.00000         2.20403
  H        -1.03937          0.00000        -0.35009
  H         0.50026          0.88652        -0.39518
  H         0.50026         -0.88652        -0.39518
6
 step=         482     theta[rad]=           5.0475
  C        -0.00956          0.00000        -0.01494
  C         0.15069          0.00000         1.52324
  O         0.97001         -0.00000         2.17984
  H        -1.03657          0.00000        -0.37147
  H         0.49998          0.88888        -0.39064
  H         0.49998         -0.88888        -0.39064
6
 step=         483     theta[rad]=           5.0580
  C        -0.00680          0.00000        -0.01150
  C         0.11000          0.00000         1.48983
  O         0.99861         -0.00000         2.20164
  H        -1.03910          0.00000        -0.35220
  H         0.50023          0.88675        -0.39473
  H         0.50023         -0.88675        -0.39473
6
 step=         484     theta[rad]=           5.0684
  C        -0.00193         -0.00000        -0.00546
  C         0.03838          0.00000         1.43103
  O         1.04895         -0.00000         2.24002
  H        -1.04355         -0.00000        -0.31829
  H         0.50067          0.88301        -0.40193
  H         0.50067         -0.88301        -0.40193
6
 step=         485     theta[rad]=           5.0789
  C        -0.00129         -0.00000        -0.00465
  C         0.02885          0.00000         1.42320
  O         1.05564         -0.00000         2.24513
  H        -1.04414         -0.00000        -0.31378
  H         0.50073          0.88251        -0.40289
  H         0.50073         -0.88251        -0.40289
6
 step=         486     theta[rad]=           5.0894
  C        -0.00560          0.00000        -0.01001
  C         0.09234          0.00000         1.47533
  O         1.01102         -0.00000         2.21111
  H        -1.04019         -0.00000        -0.34384
  H         0.50034          0.88583        -0.39651
  H         0.50034         -0.88583        -0.39651
6
 step=         487     theta[rad]=           5.0999
  C        -0.00938          0.00000        -0.01471
  C         0.14797          0.00000         1.52100
  O         0.97192         -0.00000         2.18130
  H        -1.03674          0.00000        -0.37018
  H         0.50000          0.88874        -0.39092
  H         0.50000         -0.88874        -0.39092
6
 step=         488     theta[rad]=           5.1103
  C        -0.00798          0.00000        -0.01297
  C         0.12735          0.00000         1.50408
  O         0.98641         -0.00000         2.19234
  H        -1.03802          0.00000        -0.36042
  H         0.50012          0.88766        -0.39299
  H         0.50012         -0.88766        -0.39299
6
 step=         489     theta[rad]=           5.1208
  C        -0.00320          0.00000        -0.00703
  C         0.05702          0.00000         1.44633
  O         1.03585         -0.00000         2.23003
  H        -1.04239         -0.00000        -0.32712
  H         0.50056          0.88398        -0.40006
  H         0.50056         -0.88398        -0.40006
6
 step=         490     theta[rad]=           5.1313
  C        -0.00082         -0.00000        -0.00407
  C         0.02192          0.00000         1.41751
  O         1.06052         -0.00000         2.24884
  H        -1.04457         -0.00000        -0.31050
  H         0.50077          0.88215        -0.40359
  H         0.50077         -0.88215        -0.40359
6
 step=         491     theta[rad]=           5.1417
  C        -0.00357          0.00000        -0.00750
  C         0.06255          0.00000         1.45087
  O         1.03196         -0.00000         2.22707
  H        -1.04204         -0.00000        -0.32974
  H         0.50052          0.88427        -0.39950
  H         0.50052         -0.88427        -0.39950
6
 step=         492     theta[rad]=           5.1522
  C        -0.00818          0.00000        -0.01323
  C         0.13039          0.00000         1.50657
  O         0.98427         -0.00000         2.19072
  H        -1.03783          0.00000        -0.36186
  H         0.50010          0.88782        -0.39268
  H         0.50010         -0.88782        -0.39268
6
 step=         493     theta[rad]=           5.1627
  C        -0.00936          0.00000        -0.01469
  C         0.14777          0.00000         1.52084
  O         0.97206         -0.00000         2.18140
  H        -1.03675          0.00000        -0.37009
  H         0.50000          0.88873        -0.39094
  H         0.50000         -0.88873        -0.39094
6
 step=         494     theta[rad]=           5.1732
  C        -0.00587          0.00000        -0.01035
  C         0.09636          0.00000         1.47863
  O         1.00820         -0.00000         2.20895
  H        -1.03994         -0.00000        -0.34574
  H         0.50031          0.88604        -0.39611
  H         0.50031         -0.88604        -0.39611
6
 step=         495     theta[rad]=           5.1836
  C        -0.00165         -0.00000        -0.00510
  C         0.03414          0.00000         1.42754
  O         1.05193         -0.00000         2.24229
  H        -1.04381         -0.00000        -0.31628
  H         0.50070          0.88279        -0.40236
  H         0.50070         -0.88279        -0.40236
6
 step=         496     theta[rad]=           5.1941
  C        -0.00127         -0.00000        -0.00463
  C         0.02855          0.00000         1.42295
  O         1.05586         -0.00000         2.24529
  H        -1.04416         -0.00000        -0.31364
  H         0.50073          0.88249        -0.40292
  H         0.50073         -0.88249        -0.40292
6
 step=         497     theta[rad]=           5.2046
  C        -0.00505          0.00000        -0.00933
  C         0.08425          0.00000         1.46869
  O         1.01671         -0.00000         2.21544
  H        -1.04070         -0.00000        -0.34001
  H         0.50039          0.88541        -0.39732
  H         0.50039         -0.88541        -0.39732
6
 step=         498     theta[rad]=           5.2150
  C        -0.00895          0.00000        -0.01418
  C         0.14174          0.00000         1.51589
  O         0.97629         -0.00000         2.18463
  H        -1.03712          0.00000        -0.36723
  H         0.50003          0.88841        -0.39154
  H         0.50003         -0.88842        -0.39154
6
 step=         499     theta[rad]=           5.2255
  C        -0.00898          0.00000        -0.01421
  C         0.14208          0.00000         1.51617
  O         0.97605         -0.00000         2.18445
  H        -1.03710          0.00000        -0.36739
  H         0.50003          0.88843        -0.39151
  H         0.50003         -0.88843        -0.39151
6
 step=         500     theta[rad]=           5.2360
  C        -0.00519          0.00000        -0.00950
  C         0.08627          0.00000         1.47035
  O         1.01528         -0.00000         2.21436
  H        -1.04057         -0.00000        -0.34097
  H         0.50038          0.88551        -0.39712
  H         0.50038         -0.88551        -0.39712
6
 step=         501     theta[rad]=           5.2465
  C        -0.00142         -0.00000        -0.00482
  C         0.03080          0.00000         1.42480
  O         1.05427         -0.00000         2.24408
  H        -1.04402         -0.00000        -0.31470
  H         0.50072          0.88261        -0.40269
  H         0.50072         -0.88261        -0.40270
6
 step=         502     theta[rad]=           5.2569
  C        -0.00133         -0.00000        -0.00470
  C         0.02948          0.00000         1.42371
  O         1.05520         -0.00000         2.24479
  H        -1.04410         -0.00000        -0.31408
  H         0.50073          0.88254        -0.40283
  H         0.50072         -0.88254        -0.40283
6
 step=         503     theta[rad]=           5.2674
  C        -0.00491          0.00000        -0.00916
  C         0.08223          0.00000         1.46703
  O         1.01813         -0.00000         2.21653
  H        -1.04082         -0.00000        -0.33905
  H         0.50040          0.88530        -0.39753
  H         0.50040         -0.88530        -0.39753
6
 step=         504     theta[rad]=           5.2779
  C        -0.00873          0.00000        -0.01390
  C         0.13841          0.00000         1.51316
  O         0.97864         -0.00000         2.18642
  H        -1.03733          0.00000        -0.36565
  H         0.50005          0.88824        -0.39188
  H         0.50005         -0.88824        -0.39188
6
 step=         505     theta[rad]=           5.2883
  C        -0.00927          0.00000        -0.01458
  C         0.14644          0.00000         1.51975
  O         0.97299         -0.00000         2.18212
  H        -1.03683          0.00000        -0.36945
  H         0.50000          0.88866        -0.39107
  H         0.50001         -0.88866        -0.39107
6
 step=         506     theta[rad]=           5.2988
  C        -0.00614          0.00000        -0.01069
  C         0.10033          0.00000         1.48189
  O         1.00540         -0.00000         2.20682
  H        -1.03970          0.00000        -0.34762
  H         0.50029          0.88625        -0.39571
  H         0.50029         -0.88625        -0.39571
6
 step=         507     theta[rad]=           5.3093
  C        -0.00219         -0.00000        -0.00577
  C         0.04216          0.00000         1.43413
  O         1.04629         -0.00000         2.23800
  H        -1.04331         -0.00000        -0.32008
  H         0.50065          0.88321        -0.40155
  H         0.50065         -0.88321        -0.40155
6
 step=         508     theta[rad]=           5.3198
  C        -0.00086         -0.00000        -0.00412
  C         0.02252          0.00000         1.41800
  O         1.06009         -0.00000         2.24852
  H        -1.04453         -0.00000        -0.31078
  H         0.50077          0.88218        -0.40353
  H         0.50077         -0.88218        -0.40353
6
 step=         509     theta[rad]=           5.3302
  C        -0.00320          0.00000        -0.00703
  C         0.05702          0.00000         1.44633
  O         1.03585         -0.00000         2.23003
  H        -1.04239         -0.00000        -0.32712
  H         0.50056          0.88398        -0.40006
  H         0.50056         -0.88398        -0.40006
6
 step=         510     theta[rad]=           5.3407
  C        -0.00717          0.00000        -0.01197
  C         0.11553          0.00000         1.49437
  O         0.99472         -0.00000         2.19868
  H        -1.03875          0.00000        -0.35482
  H         0.50019          0.88704        -0.39418
  H         0.50020         -0.88704        -0.39418
6
 step=         511     theta[rad]=           5.3512
  C        -0.00950          0.00000        -0.01487
  C         0.14982          0.00000         1.52252
  O         0.97062         -0.00000         2.18031
  H        -1.03662          0.00000        -0.37105
  H         0.49998          0.88884        -0.39073
  H         0.49998         -0.88884        -0.39073
6
 step=         512     theta[rad]=           5.3617
  C        -0.00838          0.00000        -0.01347
  C         0.13325          0.00000         1.50892
  O         0.98226         -0.00000         2.18918
  H        -1.03765          0.00000        -0.36321
  H         0.50009          0.88797        -0.39240
  H         0.50009         -0.88797        -0.39240
6
 step=         513     theta[rad]=           5.3721
  C        -0.00477          0.00000        -0.00899
  C         0.08021          0.00000         1.46537
  O         1.01955         -0.00000         2.21761
  H        -1.04095         -0.00000        -0.33810
  H         0.50041          0.88520        -0.39773
  H         0.50041         -0.88520        -0.39773
6
 step=         514     theta[rad]=           5.3826
  C        -0.00152         -0.00000        -0.00494
  C         0.03223          0.00000         1.42597
  O         1.05327         -0.00000         2.24332
  H        -1.04393         -0.00000        -0.31538
  H         0.50071          0.88269        -0.40255
  H         0.50071         -0.88269        -0.40255
6
 step=         515     theta[rad]=           5.3931
  C        -0.00102         -0.00000        -0.00432
  C         0.02498          0.00000         1.42002
  O         1.05836         -0.00000         2.24720
  H        -1.04438         -0.00000        -0.31195
  H         0.50075          0.88231        -0.40328
  H         0.50075         -0.88231        -0.40328
6
 step=         516     theta[rad]=           5.4035
  C        -0.00357          0.00000        -0.00750
  C         0.06255          0.00000         1.45087
  O         1.03196         -0.00000         2.22707
  H        -1.04204         -0.00000        -0.32974
  H         0.50052          0.88427        -0.39950
  H         0.50052         -0.88427        -0.39950
6
 step=         517     theta[rad]=           5.4140
  C        -0.00725          0.00000        -0.01207
  C         0.11673          0.00000         1.49535
  O         0.99388         -0.00000         2.19804
  H        -1.03868          0.00000        -0.35539
  H         0.50019          0.88711        -0.39406
  H         0.50019         -0.88711        -0.39406
6
 step=         518     theta[rad]=           5.4245
  C        -0.00946          0.00000        -0.01481
  C         0.14917          0.00000         1.52199
  O         0.97108         -0.00000         2.18066
  H        -1.03666          0.00000        -0.37075
  H         0.49999          0.88880        -0.39080
  H         0.49999         -0.88880        -0.39080
6
 step=         519     theta[rad]=           5.4350
  C        -0.00873          0.00000        -0.01390
  C         0.13841          0.00000         1.51316
  O         0.97864         -0.00000         2.18642
  H        -1.03733          0.00000        -0.36565
  H         0.50005          0.88824        -0.39188
  H         0.50005         -0.88824        -0.39188
6
 step=         520     theta[rad]=           5.4454
  C        -0.00564          0.00000        -0.01007
  C         0.09301          0.00000         1.47588
  O         1.01055         -0.00000         2.21075
  H        -1.04015         -0.00000        -0.34416
  H         0.50033          0.88587        -0.39644
  H         0.50033         -0.88587        -0.39644
6
 step=         521     theta[rad]=           5.4559
  C        -0.00229         -0.00000        -0.00590
  C         0.04366          0.00000         1.43536
  O         1.04524         -0.00000         2.23719
  H        -1.04322         -0.00000        -0.32079
  H         0.50064          0.88328        -0.40140
  H         0.50064         -0.88328        -0.40140
6
 step=         522     theta[rad]=           5.4664
  C        -0.00081         -0.00000        -0.00406
  C         0.02186          0.00000         1.41746
  O         1.06056         -0.00000         2.24887
  H        -1.04457         -0.00000        -0.31047
  H         0.50077          0.88215        -0.40359
  H         0.50077         -0.88214        -0.40359
6
 step=         523     theta[rad]=           5.4768
  C        -0.00206         -0.00000        -0.00561
  C         0.04023          0.00000         1.43254
  O         1.04765         -0.00000         2.23903
  H        -1.04343         -0.00000        -0.31917
  H         0.50066          0.88311        -0.40175
  H         0.50066         -0.88311        -0.40175
6
 step=         524     theta[rad]=           5.4873
  C        -0.00519          0.00000        -0.00950
  C         0.08627          0.00000         1.47035
  O         1.01528         -0.00000         2.21436
  H        -1.04057         -0.00000        -0.34097
  H         0.50038          0.88551        -0.39712
  H         0.50038         -0.88551        -0.39712
6
 step=         525     theta[rad]=           5.4978
  C        -0.00828          0.00000        -0.01335
  C         0.13184          0.00000         1.50776
  O         0.98325         -0.00000         2.18994
  H        -1.03774          0.00000        -0.36254
  H         0.50009          0.88790        -0.39254
  H         0.50009         -0.88790        -0.39254
6
 step=         526     theta[rad]=           5.5083
  C        -0.00956          0.00000        -0.01494
  C         0.15071          0.00000         1.52326
  O         0.96999         -0.00000         2.17983
  H        -1.03657          0.00000        -0.37148
  H         0.49998          0.88888        -0.39064
  H         0.49998         -0.88888        -0.39064
6
 step=         527     theta[rad]=           5.5187
  C        -0.00838          0.00000        -0.01347
  C         0.13325          0.00000         1.50892
  O         0.98226         -0.00000         2.18918
  H        -1.03765          0.00000        -0.36321
  H         0.50009          0.88797        -0.39240
  H         0.50009         -0.88797        -0.39240
6
 step=         528     theta[rad]=           5.5292
  C        -0.00546          0.00000        -0.00984
  C         0.09032          0.00000         1.47367
  O         1.01244         -0.00000         2.21219
  H        -1.04032         -0.00000        -0.34288
  H         0.50035          0.88573        -0.39671
  H         0.50035         -0.88573        -0.39671
6
 step=         529     theta[rad]=           5.5397
  C        -0.00243         -0.00000        -0.00607
  C         0.04572          0.00000         1.43705
  O         1.04379         -0.00000         2.23609
  H        -1.04309         -0.00000        -0.32177
  H         0.50063          0.88339        -0.40120
  H         0.50062         -0.88339        -0.40120
6
 step=         530     theta[rad]=           5.5501
  C        -0.00086         -0.00000        -0.00412
  C         0.02262          0.00000         1.41809
  O         1.06002         -0.00000         2.24846
  H        -1.04453         -0.00000        -0.31083
  H         0.50077          0.88218        -0.40352
  H         0.50077         -0.88218        -0.40352
6
 step=         531     theta[rad]=           5.5606
  C        -0.00149         -0.00000        -0.00490
  C         0.03186          0.00000         1.42567
  O         1.05353         -0.00000         2.24351
  H        -1.04395         -0.00000        -0.31521
  H         0.50071          0.88267        -0.40259
  H         0.50071         -0.88267        -0.40259
6
 step=         532     theta[rad]=           5.5711
  C        -0.00392          0.00000        -0.00793
  C         0.06765          0.00000         1.45505
  O         1.02838         -0.00000         2.22434
  H        -1.04173         -0.00000        -0.33215
  H         0.50049          0.88454        -0.39899
  H         0.50049         -0.88454        -0.39899
6
 step=         533     theta[rad]=           5.5816
  C        -0.00692          0.00000        -0.01166
  C         0.11187          0.00000         1.49136
  O         0.99729         -0.00000         2.20064
  H        -1.03898          0.00000        -0.35309
  H         0.50022          0.88685        -0.39455
  H         0.50022         -0.88685        -0.39455
6
 step=         534     theta[rad]=           5.5920
  C        -0.00908          0.00000        -0.01435
  C         0.14369          0.00000         1.51750
  O         0.97492         -0.00000         2.18359
  H        -1.03700          0.00000        -0.36816
  H         0.50002          0.88852        -0.39135
  H         0.50002         -0.88852        -0.39135
6
 step=         535     theta[rad]=           5.6025
  C        -0.00947          0.00000        -0.01482
  C         0.14931          0.00000         1.52211
  O         0.97097         -0.00000         2.18058
  H        -1.03665          0.00000        -0.37081
  H         0.49999          0.88881        -0.39078
  H         0.49999         -0.88881        -0.39078
6
 step=         536     theta[rad]=           5.6130
  C        -0.00798          0.00000        -0.01297
  C         0.12735          0.00000         1.50408
  O         0.98641         -0.00000         2.19234
  H        -1.03802          0.00000        -0.36042
  H         0.50012          0.88766        -0.39299
  H         0.50012         -0.88766        -0.39299
6
 step=         537     theta[rad]=           5.6235
  C        -0.00532          0.00000        -0.00967
  C         0.08830          0.00000         1.47201
  O         1.01386         -0.00000         2.21327
  H        -1.04044         -0.00000        -0.34193
  H         0.50036          0.88562        -0.39692
  H         0.50036         -0.88562        -0.39692
6
 step=         538     theta[rad]=           5.6339
  C        -0.00265         -0.00000        -0.00635
  C         0.04894          0.00000         1.43970
  O         1.04152         -0.00000         2.23436
  H        -1.04289         -0.00000        -0.32329
  H         0.50061          0.88356        -0.40087
  H         0.50060         -0.88356        -0.40087
6
 step=         539     theta[rad]=           5.6444
  C        -0.00102         -0.00000        -0.00432
  C         0.02498          0.00000         1.42002
  O         1.05836         -0.00000         2.24720
  H        -1.04438         -0.00000        -0.31195
  H         0.50075          0.88231        -0.40328
  H         0.50075         -0.88231        -0.40328
6
 step=         540     theta[rad]=           5.6549
  C        -0.00102         -0.00000        -0.00432
  C         0.02498          0.00000         1.42002
  O         1.05836         -0.00000         2.24720
  H        -1.04438         -0.00000        -0.31195
  H         0.50075          0.88231        -0.40328
  H         0.50075         -0.88231        -0.40328
6
 step=         541     theta[rad]=           5.6653
  C        -0.00258         -0.00000        -0.00626
  C         0.04785          0.00000         1.43880
  O         1.04229         -0.00000         2.23495
  H        -1.04296         -0.00000        -0.32278
  H         0.50061          0.88350        -0.40098
  H         0.50061         -0.88350        -0.40098
6
 step=         542     theta[rad]=           5.6758
  C        -0.00505          0.00000        -0.00933
  C         0.08425          0.00000         1.46869
  O         1.01671         -0.00000         2.21544
  H        -1.04070         -0.00000        -0.34001
  H         0.50039          0.88541        -0.39732
  H         0.50039         -0.88541        -0.39732
6
 step=         543     theta[rad]=           5.6863
  C        -0.00753          0.00000        -0.01242
  C         0.12080          0.00000         1.49870
  O         0.99101         -0.00000         2.19585
  H        -1.03842          0.00000        -0.35732
  H         0.50016          0.88732        -0.39365
  H         0.50016         -0.88732        -0.39365
6
 step=         544     theta[rad]=           5.6968
  C        -0.00918          0.00000        -0.01447
  C         0.14515          0.00000         1.51869
  O         0.97390         -0.00000         2.18281
  H        -1.03691          0.00000        -0.36884
  H         0.50001          0.88859        -0.39120
  H         0.50001         -0.88859        -0.39120
6
 step=         545     theta[rad]=           5.7072
  C        -0.00951          0.00000        -0.01488
  C         0.14992          0.00000         1.52261
  O         0.97054         -0.00000         2.18025
  H        -1.03661          0.00000        -0.37111
  H         0.49998          0.88884        -0.39072
  H         0.49998         -0.88884        -0.39072
6
 step=         546     theta[rad]=           5.7177
  C        -0.00847          0.00000        -0.01358
  C         0.13461          0.00000         1.51004
  O         0.98130         -0.00000         2.18845
  H        -1.03757          0.00000        -0.36386
  H         0.50008          0.88804        -0.39226
  H         0.50008         -0.88804        -0.39226
6
 step=         547     theta[rad]=           5.7282
  C        -0.00645          0.00000        -0.01107
  C         0.10490          0.00000         1.48564
  O         1.00219         -0.00000         2.20438
  H        -1.03941          0.00000        -0.34979
  H         0.50026          0.88649        -0.39525
  H         0.50026         -0.88649        -0.39525
6
 step=         548     theta[rad]=           5.7386
  C        -0.00410          0.00000        -0.00815
  C         0.07025          0.00000         1.45719
  O         1.02655         -0.00000         2.22294
  H        -1.04157         -0.00000        -0.33338
  H         0.50047          0.88468        -0.39873
  H         0.50047         -0.88468        -0.39873
6
 step=         549     theta[rad]=           5.7491
  C        -0.00209         -0.00000        -0.00565
  C         0.04070          0.00000         1.43293
  O         1.04731         -0.00000         2.23878
  H        -1.04340         -0.00000        -0.31939
  H         0.50066          0.88313        -0.40170
  H         0.50066         -0.88313        -0.40170
6
 step=         550     theta[rad]=           5.7596
  C        -0.00096         -0.00000        -0.00424
  C         0.02403          0.00000         1.41924
  O         1.05904         -0.00000         2.24771
  H        -1.04444         -0.00000        -0.31149
  H         0.50076          0.88226        -0.40338
  H         0.50076         -0.88226        -0.40338
6
 step=         551     theta[rad]=           5.7701
  C        -0.00095         -0.00000        -0.00423
  C         0.02385          0.00000         1.41910
  O         1.05916         -0.00000         2.24780
  H        -1.04445         -0.00000        -0.31141
  H         0.50076          0.88225        -0.40339
  H         0.50076         -0.88225        -0.40339
6
 step=         552     theta[rad]=           5.7805
  C        -0.00200         -0.00000        -0.00553
  C         0.03930          0.00000         1.43178
  O         1.04830         -0.00000         2.23953
  H        -1.04349         -0.00000        -0.31873
  H         0.50066          0.88306        -0.40184
  H         0.50066         -0.88306        -0.40184
6
 step=         553     theta[rad]=           5.7910
  C        -0.00379          0.00000        -0.00776
  C         0.06572          0.00000         1.45347
  O         1.02973         -0.00000         2.22537
  H        -1.04185         -0.00000        -0.33124
  H         0.50050          0.88444        -0.39919
  H         0.50050         -0.88444        -0.39919
6
 step=         554     theta[rad]=           5.8015
  C        -0.00587          0.00000        -0.01035
  C         0.09636          0.00000         1.47863
  O         1.00820         -0.00000         2.20895
  H        -1.03994         -0.00000        -0.34574
  H         0.50031          0.88604        -0.39611
  H         0.50031         -0.88604        -0.39611
6
 step=         555     theta[rad]=           5.8119
  C        -0.00776          0.00000        -0.01270
  C         0.12415          0.00000         1.50145
  O         0.98866         -0.00000         2.19406
  H        -1.03822          0.00000        -0.35890
  H         0.50014          0.88749        -0.39331
  H         0.50014         -0.88750        -0.39331
6
 step=         556     theta[rad]=           5.8224
  C        -0.00906          0.00000        -0.01432
  C         0.14338          0.00000         1.51724
  O         0.97514         -0.00000         2.18375
  H        -1.03702          0.00000        -0.36801
  H         0.50002          0.88850        -0.39138
  H         0.50002         -0.88850        -0.39138
6
 step=         557     theta[rad]=           5.8329
  C        -0.00956          0.00000        -0.01494
  C         0.15069          0.00000         1.52324
  O         0.97001         -0.00000         2.17984
  H        -1.03657          0.00000        -0.37147
  H         0.49998          0.88888        -0.39064
  H         0.49998         -0.88888        -0.39064
6
 step=         558     theta[rad]=           5.8434
  C        -0.00920          0.00000        -0.01449
  C         0.14542          0.00000         1.51891
  O         0.97371         -0.00000         2.18266
  H        -1.03689          0.00000        -0.36897
  H         0.50001          0.88861        -0.39117
  H         0.50001         -0.88861        -0.39117
6
 step=         559     theta[rad]=           5.8538
  C        -0.00811          0.00000        -0.01314
  C         0.12940          0.00000         1.50576
  O         0.98497         -0.00000         2.19125
  H        -1.03789          0.00000        -0.36139
  H         0.50011          0.88777        -0.39278
  H         0.50011         -0.88777        -0.39278
6
 step=         560     theta[rad]=           5.8643
  C        -0.00654          0.00000        -0.01118
  C         0.10619          0.00000         1.48670
  O         1.00128         -0.00000         2.20369
  H        -1.03933          0.00000        -0.35040
  H         0.50025          0.88656        -0.39512
  H         0.50025         -0.88656        -0.39512
6
 step=         561     theta[rad]=           5.8748
  C        -0.00477          0.00000        -0.00899
  C         0.08021          0.00000         1.46537
  O         1.01955         -0.00000         2.21761
  H        -1.04095         -0.00000        -0.33810
  H         0.50041          0.88520        -0.39773
  H         0.50041         -0.88520        -0.39773
6
 step=         562     theta[rad]=           5.8853
  C        -0.00312          0.00000        -0.00693
  C         0.05582          0.00000         1.44534
  O         1.03669         -0.00000         2.23068
  H        -1.04246         -0.00000        -0.32655
  H         0.50056          0.88392        -0.40018
  H         0.50056         -0.88392        -0.40018
6
 step=         563     theta[rad]=           5.8957
  C        -0.00181         -0.00000        -0.00531
  C         0.03662          0.00000         1.42958
  O         1.05018         -0.00000         2.24096
  H        -1.04366         -0.00000        -0.31746
  H         0.50068          0.88292        -0.40211
  H         0.50068         -0.88292        -0.40211
6
 step=         564     theta[rad]=           5.9062
  C        -0.00102         -0.00000        -0.00432
  C         0.02498          0.00000         1.42002
  O         1.05836         -0.00000         2.24720
  H        -1.04438         -0.00000        -0.31195
  H         0.50075          0.88231        -0.40328
  H         0.50075         -0.88231        -0.40328
6
 step=         565     theta[rad]=           5.9167
  C        -0.00082         -0.00000        -0.00407
  C         0.02192          0.00000         1.41751
  O         1.06052         -0.00000         2.24884
  H        -1.04457         -0.00000        -0.31050
  H         0.50077          0.88215        -0.40359
  H         0.50077         -0.88215        -0.40359
6
 step=         566     theta[rad]=           5.9271
  C        -0.00117         -0.00000        -0.00451
  C         0.02713          0.00000         1.42179
  O         1.05685         -0.00000         2.24605
  H        -1.04425         -0.00000        -0.31296
  H         0.50074          0.88242        -0.40306
  H         0.50074         -0.88242        -0.40306
6
 step=         567     theta[rad]=           5.9376
  C        -0.00200         -0.00000        -0.00553
  C         0.03930          0.00000         1.43178
  O         1.04830         -0.00000         2.23953
  H        -1.04349         -0.00000        -0.31873
  H         0.50066          0.88306        -0.40184
  H         0.50066         -0.88306        -0.40184
6
 step=         568     theta[rad]=           5.9481
  C        -0.00316          0.00000        -0.00698
  C         0.05642          0.00000         1.44583
  O         1.03627         -0.00000         2.23036
  H        -1.04243         -0.00000        -0.32683
  H         0.50056          0.88395        -0.40012
  H         0.50056         -0.88395        -0.40012
6
 step=         569     theta[rad]=           5.9586
  C        -0.00450          0.00000        -0.00865
  C         0.07619          0.00000         1.46207
  O         1.02237         -0.00000         2.21976
  H        -1.04120         -0.00000        -0.33619
  H         0.50044          0.88499        -0.39813
  H         0.50044         -0.88499        -0.39813
6
 step=         570     theta[rad]=           5.9690
  C        -0.00587          0.00000        -0.01035
  C         0.09636          0.00000         1.47863
  O         1.00820         -0.00000         2.20895
  H        -1.03994         -0.00000        -0.34574
  H         0.50031          0.88604        -0.39611
  H         0.50031         -0.88604        -0.39611
6
 step=         571     theta[rad]=           5.9795
  C        -0.00713          0.00000        -0.01192
  C         0.11493          0.00000         1.49388
  O         0.99514         -0.00000         2.19900
  H        -1.03879          0.00000        -0.35454
  H         0.50020          0.88701        -0.39424
  H         0.50020         -0.88701        -0.39424
6
 step=         572     theta[rad]=           5.9900
  C        -0.00818          0.00000        -0.01323
  C         0.13039          0.00000         1.50657
  O         0.98427         -0.00000         2.19072
  H        -1.03783          0.00000        -0.36186
  H         0.50010          0.88782        -0.39268
  H         0.50010         -0.88782        -0.39268
6
 step=         573     theta[rad]=           6.0004
  C        -0.00895          0.00000        -0.01418
  C         0.14174          0.00000         1.51589
  O         0.97629         -0.00000         2.18463
  H        -1.03712          0.00000        -0.36723
  H         0.50003          0.88841        -0.39154
  H         0.50003         -0.88842        -0.39154
6
 step=         574     theta[rad]=           6.0109
  C        -0.00941          0.00000        -0.01476
  C         0.14852          0.00000         1.52146
  O         0.97153         -0.00000         2.18100
  H        -1.03670          0.00000        -0.37044
  H         0.49999          0.88877        -0.39086
  H         0.49999         -0.88877        -0.39086
6
 step=         575     theta[rad]=           6.0214
  C        -0.00956          0.00000        -0.01494
  C         0.15072          0.00000         1.52326
  O         0.96999         -0.00000         2.17982
  H        -1.03657          0.00000        -0.37148
  H         0.49998          0.88888        -0.39064
  H         0.49998         -0.88888        -0.39064
6
 step=         576     theta[rad]=           6.0319
  C        -0.00942          0.00000        -0.01477
  C         0.14869          0.00000         1.52160
  O         0.97141         -0.00000         2.18091
  H        -1.03669          0.00000        -0.37052
  H         0.49999          0.88878        -0.39084
  H         0.49999         -0.88878        -0.39084
6
 step=         577     theta[rad]=           6.0423
  C        -0.00904          0.00000        -0.01430
  C         0.14307          0.00000         1.51698
  O         0.97536         -0.00000         2.18392
  H        -1.03704          0.00000        -0.36786
  H         0.50003          0.88848        -0.39141
  H         0.50003         -0.88848        -0.39141
6
 step=         578     theta[rad]=           6.0528
  C        -0.00847          0.00000        -0.01358
  C         0.13461          0.00000         1.51004
  O         0.98130         -0.00000         2.18845
  H        -1.03757          0.00000        -0.36386
  H         0.50008          0.88804        -0.39226
  H         0.50008         -0.88804        -0.39226
6
 step=         579     theta[rad]=           6.0633
  C        -0.00776          0.00000        -0.01270
  C         0.12415          0.00000         1.50145
  O         0.98866         -0.00000         2.19406
  H        -1.03822          0.00000        -0.35890
  H         0.50014          0.88749        -0.39331
  H         0.50014         -0.88750        -0.39331
6
 step=         580     theta[rad]=           6.0737
  C        -0.00697          0.00000        -0.01171
  C         0.11249          0.00000         1.49187
  O         0.99686         -0.00000         2.20031
  H        -1.03894          0.00000        -0.35338
  H         0.50021          0.88688        -0.39448
  H         0.50021         -0.88688        -0.39448
6
 step=         581     theta[rad]=           6.0842
  C        -0.00614          0.00000        -0.01069
  C         0.10033          0.00000         1.48189
  O         1.00540         -0.00000         2.20682
  H        -1.03970          0.00000        -0.34762
  H         0.50029          0.88625        -0.39571
  H         0.50029         -0.88625        -0.39571
6
 step=         582     theta[rad]=           6.0947
  C        -0.00532          0.00000        -0.00967
  C         0.08830          0.00000         1.47201
  O         1.01386         -0.00000         2.21327
  H        -1.04044         -0.00000        -0.34193
  H         0.50036          0.88562        -0.39692
  H         0.50036         -0.88562        -0.39692
6
 step=         583     theta[rad]=           6.1052
  C        -0.00455          0.00000        -0.00870
  C         0.07686          0.00000         1.46262
  O         1.02190         -0.00000         2.21940
  H        -1.04116         -0.00000        -0.33651
  H         0.50043          0.88502        -0.39807
  H         0.50043         -0.88502        -0.39807
6
 step=         584     theta[rad]=           6.1156
  C        -0.00383          0.00000        -0.00782
  C         0.06636          0.00000         1.45400
  O         1.02928         -0.00000         2.22503
  H        -1.04181         -0.00000        -0.33154
  H         0.50050          0.88447        -0.39912
  H         0.50050         -0.88447        -0.39912
6
 step=         585     theta[rad]=           6.1261
  C        -0.00320          0.00000        -0.00703
  C         0.05702          0.00000         1.44633
  O         1.03585         -0.00000         2.23003
  H        -1.04239         -0.00000        -0.32712
  H         0.50056          0.88398        -0.40006
  H         0.50056         -0.88398        -0.40006
6
 step=         586     theta[rad]=           6.1366
  C        -0.00265         -0.00000        -0.00635
  C         0.04894          0.00000         1.43970
  O         1.04152         -0.00000         2.23436
  H        -1.04289         -0.00000        -0.32329
  H         0.50061          0.88356        -0.40087
  H         0.50060         -0.88356        -0.40087
6
 step=         587     theta[rad]=           6.1470
  C        -0.00219         -0.00000        -0.00577
  C         0.04216          0.00000         1.43413
  O         1.04629         -0.00000         2.23800
  H        -1.04331         -0.00000        -0.32008
  H         0.50065          0.88321        -0.40155
  H         0.50065         -0.88321        -0.40155
6
 step=         588     theta[rad]=           6.1575
  C        -0.00181         -0.00000        -0.00531
  C         0.03662          0.00000         1.42958
  O         1.05018         -0.00000         2.24096
  H        -1.04366         -0.00000        -0.31746
  H         0.50068          0.88292        -0.40211
  H         0.50068         -0.88292        -0.40211
6
 step=         589     theta[rad]=           6.1680
  C        -0.00152         -0.00000        -0.00494
  C         0.03223          0.00000         1.42597
  O         1.05327         -0.00000         2.24332
  H        -1.04393         -0.00000        -0.31538
  H         0.50071          0.88269        -0.40255
  H         0.50071         -0.88269        -0.40255
6
 step=         590     theta[rad]=           6.1785
  C        -0.00129         -0.00000        -0.00465
  C         0.02885          0.00000         1.42320
  O         1.05564         -0.00000         2.24513
  H        -1.04414         -0.00000        -0.31378
  H         0.50073          0.88251        -0.40289
  H         0.50073         -0.88251        -0.40289
6
 step=         591     theta[rad]=           6.1889
  C        -0.00112         -0.00000        -0.00444
  C         0.02635          0.00000         1.42115
  O         1.05740         -0.00000         2.24646
  H        -1.04429         -0.00000        -0.31260
  H         0.50074          0.88238        -0.40314
  H         0.50074         -0.88238        -0.40314
6
 step=         592     theta[rad]=           6.1994
  C        -0.00100         -0.00000        -0.00429
  C         0.02458          0.00000         1.41969
  O         1.05865         -0.00000         2.24742
  H        -1.04440         -0.00000        -0.31176
  H         0.50076          0.88229        -0.40332
  H         0.50075         -0.88229        -0.40332
6
 step=         593     theta[rad]=           6.2099
  C        -0.00091         -0.00000        -0.00419
  C         0.02338          0.00000         1.41871
  O         1.05949         -0.00000         2.24806
  H        -1.04448         -0.00000        -0.31119
  H         0.50076          0.88222        -0.40344
  H         0.50076         -0.88222        -0.40344
6
 step=         594     theta[rad]=           6.2204
  C        -0.00086         -0.00000        -0.00412
  C         0.02262          0.00000         1.41809
  O         1.06002         -0.00000         2.24846
  H        -1.04453         -0.00000        -0.31083
  H         0.50077          0.88218        -0.40352
  H         0.50077         -0.88218        -0.40352
6
 step=         595     theta[rad]=           6.2308
  C        -0.00083         -0.00000        -0.00409
  C         0.02218          0.00000         1.41772
  O         1.06033         -0.00000         2.24870
  H        -1.04455         -0.00000        -0.31062
  H         0.50077          0.88216        -0.40356
  H         0.50077         -0.88216        -0.40356
6
 step=         596     theta[rad]=           6.2413
  C        -0.00082         -0.00000        -0.00407
  C         0.02196          0.00000         1.41754
  O         1.06049         -0.00000         2.24882
  H        -1.04457         -0.00000        -0.31052
  H         0.50077          0.88215        -0.40358
  H         0.50077         -0.88215        -0.40358
6
 step=         597     theta[rad]=           6.2518
  C        -0.00081         -0.00000        -0.00406
  C         0.02186          0.00000         1.41746
  O         1.06056         -0.00000         2.24887
  H        -1.04457         -0.00000        -0.31047
  H         0.50077          0.88215        -0.40359
  H         0.50077         -0.88214        -0.40359
6
 step=         598     theta[rad]=           6.2622
  C        -0.00081         -0.00000        -0.00406
  C         0.02183          0.00000         1.41744
  O         1.06058         -0.00000         2.24889
  H        -1.04457         -0.00000        -0.31046
  H         0.50077          0.88214        -0.40360
  H         0.50077         -0.88214        -0.40360
6
 step=         599     theta[rad]=           6.2727
  C        -0.00081         -0.00000        -0.00406
  C         0.02183          0.00000         1.41743
  O         1.06058         -0.00000         2.24889
  H        -1.04457         -0.00000        -0.31045
  H         0.50077          0.88214        -0.40360
  H         0.50077         -0.88214        -0.40360
6
 step=         600     theta[rad]=           6.2832
  C        -0.00081         -0.00000        -0.00406
  C         0.02183          0.00000         1.41743
  O         1.06058         -0.00000         2.24889
  H        -1.04457         -0.00000        -0.31045
  H         0.50077          0.88214        -0.40360
  H         0.50077         -0.88214        -0.40360
