6
 step=           0     theta[rad]=           0.0000
  C        -0.00518          0.02131        -0.00949
  C         0.08627          0.00546         1.47035
  O         1.01528         -0.00070         2.21436
  H        -1.04056         -0.26533        -0.34100
  H         0.64029          0.86428        -0.29779
  H         0.36041         -0.90677        -0.49647
6
 step=           1     theta[rad]=           0.0105
  C        -0.00518          0.02131        -0.00949
  C         0.08627          0.00546         1.47035
  O         1.01528         -0.00070         2.21436
  H        -1.04056         -0.26532        -0.34100
  H         0.64029          0.86428        -0.29779
  H         0.36042         -0.90677        -0.49646
6
 step=           2     theta[rad]=           0.0209
  C        -0.00518          0.02130        -0.00949
  C         0.08627          0.00546         1.47035
  O         1.01528         -0.00070         2.21436
  H        -1.04056         -0.26520        -0.34100
  H         0.64022          0.86429        -0.29784
  H         0.36048         -0.90676        -0.49642
6
 step=           3     theta[rad]=           0.0314
  C        -0.00518          0.02127        -0.00949
  C         0.08627          0.00545         1.47035
  O         1.01528         -0.00070         2.21436
  H        -1.04056         -0.26481        -0.34100
  H         0.64002          0.86432        -0.29798
  H         0.36069         -0.90673        -0.49627
6
 step=           4     theta[rad]=           0.0419
  C        -0.00518          0.02119        -0.00949
  C         0.08627          0.00543         1.47035
  O         1.01528         -0.00070         2.21436
  H        -1.04056         -0.26388        -0.34100
  H         0.63953          0.86439        -0.29833
  H         0.36118         -0.90665        -0.49592
6
 step=           5     theta[rad]=           0.0524
  C        -0.00518          0.02105        -0.00949
  C         0.08627          0.00539         1.47035
  O         1.01528         -0.00069         2.21436
  H        -1.04056         -0.26206        -0.34100
  H         0.63857          0.86454        -0.29901
  H         0.36213         -0.90651        -0.49525
6
 step=           6     theta[rad]=           0.0628
  C        -0.00518          0.02080        -0.00949
  C         0.08627          0.00533         1.47035
  O         1.01528         -0.00068         2.21436
  H        -1.04056         -0.25894        -0.34100
  H         0.63692          0.86479        -0.30018
  H         0.36378         -0.90626        -0.49408
6
 step=           7     theta[rad]=           0.0733
  C        -0.00518          0.02040        -0.00949
  C         0.08627          0.00522         1.47035
  O         1.01528         -0.00067         2.21436
  H        -1.04056         -0.25401        -0.34100
  H         0.63432          0.86518        -0.30203
  H         0.36638         -0.90586        -0.49223
6
 step=           8     theta[rad]=           0.0838
  C        -0.00518          0.01981        -0.00950
  C         0.08627          0.00507         1.47035
  O         1.01528         -0.00065         2.21436
  H        -1.04056         -0.24670        -0.34100
  H         0.63047          0.86577        -0.30476
  H         0.37024         -0.90528        -0.48949
6
 step=           9     theta[rad]=           0.0942
  C        -0.00518          0.01899        -0.00950
  C         0.08627          0.00486         1.47035
  O         1.01528         -0.00062         2.21436
  H        -1.04056         -0.23641        -0.34100
  H         0.62504          0.86659        -0.30861
  H         0.37567         -0.90445        -0.48564
6
 step=          10     theta[rad]=           0.1047
  C        -0.00518          0.01787        -0.00950
  C         0.08627          0.00458         1.47035
  O         1.01528         -0.00059         2.21436
  H        -1.04056         -0.22253        -0.34100
  H         0.61772          0.86770        -0.31381
  H         0.38299         -0.90334        -0.48044
6
 step=          11     theta[rad]=           0.1152
  C        -0.00518          0.01642        -0.00950
  C         0.08627          0.00421         1.47035
  O         1.01528         -0.00054         2.21436
  H        -1.04056         -0.20444        -0.34100
  H         0.60818          0.86915        -0.32058
  H         0.39253         -0.90189        -0.47367
6
 step=          12     theta[rad]=           0.1257
  C        -0.00518          0.01459        -0.00950
  C         0.08627          0.00374         1.47035
  O         1.01528         -0.00048         2.21436
  H        -1.04056         -0.18163        -0.34099
  H         0.59616          0.87098        -0.32912
  H         0.40456         -0.90006        -0.46513
6
 step=          13     theta[rad]=           0.1361
  C        -0.00518          0.01234        -0.00950
  C         0.08627          0.00316         1.47035
  O         1.01528         -0.00041         2.21436
  H        -1.04056         -0.15370        -0.34099
  H         0.58143          0.87321        -0.33958
  H         0.41930         -0.89783        -0.45467
6
 step=          14     theta[rad]=           0.1466
  C        -0.00518          0.00967        -0.00950
  C         0.08627          0.00248         1.47035
  O         1.01528         -0.00032         2.21436
  H        -1.04056         -0.12046        -0.34098
  H         0.56390          0.87587        -0.35202
  H         0.43683         -0.89516        -0.44222
6
 step=          15     theta[rad]=           0.1571
  C        -0.00519          0.00658        -0.00950
  C         0.08627          0.00169         1.47035
  O         1.01528         -0.00022         2.21436
  H        -1.04057         -0.08199        -0.34098
  H         0.54361          0.87895        -0.36642
  H         0.45712         -0.89208        -0.42782
6
 step=          16     theta[rad]=           0.1676
  C        -0.00519          0.00311        -0.00950
  C         0.08627          0.00080         1.47035
  O         1.01528         -0.00010         2.21436
  H        -1.04057         -0.03876        -0.34097
  H         0.52081          0.88241        -0.38261
  H         0.47993         -0.88862        -0.41163
6
 step=          17     theta[rad]=           0.1780
  C        -0.00519         -0.00067        -0.00950
  C         0.08627         -0.00017         1.47035
  O         1.01528          0.00002         2.21436
  H        -1.04057          0.00833        -0.34097
  H         0.49598          0.88618        -0.40024
  H         0.50477         -0.88485        -0.39400
6
 step=          18     theta[rad]=           0.1885
  C        -0.00519         -0.00465        -0.00950
  C         0.08627         -0.00119         1.47035
  O         1.01528          0.00015         2.21436
  H        -1.04057          0.05788        -0.34096
  H         0.46985          0.89015        -0.41879
  H         0.53091         -0.88088        -0.37545
6
 step=          19     theta[rad]=           0.1990
  C        -0.00519         -0.00867        -0.00950
  C         0.08627         -0.00222         1.47035
  O         1.01528          0.00028         2.21436
  H        -1.04058          0.10792        -0.34095
  H         0.44347          0.89415        -0.43752
  H         0.55730         -0.87687        -0.35671
6
 step=          20     theta[rad]=           0.2094
  C        -0.00519         -0.01253        -0.00950
  C         0.08627         -0.00321         1.47035
  O         1.01528          0.00041         2.21436
  H        -1.04058          0.15596        -0.34095
  H         0.41813          0.89800        -0.45550
  H         0.58264         -0.87302        -0.33872
6
 step=          21     theta[rad]=           0.2199
  C        -0.00519         -0.01598        -0.00950
  C         0.08627         -0.00409         1.47035
  O         1.01528          0.00053         2.21436
  H        -1.04058          0.19903        -0.34094
  H         0.39542          0.90144        -0.47163
  H         0.60536         -0.86957        -0.32260
6
 step=          22     theta[rad]=           0.2304
  C        -0.00519         -0.01878        -0.00950
  C         0.08627         -0.00481         1.47035
  O         1.01528          0.00062         2.21436
  H        -1.04058          0.23384        -0.34094
  H         0.37707          0.90423        -0.48466
  H         0.62373         -0.86678        -0.30956
6
 step=          23     theta[rad]=           0.2409
  C        -0.00519         -0.02064        -0.00951
  C         0.08627         -0.00529         1.47035
  O         1.01528          0.00068         2.21436
  H        -1.04058          0.25699        -0.34093
  H         0.36485          0.90608        -0.49333
  H         0.63594         -0.86493        -0.30089
6
 step=          24     theta[rad]=           0.2513
  C        -0.00519         -0.02131        -0.00951
  C         0.08627         -0.00546         1.47035
  O         1.01528          0.00070         2.21436
  H        -1.04058          0.26533        -0.34093
  H         0.36046          0.90675        -0.49645
  H         0.64034         -0.86426        -0.29777
6
 step=          25     theta[rad]=           0.2618
  C        -0.00519         -0.02058        -0.00951
  C         0.08627         -0.00527         1.47035
  O         1.01528          0.00068         2.21436
  H        -1.04058          0.25629        -0.34093
  H         0.36523          0.90603        -0.49307
  H         0.63557         -0.86498        -0.30115
6
 step=          26     theta[rad]=           0.2723
  C        -0.00519         -0.01834        -0.00950
  C         0.08627         -0.00470         1.47035
  O         1.01528          0.00060         2.21436
  H        -1.04058          0.22838        -0.34094
  H         0.37994          0.90379        -0.48262
  H         0.62085         -0.86722        -0.31160
6
 step=          27     theta[rad]=           0.2827
  C        -0.00519         -0.01459        -0.00950
  C         0.08627         -0.00374         1.47035
  O         1.01528          0.00048         2.21436
  H        -1.04058          0.18163        -0.34094
  H         0.40459          0.90005        -0.46512
  H         0.59619         -0.87096        -0.32911
6
 step=          28     theta[rad]=           0.2932
  C        -0.00519         -0.00947        -0.00950
  C         0.08627         -0.00243         1.47035
  O         1.01528          0.00031         2.21436
  H        -1.04058          0.11798        -0.34095
  H         0.43816          0.89496        -0.44129
  H         0.56261         -0.87606        -0.35294
6
 step=          29     theta[rad]=           0.3037
  C        -0.00519         -0.00333        -0.00950
  C         0.08627         -0.00085         1.47035
  O         1.01528          0.00011         2.21436
  H        -1.04057          0.04151        -0.34096
  H         0.47849          0.88884        -0.41266
  H         0.52227         -0.88219        -0.38158
6
 step=          30     theta[rad]=           0.3142
  C        -0.00519          0.00333        -0.00950
  C         0.08627          0.00085         1.47035
  O         1.01528         -0.00011         2.21436
  H        -1.04057         -0.04151        -0.34097
  H         0.52226          0.88219        -0.38158
  H         0.47848         -0.88884        -0.41266
6
 step=          31     theta[rad]=           0.3246
  C        -0.00518          0.00987        -0.00950
  C         0.08627          0.00253         1.47035
  O         1.01528         -0.00032         2.21436
  H        -1.04056         -0.12293        -0.34099
  H         0.56520          0.87567        -0.35110
  H         0.43553         -0.89536        -0.44315
6
 step=          32     theta[rad]=           0.3351
  C        -0.00518          0.01553        -0.00950
  C         0.08627          0.00398         1.47035
  O         1.01528         -0.00051         2.21436
  H        -1.04056         -0.19342        -0.34099
  H         0.60237          0.87003        -0.32471
  H         0.39835         -0.90101        -0.46954
6
 step=          33     theta[rad]=           0.3456
  C        -0.00518          0.01956        -0.00950
  C         0.08627          0.00501         1.47035
  O         1.01528         -0.00064         2.21436
  H        -1.04056         -0.24351        -0.34100
  H         0.62879          0.86602        -0.30596
  H         0.37192         -0.90502        -0.48830
6
 step=          34     theta[rad]=           0.3560
  C        -0.00518          0.02128        -0.00949
  C         0.08627          0.00545         1.47035
  O         1.01528         -0.00070         2.21436
  H        -1.04056         -0.26497        -0.34100
  H         0.64010          0.86431        -0.29792
  H         0.36060         -0.90674        -0.49633
6
 step=          35     theta[rad]=           0.3665
  C        -0.00518          0.02027        -0.00949
  C         0.08627          0.00519         1.47035
  O         1.01528         -0.00067         2.21436
  H        -1.04056         -0.25234        -0.34100
  H         0.63344          0.86532        -0.30265
  H         0.36726         -0.90573        -0.49161
6
 step=          36     theta[rad]=           0.3770
  C        -0.00518          0.01642        -0.00950
  C         0.08627          0.00421         1.47035
  O         1.01528         -0.00054         2.21436
  H        -1.04056         -0.20444        -0.34100
  H         0.60818          0.86915        -0.32058
  H         0.39253         -0.90189        -0.47367
6
 step=          37     theta[rad]=           0.3875
  C        -0.00518          0.01007        -0.00950
  C         0.08627          0.00258         1.47035
  O         1.01528         -0.00033         2.21436
  H        -1.04056         -0.12538        -0.34099
  H         0.56649          0.87548        -0.35018
  H         0.43423         -0.89556        -0.44407
6
 step=          38     theta[rad]=           0.3979
  C        -0.00519          0.00201        -0.00950
  C         0.08627          0.00051         1.47035
  O         1.01528         -0.00007         2.21436
  H        -1.04057         -0.02497        -0.34097
  H         0.51354          0.88352        -0.38777
  H         0.48720         -0.88751        -0.40647
6
 step=          39     theta[rad]=           0.4084
  C        -0.00519         -0.00658        -0.00950
  C         0.08627         -0.00169         1.47035
  O         1.01528          0.00022         2.21436
  H        -1.04057          0.08199        -0.34096
  H         0.45714          0.89208        -0.42781
  H         0.54363         -0.87895        -0.36642
6
 step=          40     theta[rad]=           0.4189
  C        -0.00519         -0.01426        -0.00950
  C         0.08627         -0.00365         1.47035
  O         1.01528          0.00047         2.21436
  H        -1.04058          0.17754        -0.34094
  H         0.40675          0.89972        -0.46358
  H         0.59403         -0.87129        -0.33064
6
 step=          41     theta[rad]=           0.4294
  C        -0.00519         -0.01956        -0.00950
  C         0.08627         -0.00501         1.47035
  O         1.01528          0.00064         2.21436
  H        -1.04058          0.24351        -0.34093
  H         0.37197          0.90500        -0.48828
  H         0.62883         -0.86601        -0.30594
6
 step=          42     theta[rad]=           0.4398
  C        -0.00519         -0.02130        -0.00951
  C         0.08627         -0.00545         1.47035
  O         1.01528          0.00070         2.21436
  H        -1.04058          0.26520        -0.34093
  H         0.36053          0.90674        -0.49640
  H         0.64027         -0.86427        -0.29782
6
 step=          43     theta[rad]=           0.4503
  C        -0.00519         -0.01888        -0.00950
  C         0.08627         -0.00484         1.47035
  O         1.01528          0.00062         2.21436
  H        -1.04058          0.23514        -0.34094
  H         0.37638          0.90433        -0.48515
  H         0.62441         -0.86668        -0.30907
6
 step=          44     theta[rad]=           0.4608
  C        -0.00519         -0.01253        -0.00950
  C         0.08627         -0.00321         1.47035
  O         1.01528          0.00041         2.21436
  H        -1.04058          0.15596        -0.34095
  H         0.41813          0.89800        -0.45550
  H         0.58264         -0.87302        -0.33872
6
 step=          45     theta[rad]=           0.4712
  C        -0.00519         -0.00333        -0.00950
  C         0.08627         -0.00085         1.47035
  O         1.01528          0.00011         2.21436
  H        -1.04057          0.04151        -0.34096
  H         0.47849          0.88884        -0.41266
  H         0.52227         -0.88219        -0.38158
6
 step=          46     theta[rad]=           0.4817
  C        -0.00518          0.00680        -0.00950
  C         0.08627          0.00174         1.47035
  O         1.01528         -0.00022         2.21436
  H        -1.04057         -0.08463        -0.34098
  H         0.54500          0.87874        -0.36544
  H         0.45573         -0.89229        -0.42881
6
 step=          47     theta[rad]=           0.4922
  C        -0.00518          0.01553        -0.00950
  C         0.08627          0.00398         1.47035
  O         1.01528         -0.00051         2.21436
  H        -1.04056         -0.19342        -0.34099
  H         0.60237          0.87003        -0.32471
  H         0.39835         -0.90101        -0.46954
6
 step=          48     theta[rad]=           0.5027
  C        -0.00518          0.02064        -0.00949
  C         0.08627          0.00529         1.47035
  O         1.01528         -0.00068         2.21436
  H        -1.04056         -0.25700        -0.34100
  H         0.63590          0.86494        -0.30091
  H         0.36481         -0.90610        -0.49335
6
 step=          49     theta[rad]=           0.5131
  C        -0.00518          0.02058        -0.00949
  C         0.08627          0.00527         1.47035
  O         1.01528         -0.00068         2.21436
  H        -1.04056         -0.25629        -0.34100
  H         0.63553          0.86500        -0.30117
  H         0.36518         -0.90605        -0.49308
6
 step=          50     theta[rad]=           0.5236
  C        -0.00518          0.01507        -0.00950
  C         0.08627          0.00386         1.47035
  O         1.01528         -0.00050         2.21436
  H        -1.04056         -0.18762        -0.34099
  H         0.59931          0.87050        -0.32688
  H         0.40141         -0.90054        -0.46737
6
 step=          51     theta[rad]=           0.5341
  C        -0.00519          0.00530        -0.00950
  C         0.08627          0.00136         1.47035
  O         1.01528         -0.00017         2.21436
  H        -1.04057         -0.06599        -0.34098
  H         0.53517          0.88023        -0.37242
  H         0.46557         -0.89080        -0.42183
6
 step=          52     theta[rad]=           0.5445
  C        -0.00519         -0.00616        -0.00950
  C         0.08627         -0.00158         1.47035
  O         1.01528          0.00020         2.21436
  H        -1.04057          0.07669        -0.34096
  H         0.45993          0.89165        -0.42583
  H         0.54083         -0.87937        -0.36840
6
 step=          53     theta[rad]=           0.5550
  C        -0.00519         -0.01598        -0.00950
  C         0.08627         -0.00409         1.47035
  O         1.01528          0.00053         2.21436
  H        -1.04058          0.19903        -0.34094
  H         0.39542          0.90144        -0.47163
  H         0.60536         -0.86957        -0.32260
6
 step=          54     theta[rad]=           0.5655
  C        -0.00519         -0.02105        -0.00951
  C         0.08627         -0.00539         1.47035
  O         1.01528          0.00069         2.21436
  H        -1.04058          0.26206        -0.34093
  H         0.36218          0.90649        -0.49523
  H         0.63862         -0.86452        -0.29899
6
 step=          55     theta[rad]=           0.5760
  C        -0.00519         -0.01947        -0.00950
  C         0.08627         -0.00499         1.47035
  O         1.01528          0.00064         2.21436
  H        -1.04058          0.24239        -0.34094
  H         0.37255          0.90492        -0.48786
  H         0.62824         -0.86610        -0.30636
6
 step=          56     theta[rad]=           0.5864
  C        -0.00519         -0.01142        -0.00950
  C         0.08627         -0.00292         1.47035
  O         1.01528          0.00038         2.21436
  H        -1.04058          0.14217        -0.34095
  H         0.42540          0.89689        -0.45034
  H         0.57537         -0.87412        -0.34388
6
 step=          57     theta[rad]=           0.5969
  C        -0.00519          0.00067        -0.00950
  C         0.08627          0.00017         1.47035
  O         1.01528         -0.00002         2.21436
  H        -1.04057         -0.00833        -0.34097
  H         0.50477          0.88485        -0.39400
  H         0.49598         -0.88618        -0.40024
6
 step=          58     theta[rad]=           0.6074
  C        -0.00518          0.01270        -0.00950
  C         0.08627          0.00325         1.47035
  O         1.01528         -0.00042         2.21436
  H        -1.04056         -0.15820        -0.34099
  H         0.58380          0.87285        -0.33790
  H         0.41692         -0.89819        -0.45635
6
 step=          59     theta[rad]=           0.6178
  C        -0.00518          0.02027        -0.00949
  C         0.08627          0.00519         1.47035
  O         1.01528         -0.00067         2.21436
  H        -1.04056         -0.25234        -0.34100
  H         0.63344          0.86532        -0.30265
  H         0.36726         -0.90573        -0.49161
6
 step=          60     theta[rad]=           0.6283
  C        -0.00518          0.02027        -0.00949
  C         0.08627          0.00519         1.47035
  O         1.01528         -0.00067         2.21436
  H        -1.04056         -0.25234        -0.34100
  H         0.63344          0.86532        -0.30265
  H         0.36726         -0.90573        -0.49161
6
 step=          61     theta[rad]=           0.6388
  C        -0.00518          0.01234        -0.00950
  C         0.08627          0.00316         1.47035
  O         1.01528         -0.00041         2.21436
  H        -1.04056         -0.15370        -0.34099
  H         0.58143          0.87321        -0.33958
  H         0.41930         -0.89783        -0.45467
6
 step=          62     theta[rad]=           0.6493
  C        -0.00519         -0.00067        -0.00950
  C         0.08627         -0.00017         1.47035
  O         1.01528          0.00002         2.21436
  H        -1.04057          0.00833        -0.34097
  H         0.49598          0.88618        -0.40024
  H         0.50477         -0.88485        -0.39400
6
 step=          63     theta[rad]=           0.6597
  C        -0.00519         -0.01358        -0.00950
  C         0.08627         -0.00348         1.47035
  O         1.01528          0.00045         2.21436
  H        -1.04058          0.16913        -0.34095
  H         0.41119          0.89905        -0.46043
  H         0.58959         -0.87196        -0.33379
6
 step=          64     theta[rad]=           0.6702
  C        -0.00519         -0.02084        -0.00951
  C         0.08627         -0.00534         1.47035
  O         1.01528          0.00069         2.21436
  H        -1.04058          0.25953        -0.34093
  H         0.36352          0.90629        -0.49428
  H         0.63728         -0.86472        -0.29994
6
 step=          65     theta[rad]=           0.6807
  C        -0.00519         -0.01899        -0.00950
  C         0.08627         -0.00486         1.47035
  O         1.01528          0.00062         2.21436
  H        -1.04058          0.23641        -0.34094
  H         0.37571          0.90444        -0.48562
  H         0.62508         -0.86657        -0.30860
6
 step=          66     theta[rad]=           0.6912
  C        -0.00519         -0.00846        -0.00950
  C         0.08627         -0.00217         1.47035
  O         1.01528          0.00028         2.21436
  H        -1.04058          0.10538        -0.34095
  H         0.44481          0.89395        -0.43657
  H         0.55596         -0.87707        -0.35766
6
 step=          67     theta[rad]=           0.7016
  C        -0.00519          0.00616        -0.00950
  C         0.08627          0.00158         1.47035
  O         1.01528         -0.00020         2.21436
  H        -1.04057         -0.07669        -0.34098
  H         0.54082          0.87938        -0.36841
  H         0.45992         -0.89166        -0.42583
6
 step=          68     theta[rad]=           0.7121
  C        -0.00518          0.01799        -0.00950
  C         0.08627          0.00461         1.47035
  O         1.01528         -0.00059         2.21436
  H        -1.04056         -0.22403        -0.34100
  H         0.61851          0.86758        -0.31325
  H         0.38220         -0.90346        -0.48100
6
 step=          69     theta[rad]=           0.7226
  C        -0.00518          0.02105        -0.00949
  C         0.08627          0.00539         1.47035
  O         1.01528         -0.00069         2.21436
  H        -1.04056         -0.26206        -0.34100
  H         0.63857          0.86454        -0.29901
  H         0.36213         -0.90651        -0.49525
6
 step=          70     theta[rad]=           0.7330
  C        -0.00518          0.01341        -0.00950
  C         0.08627          0.00343         1.47035
  O         1.01528         -0.00044         2.21436
  H        -1.04056         -0.16698        -0.34099
  H         0.58843          0.87215        -0.33461
  H         0.41229         -0.89889        -0.45964
6
 step=          71     theta[rad]=           0.7435
  C        -0.00519         -0.00134        -0.00950
  C         0.08627         -0.00034         1.47035
  O         1.01528          0.00004         2.21436
  H        -1.04057          0.01666        -0.34097
  H         0.49159          0.88685        -0.40336
  H         0.50916         -0.88418        -0.39088
6
 step=          72     theta[rad]=           0.7540
  C        -0.00519         -0.01553        -0.00950
  C         0.08627         -0.00398         1.47035
  O         1.01528          0.00051         2.21436
  H        -1.04058          0.19342        -0.34094
  H         0.39838          0.90100        -0.46953
  H         0.60240         -0.87002        -0.32470
6
 step=          73     theta[rad]=           0.7645
  C        -0.00519         -0.02131        -0.00951
  C         0.08627         -0.00546         1.47035
  O         1.01528          0.00070         2.21436
  H        -1.04058          0.26532        -0.34093
  H         0.36047          0.90675        -0.49644
  H         0.64033         -0.86426        -0.29777
6
 step=          74     theta[rad]=           0.7749
  C        -0.00519         -0.01507        -0.00950
  C         0.08627         -0.00386         1.47035
  O         1.01528          0.00050         2.21436
  H        -1.04058          0.18762        -0.34094
  H         0.40144          0.90053        -0.46736
  H         0.59935         -0.87048        -0.32687
6
 step=          75     theta[rad]=           0.7854
  C        -0.00519          0.00000        -0.00950
  C         0.08627          0.00000         1.47035
  O         1.01528         -0.00000         2.21436
  H        -1.04057         -0.00000        -0.34097
  H         0.50038          0.88551        -0.39712
  H         0.50038         -0.88551        -0.39712
6
 step=          76     theta[rad]=           0.7959
  C        -0.00518          0.01522        -0.00950
  C         0.08627          0.00390         1.47035
  O         1.01528         -0.00050         2.21436
  H        -1.04056         -0.18957        -0.34099
  H         0.60034          0.87034        -0.32615
  H         0.40037         -0.90070        -0.46810
6
 step=          77     theta[rad]=           0.8063
  C        -0.00518          0.02130        -0.00949
  C         0.08627          0.00546         1.47035
  O         1.01528         -0.00070         2.21436
  H        -1.04056         -0.26520        -0.34100
  H         0.64022          0.86429        -0.29784
  H         0.36048         -0.90676        -0.49642
6
 step=          78     theta[rad]=           0.8168
  C        -0.00518          0.01409        -0.00950
  C         0.08627          0.00361         1.47035
  O         1.01528         -0.00046         2.21436
  H        -1.04056         -0.17547        -0.34099
  H         0.59290          0.87147        -0.33143
  H         0.40782         -0.89957        -0.46282
6
 step=          79     theta[rad]=           0.8273
  C        -0.00519         -0.00223        -0.00950
  C         0.08627         -0.00057         1.47035
  O         1.01528          0.00007         2.21436
  H        -1.04057          0.02773        -0.34096
  H         0.48575          0.88773        -0.40750
  H         0.51501         -0.88329        -0.38673
6
 step=          80     theta[rad]=           0.8378
  C        -0.00519         -0.01724        -0.00950
  C         0.08627         -0.00442         1.47035
  O         1.01528          0.00057         2.21436
  H        -1.04058          0.21466        -0.34094
  H         0.38718          0.90270        -0.47748
  H         0.61361         -0.86832        -0.31674
6
 step=          81     theta[rad]=           0.8482
  C        -0.00519         -0.02080        -0.00951
  C         0.08627         -0.00533         1.47035
  O         1.01528          0.00068         2.21436
  H        -1.04058          0.25894        -0.34093
  H         0.36383          0.90624        -0.49406
  H         0.63697         -0.86477        -0.30016
6
 step=          82     theta[rad]=           0.8587
  C        -0.00519         -0.01007        -0.00950
  C         0.08627         -0.00258         1.47035
  O         1.01528          0.00033         2.21436
  H        -1.04058          0.12538        -0.34095
  H         0.43426          0.89555        -0.44406
  H         0.56652         -0.87547        -0.35017
6
 step=          83     theta[rad]=           0.8692
  C        -0.00518          0.00784        -0.00950
  C         0.08627          0.00201         1.47035
  O         1.01528         -0.00026         2.21436
  H        -1.04057         -0.09767        -0.34098
  H         0.55188          0.87770        -0.36055
  H         0.44885         -0.89334        -0.43369
6
 step=          84     theta[rad]=           0.8796
  C        -0.00518          0.02027        -0.00949
  C         0.08627          0.00519         1.47035
  O         1.01528         -0.00067         2.21436
  H        -1.04056         -0.25234        -0.34100
  H         0.63344          0.86532        -0.30265
  H         0.36726         -0.90573        -0.49161
6
 step=          85     theta[rad]=           0.8901
  C        -0.00518          0.01787        -0.00950
  C         0.08627          0.00458         1.47035
  O         1.01528         -0.00059         2.21436
  H        -1.04056         -0.22253        -0.34100
  H         0.61772          0.86770        -0.31381
  H         0.38299         -0.90334        -0.48044
6
 step=          86     theta[rad]=           0.9006
  C        -0.00519          0.00201        -0.00950
  C         0.08627          0.00051         1.47035
  O         1.01528         -0.00007         2.21436
  H        -1.04057         -0.02497        -0.34097
  H         0.51354          0.88352        -0.38777
  H         0.48720         -0.88751        -0.40647
6
 step=          87     theta[rad]=           0.9111
  C        -0.00519         -0.01553        -0.00950
  C         0.08627         -0.00398         1.47035
  O         1.01528          0.00051         2.21436
  H        -1.04058          0.19342        -0.34094
  H         0.39838          0.90100        -0.46953
  H         0.60240         -0.87002        -0.32470
6
 step=          88     theta[rad]=           0.9215
  C        -0.00519         -0.02101        -0.00951
  C         0.08627         -0.00538         1.47035
  O         1.01528          0.00069         2.21436
  H        -1.04058          0.26162        -0.34093
  H         0.36242          0.90645        -0.49506
  H         0.63838         -0.86456        -0.29916
6
 step=          89     theta[rad]=           0.9320
  C        -0.00519         -0.00967        -0.00950
  C         0.08627         -0.00248         1.47035
  O         1.01528          0.00032         2.21436
  H        -1.04058          0.12046        -0.34095
  H         0.43685          0.89516        -0.44221
  H         0.56392         -0.87586        -0.35201
6
 step=          90     theta[rad]=           0.9425
  C        -0.00518          0.00967        -0.00950
  C         0.08627          0.00248         1.47035
  O         1.01528         -0.00032         2.21436
  H        -1.04056         -0.12046        -0.34098
  H         0.56390          0.87587        -0.35202
  H         0.43683         -0.89516        -0.44222
6
 step=          91     theta[rad]=           0.9529
  C        -0.00518          0.02108        -0.00949
  C         0.08627          0.00540         1.47035
  O         1.01528         -0.00069         2.21436
  H        -1.04056         -0.26248        -0.34100
  H         0.63879          0.86450        -0.29885
  H         0.36191         -0.90654        -0.49540
6
 step=          92     theta[rad]=           0.9634
  C        -0.00518          0.01459        -0.00950
  C         0.08627          0.00374         1.47035
  O         1.01528         -0.00048         2.21436
  H        -1.04056         -0.18163        -0.34099
  H         0.59616          0.87098        -0.32912
  H         0.40456         -0.90006        -0.46513
6
 step=          93     theta[rad]=           0.9739
  C        -0.00519         -0.00465        -0.00950
  C         0.08627         -0.00119         1.47035
  O         1.01528          0.00015         2.21436
  H        -1.04057          0.05788        -0.34096
  H         0.46985          0.89015        -0.41879
  H         0.53091         -0.88088        -0.37545
6
 step=          94     theta[rad]=           0.9844
  C        -0.00519         -0.01989        -0.00950
  C         0.08627         -0.00510         1.47035
  O         1.01528          0.00065         2.21436
  H        -1.04058          0.24771        -0.34093
  H         0.36975          0.90534        -0.48985
  H         0.63104         -0.86567        -0.30437
6
 step=          95     theta[rad]=           0.9948
  C        -0.00519         -0.01724        -0.00950
  C         0.08627         -0.00442         1.47035
  O         1.01528          0.00057         2.21436
  H        -1.04058          0.21466        -0.34094
  H         0.38718          0.90270        -0.47748
  H         0.61361         -0.86832        -0.31674
6
 step=          96     theta[rad]=           1.0053
  C        -0.00519          0.00134        -0.00950
  C         0.08627          0.00034         1.47035
  O         1.01528         -0.00004         2.21436
  H        -1.04057         -0.01666        -0.34097
  H         0.50916          0.88418        -0.39088
  H         0.49159         -0.88685        -0.40336
6
 step=          97     theta[rad]=           1.0158
  C        -0.00518          0.01878        -0.00950
  C         0.08627          0.00481         1.47035
  O         1.01528         -0.00062         2.21436
  H        -1.04056         -0.23384        -0.34100
  H         0.62369          0.86680        -0.30958
  H         0.37702         -0.90425        -0.48468
6
 step=          98     theta[rad]=           1.0263
  C        -0.00518          0.01834        -0.00950
  C         0.08627          0.00470         1.47035
  O         1.01528         -0.00060         2.21436
  H        -1.04056         -0.22838        -0.34100
  H         0.62081          0.86723        -0.31162
  H         0.37990         -0.90381        -0.48263
6
 step=          99     theta[rad]=           1.0367
  C        -0.00519          0.00000        -0.00950
  C         0.08627          0.00000         1.47035
  O         1.01528         -0.00000         2.21436
  H        -1.04057         -0.00000        -0.34097
  H         0.50038          0.88551        -0.39712
  H         0.50038         -0.88551        -0.39712
6
 step=         100     theta[rad]=           1.0472
  C        -0.00519         -0.01845        -0.00950
  C         0.08627         -0.00473         1.47035
  O         1.01528          0.00061         2.21436
  H        -1.04058          0.22978        -0.34094
  H         0.37920          0.90391        -0.48314
  H         0.62159         -0.86711        -0.31108
6
 step=         101     theta[rad]=           1.0577
  C        -0.00519         -0.01834        -0.00950
  C         0.08627         -0.00470         1.47035
  O         1.01528          0.00060         2.21436
  H        -1.04058          0.22838        -0.34094
  H         0.37994          0.90379        -0.48262
  H         0.62085         -0.86722        -0.31160
6
 step=         102     theta[rad]=           1.0681
  C        -0.00519          0.00067        -0.00950
  C         0.08627          0.00017         1.47035
  O         1.01528         -0.00002         2.21436
  H        -1.04057         -0.00833        -0.34097
  H         0.50477          0.88485        -0.39400
  H         0.49598         -0.88618        -0.40024
6
 step=         103     theta[rad]=           1.0786
  C        -0.00518          0.01909        -0.00950
  C         0.08627          0.00489         1.47035
  O         1.01528         -0.00063         2.21436
  H        -1.04056         -0.23766        -0.34100
  H         0.62570          0.86649        -0.30815
  H         0.37501         -0.90455        -0.48611
6
 step=         104     theta[rad]=           1.0891
  C        -0.00518          0.01724        -0.00950
  C         0.08627          0.00442         1.47035
  O         1.01528         -0.00057         2.21436
  H        -1.04056         -0.21466        -0.34100
  H         0.61357          0.86833        -0.31676
  H         0.38714         -0.90271        -0.47749
6
 step=         105     theta[rad]=           1.0996
  C        -0.00519         -0.00333        -0.00950
  C         0.08627         -0.00085         1.47035
  O         1.01528          0.00011         2.21436
  H        -1.04057          0.04151        -0.34096
  H         0.47849          0.88884        -0.41266
  H         0.52227         -0.88219        -0.38158
6
 step=         106     theta[rad]=           1.1100
  C        -0.00519         -0.02033        -0.00951
  C         0.08627         -0.00521         1.47035
  O         1.01528          0.00067         2.21436
  H        -1.04058          0.25319        -0.34093
  H         0.36686          0.90578        -0.49190
  H         0.63394         -0.86523        -0.30231
6
 step=         107     theta[rad]=           1.1205
  C        -0.00519         -0.01459        -0.00950
  C         0.08627         -0.00374         1.47035
  O         1.01528          0.00048         2.21436
  H        -1.04058          0.18163        -0.34094
  H         0.40459          0.90005        -0.46512
  H         0.59619         -0.87096        -0.32911
6
 step=         108     theta[rad]=           1.1310
  C        -0.00518          0.00784        -0.00950
  C         0.08627          0.00201         1.47035
  O         1.01528         -0.00026         2.21436
  H        -1.04057         -0.09767        -0.34098
  H         0.55188          0.87770        -0.36055
  H         0.44885         -0.89334        -0.43369
6
 step=         109     theta[rad]=           1.1414
  C        -0.00518          0.02128        -0.00949
  C         0.08627          0.00545         1.47035
  O         1.01528         -0.00070         2.21436
  H        -1.04056         -0.26497        -0.34100
  H         0.64010          0.86431        -0.29792
  H         0.36060         -0.90674        -0.49633
6
 step=         110     theta[rad]=           1.1519
  C        -0.00518          0.00967        -0.00950
  C         0.08627          0.00248         1.47035
  O         1.01528         -0.00032         2.21436
  H        -1.04056         -0.12046        -0.34098
  H         0.56390          0.87587        -0.35202
  H         0.43683         -0.89516        -0.44222
6
 step=         111     theta[rad]=           1.1624
  C        -0.00519         -0.01358        -0.00950
  C         0.08627         -0.00348         1.47035
  O         1.01528          0.00045         2.21436
  H        -1.04058          0.16913        -0.34095
  H         0.41119          0.89905        -0.46043
  H         0.58959         -0.87196        -0.33379
6
 step=         112     theta[rad]=           1.1729
  C        -0.00519         -0.02040        -0.00951
  C         0.08627         -0.00522         1.47035
  O         1.01528          0.00067         2.21436
  H        -1.04058          0.25401        -0.34093
  H         0.36643          0.90585        -0.49221
  H         0.63437         -0.86517        -0.30201
6
 step=         113     theta[rad]=           1.1833
  C        -0.00519         -0.00201        -0.00950
  C         0.08627         -0.00051         1.47035
  O         1.01528          0.00007         2.21436
  H        -1.04057          0.02497        -0.34096
  H         0.48721          0.88751        -0.40647
  H         0.51355         -0.88351        -0.38777
6
 step=         114     theta[rad]=           1.1938
  C        -0.00518          0.01899        -0.00950
  C         0.08627          0.00486         1.47035
  O         1.01528         -0.00062         2.21436
  H        -1.04056         -0.23641        -0.34100
  H         0.62504          0.86659        -0.30861
  H         0.37567         -0.90445        -0.48564
6
 step=         115     theta[rad]=           1.2043
  C        -0.00518          0.01584        -0.00950
  C         0.08627          0.00406         1.47035
  O         1.01528         -0.00052         2.21436
  H        -1.04056         -0.19718        -0.34100
  H         0.60435          0.86973        -0.32330
  H         0.39636         -0.90131        -0.47095
6
 step=         116     theta[rad]=           1.2147
  C        -0.00519         -0.00784        -0.00950
  C         0.08627         -0.00201         1.47035
  O         1.01528          0.00026         2.21436
  H        -1.04058          0.09767        -0.34095
  H         0.44887          0.89333        -0.43369
  H         0.55190         -0.87769        -0.36055
6
 step=         117     theta[rad]=           1.2252
  C        -0.00519         -0.02130        -0.00951
  C         0.08627         -0.00545         1.47035
  O         1.01528          0.00070         2.21436
  H        -1.04058          0.26520        -0.34093
  H         0.36053          0.90674        -0.49640
  H         0.64027         -0.86427        -0.29782
6
 step=         118     theta[rad]=           1.2357
  C        -0.00519         -0.00637        -0.00950
  C         0.08627         -0.00163         1.47035
  O         1.01528          0.00021         2.21436
  H        -1.04057          0.07934        -0.34096
  H         0.45853          0.89186        -0.42682
  H         0.54223         -0.87916        -0.36741
6
 step=         119     theta[rad]=           1.2462
  C        -0.00518          0.01724        -0.00950
  C         0.08627          0.00442         1.47035
  O         1.01528         -0.00057         2.21436
  H        -1.04056         -0.21466        -0.34100
  H         0.61357          0.86833        -0.31676
  H         0.38714         -0.90271        -0.47749
6
 step=         120     theta[rad]=           1.2566
  C        -0.00518          0.01724        -0.00950
  C         0.08627          0.00442         1.47035
  O         1.01528         -0.00057         2.21436
  H        -1.04056         -0.21466        -0.34100
  H         0.61357          0.86833        -0.31676
  H         0.38714         -0.90271        -0.47749
6
 step=         121     theta[rad]=           1.2671
  C        -0.00519         -0.00680        -0.00950
  C         0.08627         -0.00174         1.47035
  O         1.01528          0.00022         2.21436
  H        -1.04057          0.08463        -0.34096
  H         0.45575          0.89229        -0.42880
  H         0.54502         -0.87873        -0.36543
6
 step=         122     theta[rad]=           1.2776
  C        -0.00519         -0.02130        -0.00951
  C         0.08627         -0.00545         1.47035
  O         1.01528          0.00070         2.21436
  H        -1.04058          0.26520        -0.34093
  H         0.36053          0.90674        -0.49640
  H         0.64027         -0.86427        -0.29782
6
 step=         123     theta[rad]=           1.2881
  C        -0.00519         -0.00530        -0.00950
  C         0.08627         -0.00136         1.47035
  O         1.01528          0.00017         2.21436
  H        -1.04057          0.06599        -0.34096
  H         0.46558          0.89080        -0.42182
  H         0.53518         -0.88023        -0.37241
6
 step=         124     theta[rad]=           1.2985
  C        -0.00518          0.01845        -0.00950
  C         0.08627          0.00473         1.47035
  O         1.01528         -0.00061         2.21436
  H        -1.04056         -0.22978        -0.34100
  H         0.62155          0.86712        -0.31110
  H         0.37916         -0.90392        -0.48316
6
 step=         125     theta[rad]=           1.3090
  C        -0.00518          0.01507        -0.00950
  C         0.08627          0.00386         1.47035
  O         1.01528         -0.00050         2.21436
  H        -1.04056         -0.18762        -0.34099
  H         0.59931          0.87050        -0.32688
  H         0.40141         -0.90054        -0.46737
6
 step=         126     theta[rad]=           1.3195
  C        -0.00519         -0.01085        -0.00950
  C         0.08627         -0.00278         1.47035
  O         1.01528          0.00036         2.21436
  H        -1.04058          0.13506        -0.34095
  H         0.42915          0.89632        -0.44768
  H         0.57162         -0.87469        -0.34655
6
 step=         127     theta[rad]=           1.3299
  C        -0.00519         -0.02040        -0.00951
  C         0.08627         -0.00522         1.47035
  O         1.01528          0.00067         2.21436
  H        -1.04058          0.25401        -0.34093
  H         0.36643          0.90585        -0.49221
  H         0.63437         -0.86517        -0.30201
6
 step=         128     theta[rad]=           1.3404
  C        -0.00519          0.00134        -0.00950
  C         0.08627          0.00034         1.47035
  O         1.01528         -0.00004         2.21436
  H        -1.04057         -0.01666        -0.34097
  H         0.50916          0.88418        -0.39088
  H         0.49159         -0.88685        -0.40336
6
 step=         129     theta[rad]=           1.3509
  C        -0.00518          0.02105        -0.00949
  C         0.08627          0.00539         1.47035
  O         1.01528         -0.00069         2.21436
  H        -1.04056         -0.26206        -0.34100
  H         0.63857          0.86454        -0.29901
  H         0.36213         -0.90651        -0.49525
6
 step=         130     theta[rad]=           1.3614
  C        -0.00518          0.00764        -0.00950
  C         0.08627          0.00196         1.47035
  O         1.01528         -0.00025         2.21436
  H        -1.04057         -0.09509        -0.34098
  H         0.55052          0.87790        -0.36152
  H         0.45022         -0.89313        -0.43272
6
 step=         131     theta[rad]=           1.3718
  C        -0.00519         -0.01799        -0.00950
  C         0.08627         -0.00461         1.47035
  O         1.01528          0.00059         2.21436
  H        -1.04058          0.22403        -0.34094
  H         0.38224          0.90345        -0.48099
  H         0.61855         -0.86757        -0.31323
6
 step=         132     theta[rad]=           1.3823
  C        -0.00519         -0.01459        -0.00950
  C         0.08627         -0.00374         1.47035
  O         1.01528          0.00048         2.21436
  H        -1.04058          0.18163        -0.34094
  H         0.40459          0.90005        -0.46512
  H         0.59619         -0.87096        -0.32911
6
 step=         133     theta[rad]=           1.3928
  C        -0.00518          0.01270        -0.00950
  C         0.08627          0.00325         1.47035
  O         1.01528         -0.00042         2.21436
  H        -1.04056         -0.15820        -0.34099
  H         0.58380          0.87285        -0.33790
  H         0.41692         -0.89819        -0.45635
6
 step=         134     theta[rad]=           1.4032
  C        -0.00518          0.01899        -0.00950
  C         0.08627          0.00486         1.47035
  O         1.01528         -0.00062         2.21436
  H        -1.04056         -0.23641        -0.34100
  H         0.62504          0.86659        -0.30861
  H         0.37567         -0.90445        -0.48564
6
 step=         135     theta[rad]=           1.4137
  C        -0.00519         -0.00658        -0.00950
  C         0.08627         -0.00169         1.47035
  O         1.01528          0.00022         2.21436
  H        -1.04057          0.08199        -0.34096
  H         0.45714          0.89208        -0.42781
  H         0.54363         -0.87895        -0.36642
6
 step=         136     theta[rad]=           1.4242
  C        -0.00519         -0.02101        -0.00951
  C         0.08627         -0.00538         1.47035
  O         1.01528          0.00069         2.21436
  H        -1.04058          0.26162        -0.34093
  H         0.36242          0.90645        -0.49506
  H         0.63838         -0.86456        -0.29916
6
 step=         137     theta[rad]=           1.4347
  C        -0.00519          0.00067        -0.00950
  C         0.08627          0.00017         1.47035
  O         1.01528         -0.00002         2.21436
  H        -1.04057         -0.00833        -0.34097
  H         0.50477          0.88485        -0.39400
  H         0.49598         -0.88618        -0.40024
6
 step=         138     theta[rad]=           1.4451
  C        -0.00518          0.02121        -0.00949
  C         0.08627          0.00543         1.47035
  O         1.01528         -0.00070         2.21436
  H        -1.04056         -0.26415        -0.34100
  H         0.63967          0.86437        -0.29823
  H         0.36103         -0.90668        -0.49603
6
 step=         139     theta[rad]=           1.4556
  C        -0.00519          0.00443        -0.00950
  C         0.08627          0.00113         1.47035
  O         1.01528         -0.00015         2.21436
  H        -1.04057         -0.05517        -0.34098
  H         0.52947          0.88110        -0.37647
  H         0.47127         -0.88993        -0.41777
6
 step=         140     theta[rad]=           1.4661
  C        -0.00519         -0.02027        -0.00951
  C         0.08627         -0.00519         1.47035
  O         1.01528          0.00067         2.21436
  H        -1.04058          0.25234        -0.34093
  H         0.36731          0.90571        -0.49159
  H         0.63349         -0.86530        -0.30263
6
 step=         141     theta[rad]=           1.4765
  C        -0.00519         -0.00846        -0.00950
  C         0.08627         -0.00217         1.47035
  O         1.01528          0.00028         2.21436
  H        -1.04058          0.10538        -0.34095
  H         0.44481          0.89395        -0.43657
  H         0.55596         -0.87707        -0.35766
6
 step=         142     theta[rad]=           1.4870
  C        -0.00518          0.01878        -0.00950
  C         0.08627          0.00481         1.47035
  O         1.01528         -0.00062         2.21436
  H        -1.04056         -0.23384        -0.34100
  H         0.62369          0.86680        -0.30958
  H         0.37702         -0.90425        -0.48468
6
 step=         143     theta[rad]=           1.4975
  C        -0.00518          0.01142        -0.00950
  C         0.08627          0.00292         1.47035
  O         1.01528         -0.00038         2.21436
  H        -1.04056         -0.14217        -0.34099
  H         0.57535          0.87413        -0.34389
  H         0.42538         -0.89690        -0.45035
6
 step=         144     theta[rad]=           1.5080
  C        -0.00519         -0.01724        -0.00950
  C         0.08627         -0.00442         1.47035
  O         1.01528          0.00057         2.21436
  H        -1.04058          0.21466        -0.34094
  H         0.38718          0.90270        -0.47748
  H         0.61361         -0.86832        -0.31674
6
 step=         145     theta[rad]=           1.5184
  C        -0.00519         -0.01341        -0.00950
  C         0.08627         -0.00343         1.47035
  O         1.01528          0.00044         2.21436
  H        -1.04058          0.16698        -0.34095
  H         0.41232          0.89888        -0.45963
  H         0.58846         -0.87214        -0.33460
6
 step=         146     theta[rad]=           1.5289
  C        -0.00518          0.01598        -0.00950
  C         0.08627          0.00409         1.47035
  O         1.01528         -0.00053         2.21436
  H        -1.04056         -0.19903        -0.34100
  H         0.60533          0.86958        -0.32261
  H         0.39539         -0.90146        -0.47164
6
 step=         147     theta[rad]=           1.5394
  C        -0.00518          0.01459        -0.00950
  C         0.08627          0.00374         1.47035
  O         1.01528         -0.00048         2.21436
  H        -1.04056         -0.18163        -0.34099
  H         0.59616          0.87098        -0.32912
  H         0.40456         -0.90006        -0.46513
6
 step=         148     theta[rad]=           1.5499
  C        -0.00519         -0.01522        -0.00950
  C         0.08627         -0.00390         1.47035
  O         1.01528          0.00050         2.21436
  H        -1.04058          0.18957        -0.34094
  H         0.40041          0.90069        -0.46809
  H         0.60038         -0.87033        -0.32614
6
 step=         149     theta[rad]=           1.5603
  C        -0.00519         -0.01507        -0.00950
  C         0.08627         -0.00386         1.47035
  O         1.01528          0.00050         2.21436
  H        -1.04058          0.18762        -0.34094
  H         0.40144          0.90053        -0.46736
  H         0.59935         -0.87048        -0.32687
6
 step=         150     theta[rad]=           1.5708
  C        -0.00518          0.01507        -0.00950
  C         0.08627          0.00386         1.47035
  O         1.01528         -0.00050         2.21436
  H        -1.04056         -0.18762        -0.34099
  H         0.59931          0.87050        -0.32688
  H         0.40141         -0.90054        -0.46737
6
 step=         151     theta[rad]=           1.5813
  C        -0.00518          0.01491        -0.00950
  C         0.08627          0.00382         1.47035
  O         1.01528         -0.00049         2.21436
  H        -1.04056         -0.18564        -0.34099
  H         0.59827          0.87065        -0.32762
  H         0.40245         -0.90039        -0.46663
6
 step=         152     theta[rad]=           1.5917
  C        -0.00519         -0.01553        -0.00950
  C         0.08627         -0.00398         1.47035
  O         1.01528          0.00051         2.21436
  H        -1.04058          0.19342        -0.34094
  H         0.39838          0.90100        -0.46953
  H         0.60240         -0.87002        -0.32470
6
 step=         153     theta[rad]=           1.6022
  C        -0.00519         -0.01409        -0.00950
  C         0.08627         -0.00361         1.47035
  O         1.01528          0.00046         2.21436
  H        -1.04058          0.17547        -0.34094
  H         0.40785          0.89956        -0.46281
  H         0.59294         -0.87146        -0.33142
6
 step=         154     theta[rad]=           1.6127
  C        -0.00518          0.01656        -0.00950
  C         0.08627          0.00424         1.47035
  O         1.01528         -0.00054         2.21436
  H        -1.04056         -0.20620        -0.34100
  H         0.60911          0.86901        -0.31992
  H         0.39160         -0.90203        -0.47433
6
 step=         155     theta[rad]=           1.6232
  C        -0.00518          0.01253        -0.00950
  C         0.08627          0.00321         1.47035
  O         1.01528         -0.00041         2.21436
  H        -1.04056         -0.15596        -0.34099
  H         0.58262          0.87303        -0.33873
  H         0.41811         -0.89801        -0.45552
6
 step=         156     theta[rad]=           1.6336
  C        -0.00519         -0.01799        -0.00950
  C         0.08627         -0.00461         1.47035
  O         1.01528          0.00059         2.21436
  H        -1.04058          0.22403        -0.34094
  H         0.38224          0.90345        -0.48099
  H         0.61855         -0.86757        -0.31323
6
 step=         157     theta[rad]=           1.6441
  C        -0.00519         -0.01007        -0.00950
  C         0.08627         -0.00258         1.47035
  O         1.01528          0.00033         2.21436
  H        -1.04058          0.12538        -0.34095
  H         0.43426          0.89555        -0.44406
  H         0.56652         -0.87547        -0.35017
6
 step=         158     theta[rad]=           1.6546
  C        -0.00518          0.01956        -0.00950
  C         0.08627          0.00501         1.47035
  O         1.01528         -0.00064         2.21436
  H        -1.04056         -0.24351        -0.34100
  H         0.62879          0.86602        -0.30596
  H         0.37192         -0.90502        -0.48830
6
 step=         159     theta[rad]=           1.6650
  C        -0.00519          0.00658        -0.00950
  C         0.08627          0.00169         1.47035
  O         1.01528         -0.00022         2.21436
  H        -1.04057         -0.08199        -0.34098
  H         0.54361          0.87895        -0.36642
  H         0.45712         -0.89208        -0.42782
6
 step=         160     theta[rad]=           1.6755
  C        -0.00519         -0.02084        -0.00951
  C         0.08627         -0.00534         1.47035
  O         1.01528          0.00069         2.21436
  H        -1.04058          0.25953        -0.34093
  H         0.36352          0.90629        -0.49428
  H         0.63728         -0.86472        -0.29994
6
 step=         161     theta[rad]=           1.6860
  C        -0.00519         -0.00201        -0.00950
  C         0.08627         -0.00051         1.47035
  O         1.01528          0.00007         2.21436
  H        -1.04057          0.02497        -0.34096
  H         0.48721          0.88751        -0.40647
  H         0.51355         -0.88351        -0.38777
6
 step=         162     theta[rad]=           1.6965
  C        -0.00518          0.02130        -0.00949
  C         0.08627          0.00546         1.47035
  O         1.01528         -0.00070         2.21436
  H        -1.04056         -0.26520        -0.34100
  H         0.64022          0.86429        -0.29784
  H         0.36048         -0.90676        -0.49642
6
 step=         163     theta[rad]=           1.7069
  C        -0.00519         -0.00355        -0.00950
  C         0.08627         -0.00091         1.47035
  O         1.01528          0.00012         2.21436
  H        -1.04057          0.04425        -0.34096
  H         0.47704          0.88906        -0.41368
  H         0.52372         -0.88197        -0.38055
6
 step=         164     theta[rad]=           1.7174
  C        -0.00519         -0.02027        -0.00951
  C         0.08627         -0.00519         1.47035
  O         1.01528          0.00067         2.21436
  H        -1.04058          0.25234        -0.34093
  H         0.36731          0.90571        -0.49159
  H         0.63349         -0.86530        -0.30263
6
 step=         165     theta[rad]=           1.7279
  C        -0.00518          0.00967        -0.00950
  C         0.08627          0.00248         1.47035
  O         1.01528         -0.00032         2.21436
  H        -1.04056         -0.12046        -0.34098
  H         0.56390          0.87587        -0.35202
  H         0.43683         -0.89516        -0.44222
6
 step=         166     theta[rad]=           1.7383
  C        -0.00518          0.01711        -0.00950
  C         0.08627          0.00438         1.47035
  O         1.01528         -0.00056         2.21436
  H        -1.04056         -0.21301        -0.34100
  H         0.61270          0.86846        -0.31737
  H         0.38801         -0.90258        -0.47688
6
 step=         167     theta[rad]=           1.7488
  C        -0.00519         -0.01553        -0.00950
  C         0.08627         -0.00398         1.47035
  O         1.01528          0.00051         2.21436
  H        -1.04058          0.19342        -0.34094
  H         0.39838          0.90100        -0.46953
  H         0.60240         -0.87002        -0.32470
6
 step=         168     theta[rad]=           1.7593
  C        -0.00519         -0.01142        -0.00950
  C         0.08627         -0.00292         1.47035
  O         1.01528          0.00038         2.21436
  H        -1.04058          0.14217        -0.34095
  H         0.42540          0.89689        -0.45034
  H         0.57537         -0.87412        -0.34388
6
 step=         169     theta[rad]=           1.7698
  C        -0.00518          0.01989        -0.00950
  C         0.08627          0.00510         1.47035
  O         1.01528         -0.00065         2.21436
  H        -1.04056         -0.24771        -0.34100
  H         0.63100          0.86569        -0.30439
  H         0.36971         -0.90536        -0.48987
6
 step=         170     theta[rad]=           1.7802
  C        -0.00519          0.00333        -0.00950
  C         0.08627          0.00085         1.47035
  O         1.01528         -0.00011         2.21436
  H        -1.04057         -0.04151        -0.34097
  H         0.52226          0.88219        -0.38158
  H         0.47848         -0.88884        -0.41266
6
 step=         171     theta[rad]=           1.7907
  C        -0.00519         -0.02127        -0.00951
  C         0.08627         -0.00545         1.47035
  O         1.01528          0.00070         2.21436
  H        -1.04058          0.26481        -0.34093
  H         0.36073          0.90671        -0.49625
  H         0.64006         -0.86430        -0.29796
6
 step=         172     theta[rad]=           1.8012
  C        -0.00519          0.00616        -0.00950
  C         0.08627          0.00158         1.47035
  O         1.01528         -0.00020         2.21436
  H        -1.04057         -0.07669        -0.34098
  H         0.54082          0.87938        -0.36841
  H         0.45992         -0.89166        -0.42583
6
 step=         173     theta[rad]=           1.8117
  C        -0.00518          0.01834        -0.00950
  C         0.08627          0.00470         1.47035
  O         1.01528         -0.00060         2.21436
  H        -1.04056         -0.22838        -0.34100
  H         0.62081          0.86723        -0.31162
  H         0.37990         -0.90381        -0.48263
6
 step=         174     theta[rad]=           1.8221
  C        -0.00519         -0.01507        -0.00950
  C         0.08627         -0.00386         1.47035
  O         1.01528          0.00050         2.21436
  H        -1.04058          0.18762        -0.34094
  H         0.40144          0.90053        -0.46736
  H         0.59935         -0.87048        -0.32687
6
 step=         175     theta[rad]=           1.8326
  C        -0.00519         -0.01065        -0.00950
  C         0.08627         -0.00273         1.47035
  O         1.01528          0.00035         2.21436
  H        -1.04058          0.13267        -0.34095
  H         0.43042          0.89613        -0.44678
  H         0.57036         -0.87489        -0.34744
6
 step=         176     theta[rad]=           1.8431
  C        -0.00518          0.02064        -0.00949
  C         0.08627          0.00529         1.47035
  O         1.01528         -0.00068         2.21436
  H        -1.04056         -0.25700        -0.34100
  H         0.63590          0.86494        -0.30091
  H         0.36481         -0.90610        -0.49335
6
 step=         177     theta[rad]=           1.8535
  C        -0.00519         -0.00067        -0.00950
  C         0.08627         -0.00017         1.47035
  O         1.01528          0.00002         2.21436
  H        -1.04057          0.00833        -0.34097
  H         0.49598          0.88618        -0.40024
  H         0.50477         -0.88485        -0.39400
6
 step=         178     theta[rad]=           1.8640
  C        -0.00519         -0.02020        -0.00951
  C         0.08627         -0.00517         1.47035
  O         1.01528          0.00066         2.21436
  H        -1.04058          0.25147        -0.34093
  H         0.36777          0.90564        -0.49126
  H         0.63303         -0.86537        -0.30296
6
 step=         179     theta[rad]=           1.8745
  C        -0.00518          0.01253        -0.00950
  C         0.08627          0.00321         1.47035
  O         1.01528         -0.00041         2.21436
  H        -1.04056         -0.15596        -0.34099
  H         0.58262          0.87303        -0.33873
  H         0.41811         -0.89801        -0.45552
6
 step=         180     theta[rad]=           1.8850
  C        -0.00518          0.01253        -0.00950
  C         0.08627          0.00321         1.47035
  O         1.01528         -0.00041         2.21436
  H        -1.04056         -0.15596        -0.34099
  H         0.58262          0.87303        -0.33873
  H         0.41811         -0.89801        -0.45552
6
 step=         181     theta[rad]=           1.8954
  C        -0.00519         -0.02033        -0.00951
  C         0.08627         -0.00521         1.47035
  O         1.01528          0.00067         2.21436
  H        -1.04058          0.25319        -0.34093
  H         0.36686          0.90578        -0.49190
  H         0.63394         -0.86523        -0.30231
6
 step=         182     theta[rad]=           1.9059
  C        -0.00519          0.00067        -0.00950
  C         0.08627          0.00017         1.47035
  O         1.01528         -0.00002         2.21436
  H        -1.04057         -0.00833        -0.34097
  H         0.50477          0.88485        -0.39400
  H         0.49598         -0.88618        -0.40024
6
 step=         183     theta[rad]=           1.9164
  C        -0.00518          0.01981        -0.00950
  C         0.08627          0.00507         1.47035
  O         1.01528         -0.00065         2.21436
  H        -1.04056         -0.24670        -0.34100
  H         0.63047          0.86577        -0.30476
  H         0.37024         -0.90528        -0.48949
6
 step=         184     theta[rad]=           1.9268
  C        -0.00519         -0.01426        -0.00950
  C         0.08627         -0.00365         1.47035
  O         1.01528          0.00047         2.21436
  H        -1.04058          0.17754        -0.34094
  H         0.40675          0.89972        -0.46358
  H         0.59403         -0.87129        -0.33064
6
 step=         185     theta[rad]=           1.9373
  C        -0.00519         -0.00967        -0.00950
  C         0.08627         -0.00248         1.47035
  O         1.01528          0.00032         2.21436
  H        -1.04058          0.12046        -0.34095
  H         0.43685          0.89516        -0.44221
  H         0.56392         -0.87586        -0.35201
6
 step=         186     theta[rad]=           1.9478
  C        -0.00518          0.02121        -0.00949
  C         0.08627          0.00543         1.47035
  O         1.01528         -0.00070         2.21436
  H        -1.04056         -0.26415        -0.34100
  H         0.63967          0.86437        -0.29823
  H         0.36103         -0.90668        -0.49603
6
 step=         187     theta[rad]=           1.9583
  C        -0.00519         -0.00616        -0.00950
  C         0.08627         -0.00158         1.47035
  O         1.01528          0.00020         2.21436
  H        -1.04057          0.07669        -0.34096
  H         0.45993          0.89165        -0.42583
  H         0.54083         -0.87937        -0.36840
6
 step=         188     theta[rad]=           1.9687
  C        -0.00519         -0.01642        -0.00950
  C         0.08627         -0.00421         1.47035
  O         1.01528          0.00054         2.21436
  H        -1.04058          0.20444        -0.34094
  H         0.39257          0.90188        -0.47365
  H         0.60822         -0.86914        -0.32057
6
 step=         189     theta[rad]=           1.9792
  C        -0.00518          0.01899        -0.00950
  C         0.08627          0.00486         1.47035
  O         1.01528         -0.00062         2.21436
  H        -1.04056         -0.23641        -0.34100
  H         0.62504          0.86659        -0.30861
  H         0.37567         -0.90445        -0.48564
6
 step=         190     theta[rad]=           1.9897
  C        -0.00519          0.00112        -0.00950
  C         0.08627          0.00029         1.47035
  O         1.01528         -0.00004         2.21436
  H        -1.04057         -0.01389        -0.34097
  H         0.50770          0.88440        -0.39192
  H         0.49305         -0.88663        -0.40232
6
 step=         191     theta[rad]=           2.0001
  C        -0.00519         -0.01981        -0.00950
  C         0.08627         -0.00507         1.47035
  O         1.01528          0.00065         2.21436
  H        -1.04058          0.24670        -0.34093
  H         0.37028          0.90526        -0.48947
  H         0.63051         -0.86575        -0.30475
6
 step=         192     theta[rad]=           2.0106
  C        -0.00518          0.01553        -0.00950
  C         0.08627          0.00398         1.47035
  O         1.01528         -0.00051         2.21436
  H        -1.04056         -0.19342        -0.34099
  H         0.60237          0.87003        -0.32471
  H         0.39835         -0.90101        -0.46954
6
 step=         193     theta[rad]=           2.0211
  C        -0.00519          0.00637        -0.00950
  C         0.08627          0.00163         1.47035
  O         1.01528         -0.00021         2.21436
  H        -1.04057         -0.07934        -0.34098
  H         0.54222          0.87916        -0.36741
  H         0.45852         -0.89187        -0.42683
6
 step=         194     theta[rad]=           2.0316
  C        -0.00519         -0.02105        -0.00951
  C         0.08627         -0.00539         1.47035
  O         1.01528          0.00069         2.21436
  H        -1.04058          0.26206        -0.34093
  H         0.36218          0.90649        -0.49523
  H         0.63862         -0.86452        -0.29899
6
 step=         195     theta[rad]=           2.0420
  C        -0.00518          0.01253        -0.00950
  C         0.08627          0.00321         1.47035
  O         1.01528         -0.00041         2.21436
  H        -1.04056         -0.15596        -0.34099
  H         0.58262          0.87303        -0.33873
  H         0.41811         -0.89801        -0.45552
6
 step=         196     theta[rad]=           2.0525
  C        -0.00518          0.00947        -0.00950
  C         0.08627          0.00243         1.47035
  O         1.01528         -0.00031         2.21436
  H        -1.04056         -0.11798        -0.34098
  H         0.56259          0.87607        -0.35295
  H         0.43814         -0.89496        -0.44129
6
 step=         197     theta[rad]=           2.0630
  C        -0.00519         -0.02130        -0.00951
  C         0.08627         -0.00545         1.47035
  O         1.01528          0.00070         2.21436
  H        -1.04058          0.26520        -0.34093
  H         0.36053          0.90674        -0.49640
  H         0.64027         -0.86427        -0.29782
6
 step=         198     theta[rad]=           2.0735
  C        -0.00518          0.01085        -0.00950
  C         0.08627          0.00278         1.47035
  O         1.01528         -0.00036         2.21436
  H        -1.04056         -0.13506        -0.34099
  H         0.57160          0.87470        -0.34656
  H         0.42913         -0.89633        -0.44769
6
 step=         199     theta[rad]=           2.0839
  C        -0.00518          0.01065        -0.00950
  C         0.08627          0.00273         1.47035
  O         1.01528         -0.00035         2.21436
  H        -1.04056         -0.13267        -0.34099
  H         0.57033          0.87489        -0.34745
  H         0.43039         -0.89614        -0.44679
6
 step=         200     theta[rad]=           2.0944
  C        -0.00519         -0.02131        -0.00951
  C         0.08627         -0.00546         1.47035
  O         1.01528          0.00070         2.21436
  H        -1.04058          0.26533        -0.34093
  H         0.36046          0.90675        -0.49645
  H         0.64034         -0.86426        -0.29777
6
 step=         201     theta[rad]=           2.1049
  C        -0.00518          0.01085        -0.00950
  C         0.08627          0.00278         1.47035
  O         1.01528         -0.00036         2.21436
  H        -1.04056         -0.13506        -0.34099
  H         0.57160          0.87470        -0.34656
  H         0.42913         -0.89633        -0.44769
6
 step=         202     theta[rad]=           2.1153
  C        -0.00518          0.01007        -0.00950
  C         0.08627          0.00258         1.47035
  O         1.01528         -0.00033         2.21436
  H        -1.04056         -0.12538        -0.34099
  H         0.56649          0.87548        -0.35018
  H         0.43423         -0.89556        -0.44407
6
 step=         203     theta[rad]=           2.1258
  C        -0.00519         -0.02127        -0.00951
  C         0.08627         -0.00545         1.47035
  O         1.01528          0.00070         2.21436
  H        -1.04058          0.26481        -0.34093
  H         0.36073          0.90671        -0.49625
  H         0.64006         -0.86430        -0.29796
6
 step=         204     theta[rad]=           2.1363
  C        -0.00518          0.01253        -0.00950
  C         0.08627          0.00321         1.47035
  O         1.01528         -0.00041         2.21436
  H        -1.04056         -0.15596        -0.34099
  H         0.58262          0.87303        -0.33873
  H         0.41811         -0.89801        -0.45552
6
 step=         205     theta[rad]=           2.1468
  C        -0.00518          0.00764        -0.00950
  C         0.08627          0.00196         1.47035
  O         1.01528         -0.00025         2.21436
  H        -1.04057         -0.09509        -0.34098
  H         0.55052          0.87790        -0.36152
  H         0.45022         -0.89313        -0.43272
6
 step=         206     theta[rad]=           2.1572
  C        -0.00519         -0.02080        -0.00951
  C         0.08627         -0.00533         1.47035
  O         1.01528          0.00068         2.21436
  H        -1.04058          0.25894        -0.34093
  H         0.36383          0.90624        -0.49406
  H         0.63697         -0.86477        -0.30016
6
 step=         207     theta[rad]=           2.1677
  C        -0.00518          0.01553        -0.00950
  C         0.08627          0.00398         1.47035
  O         1.01528         -0.00051         2.21436
  H        -1.04056         -0.19342        -0.34099
  H         0.60237          0.87003        -0.32471
  H         0.39835         -0.90101        -0.46954
6
 step=         208     theta[rad]=           2.1782
  C        -0.00519          0.00311        -0.00950
  C         0.08627          0.00080         1.47035
  O         1.01528         -0.00010         2.21436
  H        -1.04057         -0.03876        -0.34097
  H         0.52081          0.88241        -0.38261
  H         0.47993         -0.88862        -0.41163
6
 step=         209     theta[rad]=           2.1886
  C        -0.00519         -0.01899        -0.00950
  C         0.08627         -0.00486         1.47035
  O         1.01528          0.00062         2.21436
  H        -1.04058          0.23641        -0.34094
  H         0.37571          0.90444        -0.48562
  H         0.62508         -0.86657        -0.30860
6
 step=         210     theta[rad]=           2.1991
  C        -0.00518          0.01899        -0.00950
  C         0.08627          0.00486         1.47035
  O         1.01528         -0.00062         2.21436
  H        -1.04056         -0.23641        -0.34100
  H         0.62504          0.86659        -0.30861
  H         0.37567         -0.90445        -0.48564
6
 step=         211     theta[rad]=           2.2096
  C        -0.00519         -0.00355        -0.00950
  C         0.08627         -0.00091         1.47035
  O         1.01528          0.00012         2.21436
  H        -1.04057          0.04425        -0.34096
  H         0.47704          0.88906        -0.41368
  H         0.52372         -0.88197        -0.38055
6
 step=         212     theta[rad]=           2.2201
  C        -0.00519         -0.01459        -0.00950
  C         0.08627         -0.00374         1.47035
  O         1.01528          0.00048         2.21436
  H        -1.04058          0.18163        -0.34094
  H         0.40459          0.90005        -0.46512
  H         0.59619         -0.87096        -0.32911
6
 step=         213     theta[rad]=           2.2305
  C        -0.00518          0.02121        -0.00949
  C         0.08627          0.00543         1.47035
  O         1.01528         -0.00070         2.21436
  H        -1.04056         -0.26415        -0.34100
  H         0.63967          0.86437        -0.29823
  H         0.36103         -0.90668        -0.49603
6
 step=         214     theta[rad]=           2.2410
  C        -0.00519         -0.01161        -0.00950
  C         0.08627         -0.00297         1.47035
  O         1.01528          0.00038         2.21436
  H        -1.04058          0.14451        -0.34095
  H         0.42417          0.89708        -0.45122
  H         0.57661         -0.87394        -0.34301
6
 step=         215     theta[rad]=           2.2515
  C        -0.00519         -0.00658        -0.00950
  C         0.08627         -0.00169         1.47035
  O         1.01528          0.00022         2.21436
  H        -1.04057          0.08199        -0.34096
  H         0.45714          0.89208        -0.42781
  H         0.54363         -0.87895        -0.36642
6
 step=         216     theta[rad]=           2.2619
  C        -0.00518          0.01981        -0.00950
  C         0.08627          0.00507         1.47035
  O         1.01528         -0.00065         2.21436
  H        -1.04056         -0.24670        -0.34100
  H         0.63047          0.86577        -0.30476
  H         0.37024         -0.90528        -0.48949
6
 step=         217     theta[rad]=           2.2724
  C        -0.00519         -0.01878        -0.00950
  C         0.08627         -0.00481         1.47035
  O         1.01528          0.00062         2.21436
  H        -1.04058          0.23384        -0.34094
  H         0.37707          0.90423        -0.48466
  H         0.62373         -0.86678        -0.30956
6
 step=         218     theta[rad]=           2.2829
  C        -0.00519          0.00465        -0.00950
  C         0.08627          0.00119         1.47035
  O         1.01528         -0.00015         2.21436
  H        -1.04057         -0.05788        -0.34098
  H         0.53090          0.88088        -0.37545
  H         0.46984         -0.89015        -0.41879
6
 step=         219     theta[rad]=           2.2934
  C        -0.00518          0.01253        -0.00950
  C         0.08627          0.00321         1.47035
  O         1.01528         -0.00041         2.21436
  H        -1.04056         -0.15596        -0.34099
  H         0.58262          0.87303        -0.33873
  H         0.41811         -0.89801        -0.45552
6
 step=         220     theta[rad]=           2.3038
  C        -0.00519         -0.02119        -0.00951
  C         0.08627         -0.00543         1.47035
  O         1.01528          0.00070         2.21436
  H        -1.04058          0.26388        -0.34093
  H         0.36122          0.90664        -0.49591
  H         0.63957         -0.86437        -0.29831
6
 step=         221     theta[rad]=           2.3143
  C        -0.00518          0.01598        -0.00950
  C         0.08627          0.00409         1.47035
  O         1.01528         -0.00053         2.21436
  H        -1.04056         -0.19903        -0.34100
  H         0.60533          0.86958        -0.32261
  H         0.39539         -0.90146        -0.47164
6
 step=         222     theta[rad]=           2.3248
  C        -0.00519         -0.00067        -0.00950
  C         0.08627         -0.00017         1.47035
  O         1.01528          0.00002         2.21436
  H        -1.04057          0.00833        -0.34097
  H         0.49598          0.88618        -0.40024
  H         0.50477         -0.88485        -0.39400
6
 step=         223     theta[rad]=           2.3353
  C        -0.00519         -0.01491        -0.00950
  C         0.08627         -0.00382         1.47035
  O         1.01528          0.00049         2.21436
  H        -1.04058          0.18564        -0.34094
  H         0.40248          0.90037        -0.46662
  H         0.59830         -0.87064        -0.32761
6
 step=         224     theta[rad]=           2.3457
  C        -0.00518          0.02131        -0.00949
  C         0.08627          0.00546         1.47035
  O         1.01528         -0.00070         2.21436
  H        -1.04056         -0.26533        -0.34100
  H         0.64029          0.86428        -0.29779
  H         0.36041         -0.90677        -0.49647
6
 step=         225     theta[rad]=           2.3562
  C        -0.00519         -0.01507        -0.00950
  C         0.08627         -0.00386         1.47035
  O         1.01528          0.00050         2.21436
  H        -1.04058          0.18762        -0.34094
  H         0.40144          0.90053        -0.46736
  H         0.59935         -0.87048        -0.32687
6
 step=         226     theta[rad]=           2.3667
  C        -0.00519          0.00022        -0.00950
  C         0.08627          0.00006         1.47035
  O         1.01528         -0.00001         2.21436
  H        -1.04057         -0.00278        -0.34097
  H         0.50184          0.88529        -0.39608
  H         0.49891         -0.88574        -0.39816
6
 step=         227     theta[rad]=           2.3771
  C        -0.00518          0.01459        -0.00950
  C         0.08627          0.00374         1.47035
  O         1.01528         -0.00048         2.21436
  H        -1.04056         -0.18163        -0.34099
  H         0.59616          0.87098        -0.32912
  H         0.40456         -0.90006        -0.46513
6
 step=         228     theta[rad]=           2.3876
  C        -0.00519         -0.02127        -0.00951
  C         0.08627         -0.00545         1.47035
  O         1.01528          0.00070         2.21436
  H        -1.04058          0.26481        -0.34093
  H         0.36073          0.90671        -0.49625
  H         0.64006         -0.86430        -0.29796
6
 step=         229     theta[rad]=           2.3981
  C        -0.00518          0.01656        -0.00950
  C         0.08627          0.00424         1.47035
  O         1.01528         -0.00054         2.21436
  H        -1.04056         -0.20620        -0.34100
  H         0.60911          0.86901        -0.31992
  H         0.39160         -0.90203        -0.47433
6
 step=         230     theta[rad]=           2.4086
  C        -0.00519         -0.00333        -0.00950
  C         0.08627         -0.00085         1.47035
  O         1.01528          0.00011         2.21436
  H        -1.04057          0.04151        -0.34096
  H         0.47849          0.88884        -0.41266
  H         0.52227         -0.88219        -0.38158
6
 step=         231     theta[rad]=           2.4190
  C        -0.00519         -0.01142        -0.00950
  C         0.08627         -0.00292         1.47035
  O         1.01528          0.00038         2.21436
  H        -1.04058          0.14217        -0.34095
  H         0.42540          0.89689        -0.45034
  H         0.57537         -0.87412        -0.34388
6
 step=         232     theta[rad]=           2.4295
  C        -0.00518          0.02040        -0.00949
  C         0.08627          0.00522         1.47035
  O         1.01528         -0.00067         2.21436
  H        -1.04056         -0.25401        -0.34100
  H         0.63432          0.86518        -0.30203
  H         0.36638         -0.90586        -0.49223
6
 step=         233     theta[rad]=           2.4400
  C        -0.00519         -0.01956        -0.00950
  C         0.08627         -0.00501         1.47035
  O         1.01528          0.00064         2.21436
  H        -1.04058          0.24351        -0.34093
  H         0.37197          0.90500        -0.48828
  H         0.62883         -0.86601        -0.30594
6
 step=         234     theta[rad]=           2.4504
  C        -0.00518          0.00967        -0.00950
  C         0.08627          0.00248         1.47035
  O         1.01528         -0.00032         2.21436
  H        -1.04056         -0.12046        -0.34098
  H         0.56390          0.87587        -0.35202
  H         0.43683         -0.89516        -0.44222
6
 step=         235     theta[rad]=           2.4609
  C        -0.00519          0.00443        -0.00950
  C         0.08627          0.00113         1.47035
  O         1.01528         -0.00015         2.21436
  H        -1.04057         -0.05517        -0.34098
  H         0.52947          0.88110        -0.37647
  H         0.47127         -0.88993        -0.41777
6
 step=         236     theta[rad]=           2.4714
  C        -0.00519         -0.01642        -0.00950
  C         0.08627         -0.00421         1.47035
  O         1.01528          0.00054         2.21436
  H        -1.04058          0.20444        -0.34094
  H         0.39257          0.90188        -0.47365
  H         0.60822         -0.86914        -0.32057
6
 step=         237     theta[rad]=           2.4819
  C        -0.00518          0.02130        -0.00949
  C         0.08627          0.00546         1.47035
  O         1.01528         -0.00070         2.21436
  H        -1.04056         -0.26520        -0.34100
  H         0.64022          0.86429        -0.29784
  H         0.36048         -0.90676        -0.49642
6
 step=         238     theta[rad]=           2.4923
  C        -0.00519         -0.01737        -0.00950
  C         0.08627         -0.00445         1.47035
  O         1.01528          0.00057         2.21436
  H        -1.04058          0.21628        -0.34094
  H         0.38632          0.90283        -0.47809
  H         0.61446         -0.86819        -0.31614
6
 step=         239     theta[rad]=           2.5028
  C        -0.00519          0.00658        -0.00950
  C         0.08627          0.00169         1.47035
  O         1.01528         -0.00022         2.21436
  H        -1.04057         -0.08199        -0.34098
  H         0.54361          0.87895        -0.36642
  H         0.45712         -0.89208        -0.42782
6
 step=         240     theta[rad]=           2.5133
  C        -0.00519          0.00658        -0.00950
  C         0.08627          0.00169         1.47035
  O         1.01528         -0.00022         2.21436
  H        -1.04057         -0.08199        -0.34098
  H         0.54361          0.87895        -0.36642
  H         0.45712         -0.89208        -0.42782
6
 step=         241     theta[rad]=           2.5237
  C        -0.00519         -0.01711        -0.00950
  C         0.08627         -0.00438         1.47035
  O         1.01528          0.00056         2.21436
  H        -1.04058          0.21301        -0.34094
  H         0.38805          0.90256        -0.47686
  H         0.61274         -0.86845        -0.31736
6
 step=         242     theta[rad]=           2.5342
  C        -0.00518          0.02130        -0.00949
  C         0.08627          0.00546         1.47035
  O         1.01528         -0.00070         2.21436
  H        -1.04056         -0.26520        -0.34100
  H         0.64022          0.86429        -0.29784
  H         0.36048         -0.90676        -0.49642
6
 step=         243     theta[rad]=           2.5447
  C        -0.00519         -0.01799        -0.00950
  C         0.08627         -0.00461         1.47035
  O         1.01528          0.00059         2.21436
  H        -1.04058          0.22403        -0.34094
  H         0.38224          0.90345        -0.48099
  H         0.61855         -0.86757        -0.31323
6
 step=         244     theta[rad]=           2.5552
  C        -0.00518          0.00867        -0.00950
  C         0.08627          0.00222         1.47035
  O         1.01528         -0.00029         2.21436
  H        -1.04056         -0.10792        -0.34098
  H         0.55728          0.87688        -0.35672
  H         0.44345         -0.89416        -0.43753
6
 step=         245     theta[rad]=           2.5656
  C        -0.00519          0.00333        -0.00950
  C         0.08627          0.00085         1.47035
  O         1.01528         -0.00011         2.21436
  H        -1.04057         -0.04151        -0.34097
  H         0.52226          0.88219        -0.38158
  H         0.47848         -0.88884        -0.41266
6
 step=         246     theta[rad]=           2.5761
  C        -0.00519         -0.01409        -0.00950
  C         0.08627         -0.00361         1.47035
  O         1.01528          0.00046         2.21436
  H        -1.04058          0.17547        -0.34094
  H         0.40785          0.89956        -0.46281
  H         0.59294         -0.87146        -0.33142
6
 step=         247     theta[rad]=           2.5866
  C        -0.00518          0.02040        -0.00949
  C         0.08627          0.00522         1.47035
  O         1.01528         -0.00067         2.21436
  H        -1.04056         -0.25401        -0.34100
  H         0.63432          0.86518        -0.30203
  H         0.36638         -0.90586        -0.49223
6
 step=         248     theta[rad]=           2.5970
  C        -0.00519         -0.02064        -0.00951
  C         0.08627         -0.00529         1.47035
  O         1.01528          0.00068         2.21436
  H        -1.04058          0.25699        -0.34093
  H         0.36485          0.90608        -0.49333
  H         0.63594         -0.86493        -0.30089
6
 step=         249     theta[rad]=           2.6075
  C        -0.00518          0.01507        -0.00950
  C         0.08627          0.00386         1.47035
  O         1.01528         -0.00050         2.21436
  H        -1.04056         -0.18762        -0.34099
  H         0.59931          0.87050        -0.32688
  H         0.40141         -0.90054        -0.46737
6
 step=         250     theta[rad]=           2.6180
  C        -0.00519         -0.00552        -0.00950
  C         0.08627         -0.00141         1.47035
  O         1.01528          0.00018         2.21436
  H        -1.04057          0.06867        -0.34096
  H         0.46416          0.89101        -0.42283
  H         0.53660         -0.88001        -0.37141
6
 step=         251     theta[rad]=           2.6285
  C        -0.00519         -0.00530        -0.00950
  C         0.08627         -0.00136         1.47035
  O         1.01528          0.00017         2.21436
  H        -1.04057          0.06599        -0.34096
  H         0.46558          0.89080        -0.42182
  H         0.53518         -0.88023        -0.37241
6
 step=         252     theta[rad]=           2.6389
  C        -0.00518          0.01459        -0.00950
  C         0.08627          0.00374         1.47035
  O         1.01528         -0.00048         2.21436
  H        -1.04056         -0.18163        -0.34099
  H         0.59616          0.87098        -0.32912
  H         0.40456         -0.90006        -0.46513
6
 step=         253     theta[rad]=           2.6494
  C        -0.00519         -0.02020        -0.00951
  C         0.08627         -0.00517         1.47035
  O         1.01528          0.00066         2.21436
  H        -1.04058          0.25147        -0.34093
  H         0.36777          0.90564        -0.49126
  H         0.63303         -0.86537        -0.30296
6
 step=         254     theta[rad]=           2.6599
  C        -0.00518          0.02105        -0.00949
  C         0.08627          0.00539         1.47035
  O         1.01528         -0.00069         2.21436
  H        -1.04056         -0.26206        -0.34100
  H         0.63857          0.86454        -0.29901
  H         0.36213         -0.90651        -0.49525
6
 step=         255     theta[rad]=           2.6704
  C        -0.00519         -0.01724        -0.00950
  C         0.08627         -0.00442         1.47035
  O         1.01528          0.00057         2.21436
  H        -1.04058          0.21466        -0.34094
  H         0.38718          0.90270        -0.47748
  H         0.61361         -0.86832        -0.31674
6
 step=         256     theta[rad]=           2.6808
  C        -0.00518          0.00987        -0.00950
  C         0.08627          0.00253         1.47035
  O         1.01528         -0.00032         2.21436
  H        -1.04056         -0.12293        -0.34099
  H         0.56520          0.87567        -0.35110
  H         0.43553         -0.89536        -0.44315
6
 step=         257     theta[rad]=           2.6913
  C        -0.00519         -0.00067        -0.00950
  C         0.08627         -0.00017         1.47035
  O         1.01528          0.00002         2.21436
  H        -1.04057          0.00833        -0.34097
  H         0.49598          0.88618        -0.40024
  H         0.50477         -0.88485        -0.39400
6
 step=         258     theta[rad]=           2.7018
  C        -0.00519         -0.00846        -0.00950
  C         0.08627         -0.00217         1.47035
  O         1.01528          0.00028         2.21436
  H        -1.04058          0.10538        -0.34095
  H         0.44481          0.89395        -0.43657
  H         0.55596         -0.87707        -0.35766
6
 step=         259     theta[rad]=           2.7122
  C        -0.00518          0.01584        -0.00950
  C         0.08627          0.00406         1.47035
  O         1.01528         -0.00052         2.21436
  H        -1.04056         -0.19718        -0.34100
  H         0.60435          0.86973        -0.32330
  H         0.39636         -0.90131        -0.47095
6
 step=         260     theta[rad]=           2.7227
  C        -0.00519         -0.02027        -0.00951
  C         0.08627         -0.00519         1.47035
  O         1.01528          0.00067         2.21436
  H        -1.04058          0.25234        -0.34093
  H         0.36731          0.90571        -0.49159
  H         0.63349         -0.86530        -0.30263
6
 step=         261     theta[rad]=           2.7332
  C        -0.00518          0.02121        -0.00949
  C         0.08627          0.00543         1.47035
  O         1.01528         -0.00070         2.21436
  H        -1.04056         -0.26415        -0.34100
  H         0.63967          0.86437        -0.29823
  H         0.36103         -0.90668        -0.49603
6
 step=         262     theta[rad]=           2.7437
  C        -0.00519         -0.01878        -0.00950
  C         0.08627         -0.00481         1.47035
  O         1.01528          0.00062         2.21436
  H        -1.04058          0.23384        -0.34094
  H         0.37707          0.90423        -0.48466
  H         0.62373         -0.86678        -0.30956
6
 step=         263     theta[rad]=           2.7541
  C        -0.00518          0.01358        -0.00950
  C         0.08627          0.00348         1.47035
  O         1.01528         -0.00045         2.21436
  H        -1.04056         -0.16913        -0.34099
  H         0.58956          0.87198        -0.33380
  H         0.41116         -0.89906        -0.46045
6
 step=         264     theta[rad]=           2.7646
  C        -0.00519         -0.00658        -0.00950
  C         0.08627         -0.00169         1.47035
  O         1.01528          0.00022         2.21436
  H        -1.04057          0.08199        -0.34096
  H         0.45714          0.89208        -0.42781
  H         0.54363         -0.87895        -0.36642
6
 step=         265     theta[rad]=           2.7751
  C        -0.00519         -0.00112        -0.00950
  C         0.08627         -0.00029         1.47035
  O         1.01528          0.00004         2.21436
  H        -1.04057          0.01389        -0.34097
  H         0.49305          0.88663        -0.40232
  H         0.50770         -0.88440        -0.39192
6
 step=         266     theta[rad]=           2.7855
  C        -0.00518          0.00846        -0.00950
  C         0.08627          0.00217         1.47035
  O         1.01528         -0.00028         2.21436
  H        -1.04056         -0.10538        -0.34098
  H         0.55594          0.87708        -0.35767
  H         0.44479         -0.89396        -0.43658
6
 step=         267     theta[rad]=           2.7960
  C        -0.00519         -0.01459        -0.00950
  C         0.08627         -0.00374         1.47035
  O         1.01528          0.00048         2.21436
  H        -1.04058          0.18163        -0.34094
  H         0.40459          0.90005        -0.46512
  H         0.59619         -0.87096        -0.32911
6
 step=         268     theta[rad]=           2.8065
  C        -0.00518          0.01888        -0.00950
  C         0.08627          0.00484         1.47035
  O         1.01528         -0.00062         2.21436
  H        -1.04056         -0.23514        -0.34100
  H         0.62437          0.86669        -0.30909
  H         0.37634         -0.90435        -0.48516
6
 step=         269     theta[rad]=           2.8170
  C        -0.00519         -0.02105        -0.00951
  C         0.08627         -0.00539         1.47035
  O         1.01528          0.00069         2.21436
  H        -1.04058          0.26206        -0.34093
  H         0.36218          0.90649        -0.49523
  H         0.63862         -0.86452        -0.29899
6
 step=         270     theta[rad]=           2.8274
  C        -0.00518          0.02105        -0.00949
  C         0.08627          0.00539         1.47035
  O         1.01528         -0.00069         2.21436
  H        -1.04056         -0.26206        -0.34100
  H         0.63857          0.86454        -0.29901
  H         0.36213         -0.90651        -0.49525
6
 step=         271     theta[rad]=           2.8379
  C        -0.00519         -0.01909        -0.00950
  C         0.08627         -0.00489         1.47035
  O         1.01528          0.00063         2.21436
  H        -1.04058          0.23766        -0.34094
  H         0.37505          0.90454        -0.48609
  H         0.62574         -0.86647        -0.30813
6
 step=         272     theta[rad]=           2.8484
  C        -0.00518          0.01553        -0.00950
  C         0.08627          0.00398         1.47035
  O         1.01528         -0.00051         2.21436
  H        -1.04056         -0.19342        -0.34099
  H         0.60237          0.87003        -0.32471
  H         0.39835         -0.90101        -0.46954
6
 step=         273     theta[rad]=           2.8588
  C        -0.00519         -0.01085        -0.00950
  C         0.08627         -0.00278         1.47035
  O         1.01528          0.00036         2.21436
  H        -1.04058          0.13506        -0.34095
  H         0.42915          0.89632        -0.44768
  H         0.57162         -0.87469        -0.34655
6
 step=         274     theta[rad]=           2.8693
  C        -0.00519          0.00552        -0.00950
  C         0.08627          0.00141         1.47035
  O         1.01528         -0.00018         2.21436
  H        -1.04057         -0.06867        -0.34098
  H         0.53659          0.88002        -0.37141
  H         0.46415         -0.89102        -0.42283
6
 step=         275     theta[rad]=           2.8798
  C        -0.00519          0.00000        -0.00950
  C         0.08627          0.00000         1.47035
  O         1.01528         -0.00000         2.21436
  H        -1.04057         -0.00000        -0.34097
  H         0.50038          0.88551        -0.39712
  H         0.50038         -0.88551        -0.39712
6
 step=         276     theta[rad]=           2.8903
  C        -0.00519         -0.00530        -0.00950
  C         0.08627         -0.00136         1.47035
  O         1.01528          0.00017         2.21436
  H        -1.04057          0.06599        -0.34096
  H         0.46558          0.89080        -0.42182
  H         0.53518         -0.88023        -0.37241
6
 step=         277     theta[rad]=           2.9007
  C        -0.00518          0.01007        -0.00950
  C         0.08627          0.00258         1.47035
  O         1.01528         -0.00033         2.21436
  H        -1.04056         -0.12538        -0.34099
  H         0.56649          0.87548        -0.35018
  H         0.43423         -0.89556        -0.44407
6
 step=         278     theta[rad]=           2.9112
  C        -0.00519         -0.01409        -0.00950
  C         0.08627         -0.00361         1.47035
  O         1.01528          0.00046         2.21436
  H        -1.04058          0.17547        -0.34094
  H         0.40785          0.89956        -0.46281
  H         0.59294         -0.87146        -0.33142
6
 step=         279     theta[rad]=           2.9217
  C        -0.00518          0.01724        -0.00950
  C         0.08627          0.00442         1.47035
  O         1.01528         -0.00057         2.21436
  H        -1.04056         -0.21466        -0.34100
  H         0.61357          0.86833        -0.31676
  H         0.38714         -0.90271        -0.47749
6
 step=         280     theta[rad]=           2.9322
  C        -0.00519         -0.01947        -0.00950
  C         0.08627         -0.00499         1.47035
  O         1.01528          0.00064         2.21436
  H        -1.04058          0.24239        -0.34094
  H         0.37255          0.90492        -0.48786
  H         0.62824         -0.86610        -0.30636
6
 step=         281     theta[rad]=           2.9426
  C        -0.00518          0.02080        -0.00949
  C         0.08627          0.00533         1.47035
  O         1.01528         -0.00068         2.21436
  H        -1.04056         -0.25894        -0.34100
  H         0.63692          0.86479        -0.30018
  H         0.36378         -0.90626        -0.49408
6
 step=         282     theta[rad]=           2.9531
  C        -0.00519         -0.02130        -0.00951
  C         0.08627         -0.00545         1.47035
  O         1.01528          0.00070         2.21436
  H        -1.04058          0.26520        -0.34093
  H         0.36053          0.90674        -0.49640
  H         0.64027         -0.86427        -0.29782
6
 step=         283     theta[rad]=           2.9636
  C        -0.00518          0.02108        -0.00949
  C         0.08627          0.00540         1.47035
  O         1.01528         -0.00069         2.21436
  H        -1.04056         -0.26248        -0.34100
  H         0.63879          0.86450        -0.29885
  H         0.36191         -0.90654        -0.49540
6
 step=         284     theta[rad]=           2.9740
  C        -0.00519         -0.02027        -0.00951
  C         0.08627         -0.00519         1.47035
  O         1.01528          0.00067         2.21436
  H        -1.04058          0.25234        -0.34093
  H         0.36731          0.90571        -0.49159
  H         0.63349         -0.86530        -0.30263
6
 step=         285     theta[rad]=           2.9845
  C        -0.00518          0.01899        -0.00950
  C         0.08627          0.00486         1.47035
  O         1.01528         -0.00062         2.21436
  H        -1.04056         -0.23641        -0.34100
  H         0.62504          0.86659        -0.30861
  H         0.37567         -0.90445        -0.48564
6
 step=         286     theta[rad]=           2.9950
  C        -0.00519         -0.01737        -0.00950
  C         0.08627         -0.00445         1.47035
  O         1.01528          0.00057         2.21436
  H        -1.04058          0.21628        -0.34094
  H         0.38632          0.90283        -0.47809
  H         0.61446         -0.86819        -0.31614
6
 step=         287     theta[rad]=           3.0055
  C        -0.00518          0.01553        -0.00950
  C         0.08627          0.00398         1.47035
  O         1.01528         -0.00051         2.21436
  H        -1.04056         -0.19342        -0.34099
  H         0.60237          0.87003        -0.32471
  H         0.39835         -0.90101        -0.46954
6
 step=         288     theta[rad]=           3.0159
  C        -0.00519         -0.01358        -0.00950
  C         0.08627         -0.00348         1.47035
  O         1.01528          0.00045         2.21436
  H        -1.04058          0.16913        -0.34095
  H         0.41119          0.89905        -0.46043
  H         0.58959         -0.87196        -0.33379
6
 step=         289     theta[rad]=           3.0264
  C        -0.00518          0.01161        -0.00950
  C         0.08627          0.00297         1.47035
  O         1.01528         -0.00038         2.21436
  H        -1.04056         -0.14451        -0.34099
  H         0.57658          0.87395        -0.34302
  H         0.42415         -0.89709        -0.45123
6
 step=         290     theta[rad]=           3.0369
  C        -0.00519         -0.00967        -0.00950
  C         0.08627         -0.00248         1.47035
  O         1.01528          0.00032         2.21436
  H        -1.04058          0.12046        -0.34095
  H         0.43685          0.89516        -0.44221
  H         0.56392         -0.87586        -0.35201
6
 step=         291     theta[rad]=           3.0473
  C        -0.00518          0.00784        -0.00950
  C         0.08627          0.00201         1.47035
  O         1.01528         -0.00026         2.21436
  H        -1.04057         -0.09767        -0.34098
  H         0.55188          0.87770        -0.36055
  H         0.44885         -0.89334        -0.43369
6
 step=         292     theta[rad]=           3.0578
  C        -0.00519         -0.00616        -0.00950
  C         0.08627         -0.00158         1.47035
  O         1.01528          0.00020         2.21436
  H        -1.04057          0.07669        -0.34096
  H         0.45993          0.89165        -0.42583
  H         0.54083         -0.87937        -0.36840
6
 step=         293     theta[rad]=           3.0683
  C        -0.00519          0.00465        -0.00950
  C         0.08627          0.00119         1.47035
  O         1.01528         -0.00015         2.21436
  H        -1.04057         -0.05788        -0.34098
  H         0.53090          0.88088        -0.37545
  H         0.46984         -0.89015        -0.41879
6
 step=         294     theta[rad]=           3.0788
  C        -0.00519         -0.00333        -0.00950
  C         0.08627         -0.00085         1.47035
  O         1.01528          0.00011         2.21436
  H        -1.04057          0.04151        -0.34096
  H         0.47849          0.88884        -0.41266
  H         0.52227         -0.88219        -0.38158
6
 step=         295     theta[rad]=           3.0892
  C        -0.00519          0.00223        -0.00950
  C         0.08627          0.00057         1.47035
  O         1.01528         -0.00007         2.21436
  H        -1.04057         -0.02773        -0.34097
  H         0.51500          0.88329        -0.38674
  H         0.48574         -0.88774        -0.40750
6
 step=         296     theta[rad]=           3.0997
  C        -0.00519         -0.00134        -0.00950
  C         0.08627         -0.00034         1.47035
  O         1.01528          0.00004         2.21436
  H        -1.04057          0.01666        -0.34097
  H         0.49159          0.88685        -0.40336
  H         0.50916         -0.88418        -0.39088
6
 step=         297     theta[rad]=           3.1102
  C        -0.00519          0.00067        -0.00950
  C         0.08627          0.00017         1.47035
  O         1.01528         -0.00002         2.21436
  H        -1.04057         -0.00833        -0.34097
  H         0.50477          0.88485        -0.39400
  H         0.49598         -0.88618        -0.40024
6
 step=         298     theta[rad]=           3.1206
  C        -0.00519         -0.00022        -0.00950
  C         0.08627         -0.00006         1.47035
  O         1.01528          0.00001         2.21436
  H        -1.04057          0.00278        -0.34097
  H         0.49891          0.88574        -0.39816
  H         0.50184         -0.88529        -0.39608
6
 step=         299     theta[rad]=           3.1311
  C        -0.00519          0.00000        -0.00950
  C         0.08627          0.00000         1.47035
  O         1.01528         -0.00000         2.21436
  H        -1.04057         -0.00000        -0.34097
  H         0.50038          0.88551        -0.39712
  H         0.50038         -0.88551        -0.39712
6
 step=         300     theta[rad]=           3.1416
  C        -0.00519          0.00000        -0.00950
  C         0.08627          0.00000         1.47035
  O         1.01528         -0.00000         2.21436
  H        -1.04057         -0.00000        -0.34097
  H         0.50038          0.88551        -0.39712
  H         0.50038         -0.88551        -0.39712
6
 step=         301     theta[rad]=           3.1521
  C        -0.00519          0.00022        -0.00950
  C         0.08627          0.00006         1.47035
  O         1.01528         -0.00001         2.21436
  H        -1.04057         -0.00278        -0.34097
  H         0.50184          0.88529        -0.39608
  H         0.49891         -0.88574        -0.39816
6
 step=         302     theta[rad]=           3.1625
  C        -0.00519         -0.00067        -0.00950
  C         0.08627         -0.00017         1.47035
  O         1.01528          0.00002         2.21436
  H        -1.04057          0.00833        -0.34097
  H         0.49598          0.88618        -0.40024
  H         0.50477         -0.88485        -0.39400
6
 step=         303     theta[rad]=           3.1730
  C        -0.00519          0.00134        -0.00950
  C         0.08627          0.00034         1.47035
  O         1.01528         -0.00004         2.21436
  H        -1.04057         -0.01666        -0.34097
  H         0.50916          0.88418        -0.39088
  H         0.49159         -0.88685        -0.40336
6
 step=         304     theta[rad]=           3.1835
  C        -0.00519         -0.00223        -0.00950
  C         0.08627         -0.00057         1.47035
  O         1.01528          0.00007         2.21436
  H        -1.04057          0.02773        -0.34096
  H         0.48575          0.88773        -0.40750
  H         0.51501         -0.88329        -0.38673
6
 step=         305     theta[rad]=           3.1940
  C        -0.00519          0.00333        -0.00950
  C         0.08627          0.00085         1.47035
  O         1.01528         -0.00011         2.21436
  H        -1.04057         -0.04151        -0.34097
  H         0.52226          0.88219        -0.38158
  H         0.47848         -0.88884        -0.41266
6
 step=         306     theta[rad]=           3.2044
  C        -0.00519         -0.00465        -0.00950
  C         0.08627         -0.00119         1.47035
  O         1.01528          0.00015         2.21436
  H        -1.04057          0.05788        -0.34096
  H         0.46985          0.89015        -0.41879
  H         0.53091         -0.88088        -0.37545
6
 step=         307     theta[rad]=           3.2149
  C        -0.00519          0.00616        -0.00950
  C         0.08627          0.00158         1.47035
  O         1.01528         -0.00020         2.21436
  H        -1.04057         -0.07669        -0.34098
  H         0.54082          0.87938        -0.36841
  H         0.45992         -0.89166        -0.42583
6
 step=         308     theta[rad]=           3.2254
  C        -0.00519         -0.00784        -0.00950
  C         0.08627         -0.00201         1.47035
  O         1.01528          0.00026         2.21436
  H        -1.04058          0.09767        -0.34095
  H         0.44887          0.89333        -0.43369
  H         0.55190         -0.87769        -0.36055
6
 step=         309     theta[rad]=           3.2358
  C        -0.00518          0.00967        -0.00950
  C         0.08627          0.00248         1.47035
  O         1.01528         -0.00032         2.21436
  H        -1.04056         -0.12046        -0.34098
  H         0.56390          0.87587        -0.35202
  H         0.43683         -0.89516        -0.44222
6
 step=         310     theta[rad]=           3.2463
  C        -0.00519         -0.01161        -0.00950
  C         0.08627         -0.00297         1.47035
  O         1.01528          0.00038         2.21436
  H        -1.04058          0.14451        -0.34095
  H         0.42417          0.89708        -0.45122
  H         0.57661         -0.87394        -0.34301
6
 step=         311     theta[rad]=           3.2568
  C        -0.00518          0.01358        -0.00950
  C         0.08627          0.00348         1.47035
  O         1.01528         -0.00045         2.21436
  H        -1.04056         -0.16913        -0.34099
  H         0.58956          0.87198        -0.33380
  H         0.41116         -0.89906        -0.46045
6
 step=         312     theta[rad]=           3.2673
  C        -0.00519         -0.01553        -0.00950
  C         0.08627         -0.00398         1.47035
  O         1.01528          0.00051         2.21436
  H        -1.04058          0.19342        -0.34094
  H         0.39838          0.90100        -0.46953
  H         0.60240         -0.87002        -0.32470
6
 step=         313     theta[rad]=           3.2777
  C        -0.00518          0.01737        -0.00950
  C         0.08627          0.00445         1.47035
  O         1.01528         -0.00057         2.21436
  H        -1.04056         -0.21628        -0.34100
  H         0.61443          0.86820        -0.31615
  H         0.38629         -0.90284        -0.47810
6
 step=         314     theta[rad]=           3.2882
  C        -0.00519         -0.01899        -0.00950
  C         0.08627         -0.00486         1.47035
  O         1.01528          0.00062         2.21436
  H        -1.04058          0.23641        -0.34094
  H         0.37571          0.90444        -0.48562
  H         0.62508         -0.86657        -0.30860
6
 step=         315     theta[rad]=           3.2987
  C        -0.00518          0.02027        -0.00949
  C         0.08627          0.00519         1.47035
  O         1.01528         -0.00067         2.21436
  H        -1.04056         -0.25234        -0.34100
  H         0.63344          0.86532        -0.30265
  H         0.36726         -0.90573        -0.49161
6
 step=         316     theta[rad]=           3.3091
  C        -0.00519         -0.02108        -0.00951
  C         0.08627         -0.00540         1.47035
  O         1.01528          0.00069         2.21436
  H        -1.04058          0.26248        -0.34093
  H         0.36196          0.90652        -0.49538
  H         0.63884         -0.86449        -0.29883
6
 step=         317     theta[rad]=           3.3196
  C        -0.00518          0.02130        -0.00949
  C         0.08627          0.00546         1.47035
  O         1.01528         -0.00070         2.21436
  H        -1.04056         -0.26520        -0.34100
  H         0.64022          0.86429        -0.29784
  H         0.36048         -0.90676        -0.49642
6
 step=         318     theta[rad]=           3.3301
  C        -0.00519         -0.02080        -0.00951
  C         0.08627         -0.00533         1.47035
  O         1.01528          0.00068         2.21436
  H        -1.04058          0.25894        -0.34093
  H         0.36383          0.90624        -0.49406
  H         0.63697         -0.86477        -0.30016
6
 step=         319     theta[rad]=           3.3406
  C        -0.00518          0.01947        -0.00950
  C         0.08627          0.00499         1.47035
  O         1.01528         -0.00064         2.21436
  H        -1.04056         -0.24239        -0.34100
  H         0.62820          0.86611        -0.30638
  H         0.37251         -0.90493        -0.48788
6
 step=         320     theta[rad]=           3.3510
  C        -0.00519         -0.01724        -0.00950
  C         0.08627         -0.00442         1.47035
  O         1.01528          0.00057         2.21436
  H        -1.04058          0.21466        -0.34094
  H         0.38718          0.90270        -0.47748
  H         0.61361         -0.86832        -0.31674
6
 step=         321     theta[rad]=           3.3615
  C        -0.00518          0.01409        -0.00950
  C         0.08627          0.00361         1.47035
  O         1.01528         -0.00046         2.21436
  H        -1.04056         -0.17547        -0.34099
  H         0.59290          0.87147        -0.33143
  H         0.40782         -0.89957        -0.46282
6
 step=         322     theta[rad]=           3.3720
  C        -0.00519         -0.01007        -0.00950
  C         0.08627         -0.00258         1.47035
  O         1.01528          0.00033         2.21436
  H        -1.04058          0.12538        -0.34095
  H         0.43426          0.89555        -0.44406
  H         0.56652         -0.87547        -0.35017
6
 step=         323     theta[rad]=           3.3824
  C        -0.00519          0.00530        -0.00950
  C         0.08627          0.00136         1.47035
  O         1.01528         -0.00017         2.21436
  H        -1.04057         -0.06599        -0.34098
  H         0.53517          0.88023        -0.37242
  H         0.46557         -0.89080        -0.42183
6
 step=         324     theta[rad]=           3.3929
  C        -0.00519          0.00000        -0.00950
  C         0.08627          0.00000         1.47035
  O         1.01528         -0.00000         2.21436
  H        -1.04057         -0.00000        -0.34097
  H         0.50038          0.88551        -0.39712
  H         0.50038         -0.88551        -0.39712
6
 step=         325     theta[rad]=           3.4034
  C        -0.00519         -0.00552        -0.00950
  C         0.08627         -0.00141         1.47035
  O         1.01528          0.00018         2.21436
  H        -1.04057          0.06867        -0.34096
  H         0.46416          0.89101        -0.42283
  H         0.53660         -0.88001        -0.37141
6
 step=         326     theta[rad]=           3.4139
  C        -0.00518          0.01085        -0.00950
  C         0.08627          0.00278         1.47035
  O         1.01528         -0.00036         2.21436
  H        -1.04056         -0.13506        -0.34099
  H         0.57160          0.87470        -0.34656
  H         0.42913         -0.89633        -0.44769
6
 step=         327     theta[rad]=           3.4243
  C        -0.00519         -0.01553        -0.00950
  C         0.08627         -0.00398         1.47035
  O         1.01528          0.00051         2.21436
  H        -1.04058          0.19342        -0.34094
  H         0.39838          0.90100        -0.46953
  H         0.60240         -0.87002        -0.32470
6
 step=         328     theta[rad]=           3.4348
  C        -0.00518          0.01909        -0.00950
  C         0.08627          0.00489         1.47035
  O         1.01528         -0.00063         2.21436
  H        -1.04056         -0.23766        -0.34100
  H         0.62570          0.86649        -0.30815
  H         0.37501         -0.90455        -0.48611
6
 step=         329     theta[rad]=           3.4453
  C        -0.00519         -0.02105        -0.00951
  C         0.08627         -0.00539         1.47035
  O         1.01528          0.00069         2.21436
  H        -1.04058          0.26206        -0.34093
  H         0.36218          0.90649        -0.49523
  H         0.63862         -0.86452        -0.29899
6
 step=         330     theta[rad]=           3.4558
  C        -0.00518          0.02105        -0.00949
  C         0.08627          0.00539         1.47035
  O         1.01528         -0.00069         2.21436
  H        -1.04056         -0.26206        -0.34100
  H         0.63857          0.86454        -0.29901
  H         0.36213         -0.90651        -0.49525
6
 step=         331     theta[rad]=           3.4662
  C        -0.00519         -0.01888        -0.00950
  C         0.08627         -0.00484         1.47035
  O         1.01528          0.00062         2.21436
  H        -1.04058          0.23514        -0.34094
  H         0.37638          0.90433        -0.48515
  H         0.62441         -0.86668        -0.30907
6
 step=         332     theta[rad]=           3.4767
  C        -0.00518          0.01459        -0.00950
  C         0.08627          0.00374         1.47035
  O         1.01528         -0.00048         2.21436
  H        -1.04056         -0.18163        -0.34099
  H         0.59616          0.87098        -0.32912
  H         0.40456         -0.90006        -0.46513
6
 step=         333     theta[rad]=           3.4872
  C        -0.00519         -0.00846        -0.00950
  C         0.08627         -0.00217         1.47035
  O         1.01528          0.00028         2.21436
  H        -1.04058          0.10538        -0.34095
  H         0.44481          0.89395        -0.43657
  H         0.55596         -0.87707        -0.35766
6
 step=         334     theta[rad]=           3.4976
  C        -0.00519          0.00112        -0.00950
  C         0.08627          0.00029         1.47035
  O         1.01528         -0.00004         2.21436
  H        -1.04057         -0.01389        -0.34097
  H         0.50770          0.88440        -0.39192
  H         0.49305         -0.88663        -0.40232
6
 step=         335     theta[rad]=           3.5081
  C        -0.00519          0.00658        -0.00950
  C         0.08627          0.00169         1.47035
  O         1.01528         -0.00022         2.21436
  H        -1.04057         -0.08199        -0.34098
  H         0.54361          0.87895        -0.36642
  H         0.45712         -0.89208        -0.42782
6
 step=         336     theta[rad]=           3.5186
  C        -0.00519         -0.01358        -0.00950
  C         0.08627         -0.00348         1.47035
  O         1.01528          0.00045         2.21436
  H        -1.04058          0.16913        -0.34095
  H         0.41119          0.89905        -0.46043
  H         0.58959         -0.87196        -0.33379
6
 step=         337     theta[rad]=           3.5291
  C        -0.00518          0.01878        -0.00950
  C         0.08627          0.00481         1.47035
  O         1.01528         -0.00062         2.21436
  H        -1.04056         -0.23384        -0.34100
  H         0.62369          0.86680        -0.30958
  H         0.37702         -0.90425        -0.48468
6
 step=         338     theta[rad]=           3.5395
  C        -0.00519         -0.02121        -0.00951
  C         0.08627         -0.00543         1.47035
  O         1.01528          0.00070         2.21436
  H        -1.04058          0.26415        -0.34093
  H         0.36108          0.90666        -0.49601
  H         0.63972         -0.86435        -0.29821
6
 step=         339     theta[rad]=           3.5500
  C        -0.00518          0.02027        -0.00949
  C         0.08627          0.00519         1.47035
  O         1.01528         -0.00067         2.21436
  H        -1.04056         -0.25234        -0.34100
  H         0.63344          0.86532        -0.30265
  H         0.36726         -0.90573        -0.49161
6
 step=         340     theta[rad]=           3.5605
  C        -0.00519         -0.01584        -0.00950
  C         0.08627         -0.00406         1.47035
  O         1.01528          0.00052         2.21436
  H        -1.04058          0.19718        -0.34094
  H         0.39640          0.90130        -0.47094
  H         0.60439         -0.86972        -0.32329
6
 step=         341     theta[rad]=           3.5709
  C        -0.00518          0.00846        -0.00950
  C         0.08627          0.00217         1.47035
  O         1.01528         -0.00028         2.21436
  H        -1.04056         -0.10538        -0.34098
  H         0.55594          0.87708        -0.35767
  H         0.44479         -0.89396        -0.43658
6
 step=         342     theta[rad]=           3.5814
  C        -0.00519          0.00067        -0.00950
  C         0.08627          0.00017         1.47035
  O         1.01528         -0.00002         2.21436
  H        -1.04057         -0.00833        -0.34097
  H         0.50477          0.88485        -0.39400
  H         0.49598         -0.88618        -0.40024
6
 step=         343     theta[rad]=           3.5919
  C        -0.00519         -0.00987        -0.00950
  C         0.08627         -0.00253         1.47035
  O         1.01528          0.00032         2.21436
  H        -1.04058          0.12293        -0.34095
  H         0.43555          0.89535        -0.44314
  H         0.56522         -0.87567        -0.35109
6
 step=         344     theta[rad]=           3.6024
  C        -0.00518          0.01724        -0.00950
  C         0.08627          0.00442         1.47035
  O         1.01528         -0.00057         2.21436
  H        -1.04056         -0.21466        -0.34100
  H         0.61357          0.86833        -0.31676
  H         0.38714         -0.90271        -0.47749
6
 step=         345     theta[rad]=           3.6128
  C        -0.00519         -0.02105        -0.00951
  C         0.08627         -0.00539         1.47035
  O         1.01528          0.00069         2.21436
  H        -1.04058          0.26206        -0.34093
  H         0.36218          0.90649        -0.49523
  H         0.63862         -0.86452        -0.29899
6
 step=         346     theta[rad]=           3.6233
  C        -0.00518          0.02020        -0.00949
  C         0.08627          0.00517         1.47035
  O         1.01528         -0.00066         2.21436
  H        -1.04056         -0.25147        -0.34100
  H         0.63298          0.86539        -0.30298
  H         0.36772         -0.90566        -0.49128
6
 step=         347     theta[rad]=           3.6338
  C        -0.00519         -0.01459        -0.00950
  C         0.08627         -0.00374         1.47035
  O         1.01528          0.00048         2.21436
  H        -1.04058          0.18163        -0.34094
  H         0.40459          0.90005        -0.46512
  H         0.59619         -0.87096        -0.32911
6
 step=         348     theta[rad]=           3.6442
  C        -0.00519          0.00530        -0.00950
  C         0.08627          0.00136         1.47035
  O         1.01528         -0.00017         2.21436
  H        -1.04057         -0.06599        -0.34098
  H         0.53517          0.88023        -0.37242
  H         0.46557         -0.89080        -0.42183
6
 step=         349     theta[rad]=           3.6547
  C        -0.00519          0.00552        -0.00950
  C         0.08627          0.00141         1.47035
  O         1.01528         -0.00018         2.21436
  H        -1.04057         -0.06867        -0.34098
  H         0.53659          0.88002        -0.37141
  H         0.46415         -0.89102        -0.42283
6
 step=         350     theta[rad]=           3.6652
  C        -0.00519         -0.01507        -0.00950
  C         0.08627         -0.00386         1.47035
  O         1.01528          0.00050         2.21436
  H        -1.04058          0.18762        -0.34094
  H         0.40144          0.90053        -0.46736
  H         0.59935         -0.87048        -0.32687
6
 step=         351     theta[rad]=           3.6757
  C        -0.00518          0.02064        -0.00949
  C         0.08627          0.00529         1.47035
  O         1.01528         -0.00068         2.21436
  H        -1.04056         -0.25700        -0.34100
  H         0.63590          0.86494        -0.30091
  H         0.36481         -0.90610        -0.49335
6
 step=         352     theta[rad]=           3.6861
  C        -0.00519         -0.02040        -0.00951
  C         0.08627         -0.00522         1.47035
  O         1.01528          0.00067         2.21436
  H        -1.04058          0.25401        -0.34093
  H         0.36643          0.90585        -0.49221
  H         0.63437         -0.86517        -0.30201
6
 step=         353     theta[rad]=           3.6966
  C        -0.00518          0.01409        -0.00950
  C         0.08627          0.00361         1.47035
  O         1.01528         -0.00046         2.21436
  H        -1.04056         -0.17547        -0.34099
  H         0.59290          0.87147        -0.33143
  H         0.40782         -0.89957        -0.46282
6
 step=         354     theta[rad]=           3.7071
  C        -0.00519         -0.00333        -0.00950
  C         0.08627         -0.00085         1.47035
  O         1.01528          0.00011         2.21436
  H        -1.04057          0.04151        -0.34096
  H         0.47849          0.88884        -0.41266
  H         0.52227         -0.88219        -0.38158
6
 step=         355     theta[rad]=           3.7176
  C        -0.00519         -0.00867        -0.00950
  C         0.08627         -0.00222         1.47035
  O         1.01528          0.00028         2.21436
  H        -1.04058          0.10792        -0.34095
  H         0.44347          0.89415        -0.43752
  H         0.55730         -0.87687        -0.35671
6
 step=         356     theta[rad]=           3.7280
  C        -0.00518          0.01799        -0.00950
  C         0.08627          0.00461         1.47035
  O         1.01528         -0.00059         2.21436
  H        -1.04056         -0.22403        -0.34100
  H         0.61851          0.86758        -0.31325
  H         0.38220         -0.90346        -0.48100
6
 step=         357     theta[rad]=           3.7385
  C        -0.00519         -0.02130        -0.00951
  C         0.08627         -0.00545         1.47035
  O         1.01528          0.00070         2.21436
  H        -1.04058          0.26520        -0.34093
  H         0.36053          0.90674        -0.49640
  H         0.64027         -0.86427        -0.29782
6
 step=         358     theta[rad]=           3.7490
  C        -0.00518          0.01711        -0.00950
  C         0.08627          0.00438         1.47035
  O         1.01528         -0.00056         2.21436
  H        -1.04056         -0.21301        -0.34100
  H         0.61270          0.86846        -0.31737
  H         0.38801         -0.90258        -0.47688
6
 step=         359     theta[rad]=           3.7594
  C        -0.00519         -0.00658        -0.00950
  C         0.08627         -0.00169         1.47035
  O         1.01528          0.00022         2.21436
  H        -1.04057          0.08199        -0.34096
  H         0.45714          0.89208        -0.42781
  H         0.54363         -0.87895        -0.36642
6
 step=         360     theta[rad]=           3.7699
  C        -0.00519         -0.00658        -0.00950
  C         0.08627         -0.00169         1.47035
  O         1.01528          0.00022         2.21436
  H        -1.04057          0.08199        -0.34096
  H         0.45714          0.89208        -0.42781
  H         0.54363         -0.87895        -0.36642
6
 step=         361     theta[rad]=           3.7804
  C        -0.00518          0.01737        -0.00950
  C         0.08627          0.00445         1.47035
  O         1.01528         -0.00057         2.21436
  H        -1.04056         -0.21628        -0.34100
  H         0.61443          0.86820        -0.31615
  H         0.38629         -0.90284        -0.47810
6
 step=         362     theta[rad]=           3.7909
  C        -0.00519         -0.02130        -0.00951
  C         0.08627         -0.00545         1.47035
  O         1.01528          0.00070         2.21436
  H        -1.04058          0.26520        -0.34093
  H         0.36053          0.90674        -0.49640
  H         0.64027         -0.86427        -0.29782
6
 step=         363     theta[rad]=           3.8013
  C        -0.00518          0.01642        -0.00950
  C         0.08627          0.00421         1.47035
  O         1.01528         -0.00054         2.21436
  H        -1.04056         -0.20444        -0.34100
  H         0.60818          0.86915        -0.32058
  H         0.39253         -0.90189        -0.47367
6
 step=         364     theta[rad]=           3.8118
  C        -0.00519         -0.00443        -0.00950
  C         0.08627         -0.00113         1.47035
  O         1.01528          0.00015         2.21436
  H        -1.04057          0.05517        -0.34096
  H         0.47128          0.88993        -0.41777
  H         0.52948         -0.88109        -0.37646
6
 step=         365     theta[rad]=           3.8223
  C        -0.00519         -0.00967        -0.00950
  C         0.08627         -0.00248         1.47035
  O         1.01528          0.00032         2.21436
  H        -1.04058          0.12046        -0.34095
  H         0.43685          0.89516        -0.44221
  H         0.56392         -0.87586        -0.35201
6
 step=         366     theta[rad]=           3.8327
  C        -0.00518          0.01956        -0.00950
  C         0.08627          0.00501         1.47035
  O         1.01528         -0.00064         2.21436
  H        -1.04056         -0.24351        -0.34100
  H         0.62879          0.86602        -0.30596
  H         0.37192         -0.90502        -0.48830
6
 step=         367     theta[rad]=           3.8432
  C        -0.00519         -0.02040        -0.00951
  C         0.08627         -0.00522         1.47035
  O         1.01528          0.00067         2.21436
  H        -1.04058          0.25401        -0.34093
  H         0.36643          0.90585        -0.49221
  H         0.63437         -0.86517        -0.30201
6
 step=         368     theta[rad]=           3.8537
  C        -0.00518          0.01142        -0.00950
  C         0.08627          0.00292         1.47035
  O         1.01528         -0.00038         2.21436
  H        -1.04056         -0.14217        -0.34099
  H         0.57535          0.87413        -0.34389
  H         0.42538         -0.89690        -0.45035
6
 step=         369     theta[rad]=           3.8642
  C        -0.00519          0.00333        -0.00950
  C         0.08627          0.00085         1.47035
  O         1.01528         -0.00011         2.21436
  H        -1.04057         -0.04151        -0.34097
  H         0.52226          0.88219        -0.38158
  H         0.47848         -0.88884        -0.41266
6
 step=         370     theta[rad]=           3.8746
  C        -0.00519         -0.01656        -0.00950
  C         0.08627         -0.00424         1.47035
  O         1.01528          0.00054         2.21436
  H        -1.04058          0.20620        -0.34094
  H         0.39164          0.90202        -0.47431
  H         0.60915         -0.86899        -0.31991
6
 step=         371     theta[rad]=           3.8851
  C        -0.00518          0.02127        -0.00949
  C         0.08627          0.00545         1.47035
  O         1.01528         -0.00070         2.21436
  H        -1.04056         -0.26481        -0.34100
  H         0.64002          0.86432        -0.29798
  H         0.36069         -0.90673        -0.49627
6
 step=         372     theta[rad]=           3.8956
  C        -0.00519         -0.01459        -0.00950
  C         0.08627         -0.00374         1.47035
  O         1.01528          0.00048         2.21436
  H        -1.04058          0.18163        -0.34094
  H         0.40459          0.90005        -0.46512
  H         0.59619         -0.87096        -0.32911
6
 step=         373     theta[rad]=           3.9060
  C        -0.00519         -0.00022        -0.00950
  C         0.08627         -0.00006         1.47035
  O         1.01528          0.00001         2.21436
  H        -1.04057          0.00278        -0.34097
  H         0.49891          0.88574        -0.39816
  H         0.50184         -0.88529        -0.39608
6
 step=         374     theta[rad]=           3.9165
  C        -0.00518          0.01507        -0.00950
  C         0.08627          0.00386         1.47035
  O         1.01528         -0.00050         2.21436
  H        -1.04056         -0.18762        -0.34099
  H         0.59931          0.87050        -0.32688
  H         0.40141         -0.90054        -0.46737
6
 step=         375     theta[rad]=           3.9270
  C        -0.00519         -0.02131        -0.00951
  C         0.08627         -0.00546         1.47035
  O         1.01528          0.00070         2.21436
  H        -1.04058          0.26533        -0.34093
  H         0.36046          0.90675        -0.49645
  H         0.64034         -0.86426        -0.29777
6
 step=         376     theta[rad]=           3.9375
  C        -0.00518          0.01491        -0.00950
  C         0.08627          0.00382         1.47035
  O         1.01528         -0.00049         2.21436
  H        -1.04056         -0.18564        -0.34099
  H         0.59827          0.87065        -0.32762
  H         0.40245         -0.90039        -0.46663
6
 step=         377     theta[rad]=           3.9479
  C        -0.00519          0.00067        -0.00950
  C         0.08627          0.00017         1.47035
  O         1.01528         -0.00002         2.21436
  H        -1.04057         -0.00833        -0.34097
  H         0.50477          0.88485        -0.39400
  H         0.49598         -0.88618        -0.40024
6
 step=         378     theta[rad]=           3.9584
  C        -0.00519         -0.01598        -0.00950
  C         0.08627         -0.00409         1.47035
  O         1.01528          0.00053         2.21436
  H        -1.04058          0.19903        -0.34094
  H         0.39542          0.90144        -0.47163
  H         0.60536         -0.86957        -0.32260
6
 step=         379     theta[rad]=           3.9689
  C        -0.00518          0.02119        -0.00949
  C         0.08627          0.00543         1.47035
  O         1.01528         -0.00070         2.21436
  H        -1.04056         -0.26388        -0.34100
  H         0.63953          0.86439        -0.29833
  H         0.36118         -0.90665        -0.49592
6
 step=         380     theta[rad]=           3.9794
  C        -0.00519         -0.01253        -0.00950
  C         0.08627         -0.00321         1.47035
  O         1.01528          0.00041         2.21436
  H        -1.04058          0.15596        -0.34095
  H         0.41813          0.89800        -0.45550
  H         0.58264         -0.87302        -0.33872
6
 step=         381     theta[rad]=           3.9898
  C        -0.00519         -0.00465        -0.00950
  C         0.08627         -0.00119         1.47035
  O         1.01528          0.00015         2.21436
  H        -1.04057          0.05788        -0.34096
  H         0.46985          0.89015        -0.41879
  H         0.53091         -0.88088        -0.37545
6
 step=         382     theta[rad]=           4.0003
  C        -0.00518          0.01878        -0.00950
  C         0.08627          0.00481         1.47035
  O         1.01528         -0.00062         2.21436
  H        -1.04056         -0.23384        -0.34100
  H         0.62369          0.86680        -0.30958
  H         0.37702         -0.90425        -0.48468
6
 step=         383     theta[rad]=           4.0108
  C        -0.00519         -0.01981        -0.00950
  C         0.08627         -0.00507         1.47035
  O         1.01528          0.00065         2.21436
  H        -1.04058          0.24670        -0.34093
  H         0.37028          0.90526        -0.48947
  H         0.63051         -0.86575        -0.30475
6
 step=         384     theta[rad]=           4.0212
  C        -0.00519          0.00658        -0.00950
  C         0.08627          0.00169         1.47035
  O         1.01528         -0.00022         2.21436
  H        -1.04057         -0.08199        -0.34098
  H         0.54361          0.87895        -0.36642
  H         0.45712         -0.89208        -0.42782
6
 step=         385     theta[rad]=           4.0317
  C        -0.00518          0.01161        -0.00950
  C         0.08627          0.00297         1.47035
  O         1.01528         -0.00038         2.21436
  H        -1.04056         -0.14451        -0.34099
  H         0.57658          0.87395        -0.34302
  H         0.42415         -0.89709        -0.45123
6
 step=         386     theta[rad]=           4.0422
  C        -0.00519         -0.02121        -0.00951
  C         0.08627         -0.00543         1.47035
  O         1.01528          0.00070         2.21436
  H        -1.04058          0.26415        -0.34093
  H         0.36108          0.90666        -0.49601
  H         0.63972         -0.86435        -0.29821
6
 step=         387     theta[rad]=           4.0527
  C        -0.00518          0.01459        -0.00950
  C         0.08627          0.00374         1.47035
  O         1.01528         -0.00048         2.21436
  H        -1.04056         -0.18163        -0.34099
  H         0.59616          0.87098        -0.32912
  H         0.40456         -0.90006        -0.46513
6
 step=         388     theta[rad]=           4.0631
  C        -0.00519          0.00355        -0.00950
  C         0.08627          0.00091         1.47035
  O         1.01528         -0.00012         2.21436
  H        -1.04057         -0.04425        -0.34097
  H         0.52371          0.88197        -0.38055
  H         0.47703         -0.88906        -0.41369
6
 step=         389     theta[rad]=           4.0736
  C        -0.00519         -0.01899        -0.00950
  C         0.08627         -0.00486         1.47035
  O         1.01528          0.00062         2.21436
  H        -1.04058          0.23641        -0.34094
  H         0.37571          0.90444        -0.48562
  H         0.62508         -0.86657        -0.30860
6
 step=         390     theta[rad]=           4.0841
  C        -0.00518          0.01899        -0.00950
  C         0.08627          0.00486         1.47035
  O         1.01528         -0.00062         2.21436
  H        -1.04056         -0.23641        -0.34100
  H         0.62504          0.86659        -0.30861
  H         0.37567         -0.90445        -0.48564
6
 step=         391     theta[rad]=           4.0945
  C        -0.00519         -0.00311        -0.00950
  C         0.08627         -0.00080         1.47035
  O         1.01528          0.00010         2.21436
  H        -1.04057          0.03876        -0.34096
  H         0.47994          0.88862        -0.41163
  H         0.52082         -0.88241        -0.38261
6
 step=         392     theta[rad]=           4.1050
  C        -0.00519         -0.01553        -0.00950
  C         0.08627         -0.00398         1.47035
  O         1.01528          0.00051         2.21436
  H        -1.04058          0.19342        -0.34094
  H         0.39838          0.90100        -0.46953
  H         0.60240         -0.87002        -0.32470
6
 step=         393     theta[rad]=           4.1155
  C        -0.00518          0.02080        -0.00949
  C         0.08627          0.00533         1.47035
  O         1.01528         -0.00068         2.21436
  H        -1.04056         -0.25894        -0.34100
  H         0.63692          0.86479        -0.30018
  H         0.36378         -0.90626        -0.49408
6
 step=         394     theta[rad]=           4.1260
  C        -0.00519         -0.00764        -0.00950
  C         0.08627         -0.00196         1.47035
  O         1.01528          0.00025         2.21436
  H        -1.04058          0.09509        -0.34096
  H         0.45023          0.89312        -0.43272
  H         0.55053         -0.87790        -0.36151
6
 step=         395     theta[rad]=           4.1364
  C        -0.00519         -0.01253        -0.00950
  C         0.08627         -0.00321         1.47035
  O         1.01528          0.00041         2.21436
  H        -1.04058          0.15596        -0.34095
  H         0.41813          0.89800        -0.45550
  H         0.58264         -0.87302        -0.33872
6
 step=         396     theta[rad]=           4.1469
  C        -0.00518          0.02127        -0.00949
  C         0.08627          0.00545         1.47035
  O         1.01528         -0.00070         2.21436
  H        -1.04056         -0.26481        -0.34100
  H         0.64002          0.86432        -0.29798
  H         0.36069         -0.90673        -0.49627
6
 step=         397     theta[rad]=           4.1574
  C        -0.00519         -0.01007        -0.00950
  C         0.08627         -0.00258         1.47035
  O         1.01528          0.00033         2.21436
  H        -1.04058          0.12538        -0.34095
  H         0.43426          0.89555        -0.44406
  H         0.56652         -0.87547        -0.35017
6
 step=         398     theta[rad]=           4.1678
  C        -0.00519         -0.01085        -0.00950
  C         0.08627         -0.00278         1.47035
  O         1.01528          0.00036         2.21436
  H        -1.04058          0.13506        -0.34095
  H         0.42915          0.89632        -0.44768
  H         0.57162         -0.87469        -0.34655
6
 step=         399     theta[rad]=           4.1783
  C        -0.00518          0.02131        -0.00949
  C         0.08627          0.00546         1.47035
  O         1.01528         -0.00070         2.21436
  H        -1.04056         -0.26533        -0.34100
  H         0.64029          0.86428        -0.29779
  H         0.36041         -0.90677        -0.49647
6
 step=         400     theta[rad]=           4.1888
  C        -0.00519         -0.01065        -0.00950
  C         0.08627         -0.00273         1.47035
  O         1.01528          0.00035         2.21436
  H        -1.04058          0.13267        -0.34095
  H         0.43042          0.89613        -0.44678
  H         0.57036         -0.87489        -0.34744
6
 step=         401     theta[rad]=           4.1993
  C        -0.00519         -0.01085        -0.00950
  C         0.08627         -0.00278         1.47035
  O         1.01528          0.00036         2.21436
  H        -1.04058          0.13506        -0.34095
  H         0.42915          0.89632        -0.44768
  H         0.57162         -0.87469        -0.34655
6
 step=         402     theta[rad]=           4.2097
  C        -0.00518          0.02130        -0.00949
  C         0.08627          0.00546         1.47035
  O         1.01528         -0.00070         2.21436
  H        -1.04056         -0.26520        -0.34100
  H         0.64022          0.86429        -0.29784
  H         0.36048         -0.90676        -0.49642
6
 step=         403     theta[rad]=           4.2202
  C        -0.00519         -0.00947        -0.00950
  C         0.08627         -0.00243         1.47035
  O         1.01528          0.00031         2.21436
  H        -1.04058          0.11798        -0.34095
  H         0.43816          0.89496        -0.44129
  H         0.56261         -0.87606        -0.35294
6
 step=         404     theta[rad]=           4.2307
  C        -0.00519         -0.01253        -0.00950
  C         0.08627         -0.00321         1.47035
  O         1.01528          0.00041         2.21436
  H        -1.04058          0.15596        -0.34095
  H         0.41813          0.89800        -0.45550
  H         0.58264         -0.87302        -0.33872
6
 step=         405     theta[rad]=           4.2412
  C        -0.00518          0.02105        -0.00949
  C         0.08627          0.00539         1.47035
  O         1.01528         -0.00069         2.21436
  H        -1.04056         -0.26206        -0.34100
  H         0.63857          0.86454        -0.29901
  H         0.36213         -0.90651        -0.49525
6
 step=         406     theta[rad]=           4.2516
  C        -0.00519         -0.00637        -0.00950
  C         0.08627         -0.00163         1.47035
  O         1.01528          0.00021         2.21436
  H        -1.04057          0.07934        -0.34096
  H         0.45853          0.89186        -0.42682
  H         0.54223         -0.87916        -0.36741
6
 step=         407     theta[rad]=           4.2621
  C        -0.00519         -0.01553        -0.00950
  C         0.08627         -0.00398         1.47035
  O         1.01528          0.00051         2.21436
  H        -1.04058          0.19342        -0.34094
  H         0.39838          0.90100        -0.46953
  H         0.60240         -0.87002        -0.32470
6
 step=         408     theta[rad]=           4.2726
  C        -0.00518          0.01981        -0.00950
  C         0.08627          0.00507         1.47035
  O         1.01528         -0.00065         2.21436
  H        -1.04056         -0.24670        -0.34100
  H         0.63047          0.86577        -0.30476
  H         0.37024         -0.90528        -0.48949
6
 step=         409     theta[rad]=           4.2830
  C        -0.00519         -0.00112        -0.00950
  C         0.08627         -0.00029         1.47035
  O         1.01528          0.00004         2.21436
  H        -1.04057          0.01389        -0.34097
  H         0.49305          0.88663        -0.40232
  H         0.50770         -0.88440        -0.39192
6
 step=         410     theta[rad]=           4.2935
  C        -0.00519         -0.01899        -0.00950
  C         0.08627         -0.00486         1.47035
  O         1.01528          0.00062         2.21436
  H        -1.04058          0.23641        -0.34094
  H         0.37571          0.90444        -0.48562
  H         0.62508         -0.86657        -0.30860
6
 step=         411     theta[rad]=           4.3040
  C        -0.00518          0.01642        -0.00950
  C         0.08627          0.00421         1.47035
  O         1.01528         -0.00054         2.21436
  H        -1.04056         -0.20444        -0.34100
  H         0.60818          0.86915        -0.32058
  H         0.39253         -0.90189        -0.47367
6
 step=         412     theta[rad]=           4.3145
  C        -0.00519          0.00616        -0.00950
  C         0.08627          0.00158         1.47035
  O         1.01528         -0.00020         2.21436
  H        -1.04057         -0.07669        -0.34098
  H         0.54082          0.87938        -0.36841
  H         0.45992         -0.89166        -0.42583
6
 step=         413     theta[rad]=           4.3249
  C        -0.00519         -0.02121        -0.00951
  C         0.08627         -0.00543         1.47035
  O         1.01528          0.00070         2.21436
  H        -1.04058          0.26415        -0.34093
  H         0.36108          0.90666        -0.49601
  H         0.63972         -0.86435        -0.29821
6
 step=         414     theta[rad]=           4.3354
  C        -0.00518          0.00967        -0.00950
  C         0.08627          0.00248         1.47035
  O         1.01528         -0.00032         2.21436
  H        -1.04056         -0.12046        -0.34098
  H         0.56390          0.87587        -0.35202
  H         0.43683         -0.89516        -0.44222
6
 step=         415     theta[rad]=           4.3459
  C        -0.00518          0.01426        -0.00950
  C         0.08627          0.00365         1.47035
  O         1.01528         -0.00047         2.21436
  H        -1.04056         -0.17754        -0.34099
  H         0.59400          0.87130        -0.33065
  H         0.40672         -0.89974        -0.46360
6
 step=         416     theta[rad]=           4.3563
  C        -0.00519         -0.01981        -0.00950
  C         0.08627         -0.00507         1.47035
  O         1.01528          0.00065         2.21436
  H        -1.04058          0.24670        -0.34093
  H         0.37028          0.90526        -0.48947
  H         0.63051         -0.86575        -0.30475
6
 step=         417     theta[rad]=           4.3668
  C        -0.00519         -0.00067        -0.00950
  C         0.08627         -0.00017         1.47035
  O         1.01528          0.00002         2.21436
  H        -1.04057          0.00833        -0.34097
  H         0.49598          0.88618        -0.40024
  H         0.50477         -0.88485        -0.39400
6
 step=         418     theta[rad]=           4.3773
  C        -0.00518          0.02033        -0.00949
  C         0.08627          0.00521         1.47035
  O         1.01528         -0.00067         2.21436
  H        -1.04056         -0.25319        -0.34100
  H         0.63389          0.86525        -0.30233
  H         0.36682         -0.90580        -0.49192
6
 step=         419     theta[rad]=           4.3878
  C        -0.00519         -0.01253        -0.00950
  C         0.08627         -0.00321         1.47035
  O         1.01528          0.00041         2.21436
  H        -1.04058          0.15596        -0.34095
  H         0.41813          0.89800        -0.45550
  H         0.58264         -0.87302        -0.33872
6
 step=         420     theta[rad]=           4.3982
  C        -0.00519         -0.01253        -0.00950
  C         0.08627         -0.00321         1.47035
  O         1.01528          0.00041         2.21436
  H        -1.04058          0.15596        -0.34095
  H         0.41813          0.89800        -0.45550
  H         0.58264         -0.87302        -0.33872
6
 step=         421     theta[rad]=           4.4087
  C        -0.00518          0.02020        -0.00949
  C         0.08627          0.00517         1.47035
  O         1.01528         -0.00066         2.21436
  H        -1.04056         -0.25147        -0.34100
  H         0.63298          0.86539        -0.30298
  H         0.36772         -0.90566        -0.49128
6
 step=         422     theta[rad]=           4.4192
  C        -0.00519          0.00067        -0.00950
  C         0.08627          0.00017         1.47035
  O         1.01528         -0.00002         2.21436
  H        -1.04057         -0.00833        -0.34097
  H         0.50477          0.88485        -0.39400
  H         0.49598         -0.88618        -0.40024
6
 step=         423     theta[rad]=           4.4296
  C        -0.00519         -0.02064        -0.00951
  C         0.08627         -0.00529         1.47035
  O         1.01528          0.00068         2.21436
  H        -1.04058          0.25699        -0.34093
  H         0.36485          0.90608        -0.49333
  H         0.63594         -0.86493        -0.30089
6
 step=         424     theta[rad]=           4.4401
  C        -0.00518          0.01065        -0.00950
  C         0.08627          0.00273         1.47035
  O         1.01528         -0.00035         2.21436
  H        -1.04056         -0.13267        -0.34099
  H         0.57033          0.87489        -0.34745
  H         0.43039         -0.89614        -0.44679
6
 step=         425     theta[rad]=           4.4506
  C        -0.00518          0.01507        -0.00950
  C         0.08627          0.00386         1.47035
  O         1.01528         -0.00050         2.21436
  H        -1.04056         -0.18762        -0.34099
  H         0.59931          0.87050        -0.32688
  H         0.40141         -0.90054        -0.46737
6
 step=         426     theta[rad]=           4.4611
  C        -0.00519         -0.01834        -0.00950
  C         0.08627         -0.00470         1.47035
  O         1.01528          0.00060         2.21436
  H        -1.04058          0.22838        -0.34094
  H         0.37994          0.90379        -0.48262
  H         0.62085         -0.86722        -0.31160
6
 step=         427     theta[rad]=           4.4715
  C        -0.00519         -0.00616        -0.00950
  C         0.08627         -0.00158         1.47035
  O         1.01528          0.00020         2.21436
  H        -1.04057          0.07669        -0.34096
  H         0.45993          0.89165        -0.42583
  H         0.54083         -0.87937        -0.36840
6
 step=         428     theta[rad]=           4.4820
  C        -0.00518          0.02127        -0.00949
  C         0.08627          0.00545         1.47035
  O         1.01528         -0.00070         2.21436
  H        -1.04056         -0.26481        -0.34100
  H         0.64002          0.86432        -0.29798
  H         0.36069         -0.90673        -0.49627
6
 step=         429     theta[rad]=           4.4925
  C        -0.00519         -0.00333        -0.00950
  C         0.08627         -0.00085         1.47035
  O         1.01528          0.00011         2.21436
  H        -1.04057          0.04151        -0.34096
  H         0.47849          0.88884        -0.41266
  H         0.52227         -0.88219        -0.38158
6
 step=         430     theta[rad]=           4.5029
  C        -0.00519         -0.01989        -0.00950
  C         0.08627         -0.00510         1.47035
  O         1.01528          0.00065         2.21436
  H        -1.04058          0.24771        -0.34093
  H         0.36975          0.90534        -0.48985
  H         0.63104         -0.86567        -0.30437
6
 step=         431     theta[rad]=           4.5134
  C        -0.00518          0.01142        -0.00950
  C         0.08627          0.00292         1.47035
  O         1.01528         -0.00038         2.21436
  H        -1.04056         -0.14217        -0.34099
  H         0.57535          0.87413        -0.34389
  H         0.42538         -0.89690        -0.45035
6
 step=         432     theta[rad]=           4.5239
  C        -0.00518          0.01553        -0.00950
  C         0.08627          0.00398         1.47035
  O         1.01528         -0.00051         2.21436
  H        -1.04056         -0.19342        -0.34099
  H         0.60237          0.87003        -0.32471
  H         0.39835         -0.90101        -0.46954
6
 step=         433     theta[rad]=           4.5344
  C        -0.00519         -0.01711        -0.00950
  C         0.08627         -0.00438         1.47035
  O         1.01528          0.00056         2.21436
  H        -1.04058          0.21301        -0.34094
  H         0.38805          0.90256        -0.47686
  H         0.61274         -0.86845        -0.31736
6
 step=         434     theta[rad]=           4.5448
  C        -0.00519         -0.00967        -0.00950
  C         0.08627         -0.00248         1.47035
  O         1.01528          0.00032         2.21436
  H        -1.04058          0.12046        -0.34095
  H         0.43685          0.89516        -0.44221
  H         0.56392         -0.87586        -0.35201
6
 step=         435     theta[rad]=           4.5553
  C        -0.00518          0.02027        -0.00949
  C         0.08627          0.00519         1.47035
  O         1.01528         -0.00067         2.21436
  H        -1.04056         -0.25234        -0.34100
  H         0.63344          0.86532        -0.30265
  H         0.36726         -0.90573        -0.49161
6
 step=         436     theta[rad]=           4.5658
  C        -0.00519          0.00355        -0.00950
  C         0.08627          0.00091         1.47035
  O         1.01528         -0.00012         2.21436
  H        -1.04057         -0.04425        -0.34097
  H         0.52371          0.88197        -0.38055
  H         0.47703         -0.88906        -0.41369
6
 step=         437     theta[rad]=           4.5763
  C        -0.00519         -0.02130        -0.00951
  C         0.08627         -0.00545         1.47035
  O         1.01528          0.00070         2.21436
  H        -1.04058          0.26520        -0.34093
  H         0.36053          0.90674        -0.49640
  H         0.64027         -0.86427        -0.29782
6
 step=         438     theta[rad]=           4.5867
  C        -0.00519          0.00201        -0.00950
  C         0.08627          0.00051         1.47035
  O         1.01528         -0.00007         2.21436
  H        -1.04057         -0.02497        -0.34097
  H         0.51354          0.88352        -0.38777
  H         0.48720         -0.88751        -0.40647
6
 step=         439     theta[rad]=           4.5972
  C        -0.00518          0.02084        -0.00949
  C         0.08627          0.00534         1.47035
  O         1.01528         -0.00069         2.21436
  H        -1.04056         -0.25953        -0.34100
  H         0.63724          0.86474        -0.29996
  H         0.36347         -0.90631        -0.49430
6
 step=         440     theta[rad]=           4.6077
  C        -0.00519         -0.00658        -0.00950
  C         0.08627         -0.00169         1.47035
  O         1.01528          0.00022         2.21436
  H        -1.04057          0.08199        -0.34096
  H         0.45714          0.89208        -0.42781
  H         0.54363         -0.87895        -0.36642
6
 step=         441     theta[rad]=           4.6181
  C        -0.00519         -0.01956        -0.00950
  C         0.08627         -0.00501         1.47035
  O         1.01528          0.00064         2.21436
  H        -1.04058          0.24351        -0.34093
  H         0.37197          0.90500        -0.48828
  H         0.62883         -0.86601        -0.30594
6
 step=         442     theta[rad]=           4.6286
  C        -0.00518          0.01007        -0.00950
  C         0.08627          0.00258         1.47035
  O         1.01528         -0.00033         2.21436
  H        -1.04056         -0.12538        -0.34099
  H         0.56649          0.87548        -0.35018
  H         0.43423         -0.89556        -0.44407
6
 step=         443     theta[rad]=           4.6391
  C        -0.00518          0.01799        -0.00950
  C         0.08627          0.00461         1.47035
  O         1.01528         -0.00059         2.21436
  H        -1.04056         -0.22403        -0.34100
  H         0.61851          0.86758        -0.31325
  H         0.38220         -0.90346        -0.48100
6
 step=         444     theta[rad]=           4.6496
  C        -0.00519         -0.01253        -0.00950
  C         0.08627         -0.00321         1.47035
  O         1.01528          0.00041         2.21436
  H        -1.04058          0.15596        -0.34095
  H         0.41813          0.89800        -0.45550
  H         0.58264         -0.87302        -0.33872
6
 step=         445     theta[rad]=           4.6600
  C        -0.00519         -0.01656        -0.00950
  C         0.08627         -0.00424         1.47035
  O         1.01528          0.00054         2.21436
  H        -1.04058          0.20620        -0.34094
  H         0.39164          0.90202        -0.47431
  H         0.60915         -0.86899        -0.31991
6
 step=         446     theta[rad]=           4.6705
  C        -0.00518          0.01409        -0.00950
  C         0.08627          0.00361         1.47035
  O         1.01528         -0.00046         2.21436
  H        -1.04056         -0.17547        -0.34099
  H         0.59290          0.87147        -0.33143
  H         0.40782         -0.89957        -0.46282
6
 step=         447     theta[rad]=           4.6810
  C        -0.00518          0.01553        -0.00950
  C         0.08627          0.00398         1.47035
  O         1.01528         -0.00051         2.21436
  H        -1.04056         -0.19342        -0.34099
  H         0.60237          0.87003        -0.32471
  H         0.39835         -0.90101        -0.46954
6
 step=         448     theta[rad]=           4.6914
  C        -0.00519         -0.01491        -0.00950
  C         0.08627         -0.00382         1.47035
  O         1.01528          0.00049         2.21436
  H        -1.04058          0.18564        -0.34094
  H         0.40248          0.90037        -0.46662
  H         0.59830         -0.87064        -0.32761
6
 step=         449     theta[rad]=           4.7019
  C        -0.00519         -0.01507        -0.00950
  C         0.08627         -0.00386         1.47035
  O         1.01528          0.00050         2.21436
  H        -1.04058          0.18762        -0.34094
  H         0.40144          0.90053        -0.46736
  H         0.59935         -0.87048        -0.32687
6
 step=         450     theta[rad]=           4.7124
  C        -0.00518          0.01507        -0.00950
  C         0.08627          0.00386         1.47035
  O         1.01528         -0.00050         2.21436
  H        -1.04056         -0.18762        -0.34099
  H         0.59931          0.87050        -0.32688
  H         0.40141         -0.90054        -0.46737
6
 step=         451     theta[rad]=           4.7229
  C        -0.00518          0.01522        -0.00950
  C         0.08627          0.00390         1.47035
  O         1.01528         -0.00050         2.21436
  H        -1.04056         -0.18957        -0.34099
  H         0.60034          0.87034        -0.32615
  H         0.40037         -0.90070        -0.46810
6
 step=         452     theta[rad]=           4.7333
  C        -0.00519         -0.01459        -0.00950
  C         0.08627         -0.00374         1.47035
  O         1.01528          0.00048         2.21436
  H        -1.04058          0.18163        -0.34094
  H         0.40459          0.90005        -0.46512
  H         0.59619         -0.87096        -0.32911
6
 step=         453     theta[rad]=           4.7438
  C        -0.00519         -0.01598        -0.00950
  C         0.08627         -0.00409         1.47035
  O         1.01528          0.00053         2.21436
  H        -1.04058          0.19903        -0.34094
  H         0.39542          0.90144        -0.47163
  H         0.60536         -0.86957        -0.32260
6
 step=         454     theta[rad]=           4.7543
  C        -0.00518          0.01341        -0.00950
  C         0.08627          0.00343         1.47035
  O         1.01528         -0.00044         2.21436
  H        -1.04056         -0.16698        -0.34099
  H         0.58843          0.87215        -0.33461
  H         0.41229         -0.89889        -0.45964
6
 step=         455     theta[rad]=           4.7647
  C        -0.00518          0.01724        -0.00950
  C         0.08627          0.00442         1.47035
  O         1.01528         -0.00057         2.21436
  H        -1.04056         -0.21466        -0.34100
  H         0.61357          0.86833        -0.31676
  H         0.38714         -0.90271        -0.47749
6
 step=         456     theta[rad]=           4.7752
  C        -0.00519         -0.01142        -0.00950
  C         0.08627         -0.00292         1.47035
  O         1.01528          0.00038         2.21436
  H        -1.04058          0.14217        -0.34095
  H         0.42540          0.89689        -0.45034
  H         0.57537         -0.87412        -0.34388
6
 step=         457     theta[rad]=           4.7857
  C        -0.00519         -0.01878        -0.00950
  C         0.08627         -0.00481         1.47035
  O         1.01528          0.00062         2.21436
  H        -1.04058          0.23384        -0.34094
  H         0.37707          0.90423        -0.48466
  H         0.62373         -0.86678        -0.30956
6
 step=         458     theta[rad]=           4.7962
  C        -0.00518          0.00846        -0.00950
  C         0.08627          0.00217         1.47035
  O         1.01528         -0.00028         2.21436
  H        -1.04056         -0.10538        -0.34098
  H         0.55594          0.87708        -0.35767
  H         0.44479         -0.89396        -0.43658
6
 step=         459     theta[rad]=           4.8066
  C        -0.00518          0.02027        -0.00949
  C         0.08627          0.00519         1.47035
  O         1.01528         -0.00067         2.21436
  H        -1.04056         -0.25234        -0.34100
  H         0.63344          0.86532        -0.30265
  H         0.36726         -0.90573        -0.49161
6
 step=         460     theta[rad]=           4.8171
  C        -0.00519         -0.00443        -0.00950
  C         0.08627         -0.00113         1.47035
  O         1.01528          0.00015         2.21436
  H        -1.04057          0.05517        -0.34096
  H         0.47128          0.88993        -0.41777
  H         0.52948         -0.88109        -0.37646
6
 step=         461     theta[rad]=           4.8276
  C        -0.00519         -0.02121        -0.00951
  C         0.08627         -0.00543         1.47035
  O         1.01528          0.00070         2.21436
  H        -1.04058          0.26415        -0.34093
  H         0.36108          0.90666        -0.49601
  H         0.63972         -0.86435        -0.29821
6
 step=         462     theta[rad]=           4.8381
  C        -0.00519         -0.00067        -0.00950
  C         0.08627         -0.00017         1.47035
  O         1.01528          0.00002         2.21436
  H        -1.04057          0.00833        -0.34097
  H         0.49598          0.88618        -0.40024
  H         0.50477         -0.88485        -0.39400
6
 step=         463     theta[rad]=           4.8485
  C        -0.00518          0.02101        -0.00949
  C         0.08627          0.00538         1.47035
  O         1.01528         -0.00069         2.21436
  H        -1.04056         -0.26162        -0.34100
  H         0.63833          0.86457        -0.29918
  H         0.36237         -0.90647        -0.49508
6
 step=         464     theta[rad]=           4.8590
  C        -0.00519          0.00658        -0.00950
  C         0.08627          0.00169         1.47035
  O         1.01528         -0.00022         2.21436
  H        -1.04057         -0.08199        -0.34098
  H         0.54361          0.87895        -0.36642
  H         0.45712         -0.89208        -0.42782
6
 step=         465     theta[rad]=           4.8695
  C        -0.00519         -0.01899        -0.00950
  C         0.08627         -0.00486         1.47035
  O         1.01528          0.00062         2.21436
  H        -1.04058          0.23641        -0.34094
  H         0.37571          0.90444        -0.48562
  H         0.62508         -0.86657        -0.30860
6
 step=         466     theta[rad]=           4.8799
  C        -0.00519         -0.01270        -0.00950
  C         0.08627         -0.00325         1.47035
  O         1.01528          0.00042         2.21436
  H        -1.04058          0.15820        -0.34095
  H         0.41695          0.89818        -0.45634
  H         0.58383         -0.87284        -0.33788
6
 step=         467     theta[rad]=           4.8904
  C        -0.00518          0.01459        -0.00950
  C         0.08627          0.00374         1.47035
  O         1.01528         -0.00048         2.21436
  H        -1.04056         -0.18163        -0.34099
  H         0.59616          0.87098        -0.32912
  H         0.40456         -0.90006        -0.46513
6
 step=         468     theta[rad]=           4.9009
  C        -0.00518          0.01799        -0.00950
  C         0.08627          0.00461         1.47035
  O         1.01528         -0.00059         2.21436
  H        -1.04056         -0.22403        -0.34100
  H         0.61851          0.86758        -0.31325
  H         0.38220         -0.90346        -0.48100
6
 step=         469     theta[rad]=           4.9114
  C        -0.00519         -0.00764        -0.00950
  C         0.08627         -0.00196         1.47035
  O         1.01528          0.00025         2.21436
  H        -1.04058          0.09509        -0.34096
  H         0.45023          0.89312        -0.43272
  H         0.55053         -0.87790        -0.36151
6
 step=         470     theta[rad]=           4.9218
  C        -0.00519         -0.02105        -0.00951
  C         0.08627         -0.00539         1.47035
  O         1.01528          0.00069         2.21436
  H        -1.04058          0.26206        -0.34093
  H         0.36218          0.90649        -0.49523
  H         0.63862         -0.86452        -0.29899
6
 step=         471     theta[rad]=           4.9323
  C        -0.00519         -0.00134        -0.00950
  C         0.08627         -0.00034         1.47035
  O         1.01528          0.00004         2.21436
  H        -1.04057          0.01666        -0.34097
  H         0.49159          0.88685        -0.40336
  H         0.50916         -0.88418        -0.39088
6
 step=         472     theta[rad]=           4.9428
  C        -0.00518          0.02040        -0.00949
  C         0.08627          0.00522         1.47035
  O         1.01528         -0.00067         2.21436
  H        -1.04056         -0.25401        -0.34100
  H         0.63432          0.86518        -0.30203
  H         0.36638         -0.90586        -0.49223
6
 step=         473     theta[rad]=           4.9532
  C        -0.00518          0.01085        -0.00950
  C         0.08627          0.00278         1.47035
  O         1.01528         -0.00036         2.21436
  H        -1.04056         -0.13506        -0.34099
  H         0.57160          0.87470        -0.34656
  H         0.42913         -0.89633        -0.44769
6
 step=         474     theta[rad]=           4.9637
  C        -0.00519         -0.01507        -0.00950
  C         0.08627         -0.00386         1.47035
  O         1.01528          0.00050         2.21436
  H        -1.04058          0.18762        -0.34094
  H         0.40144          0.90053        -0.46736
  H         0.59935         -0.87048        -0.32687
6
 step=         475     theta[rad]=           4.9742
  C        -0.00519         -0.01845        -0.00950
  C         0.08627         -0.00473         1.47035
  O         1.01528          0.00061         2.21436
  H        -1.04058          0.22978        -0.34094
  H         0.37920          0.90391        -0.48314
  H         0.62159         -0.86711        -0.31108
6
 step=         476     theta[rad]=           4.9847
  C        -0.00519          0.00530        -0.00950
  C         0.08627          0.00136         1.47035
  O         1.01528         -0.00017         2.21436
  H        -1.04057         -0.06599        -0.34098
  H         0.53517          0.88023        -0.37242
  H         0.46557         -0.89080        -0.42183
6
 step=         477     theta[rad]=           4.9951
  C        -0.00518          0.02130        -0.00949
  C         0.08627          0.00546         1.47035
  O         1.01528         -0.00070         2.21436
  H        -1.04056         -0.26520        -0.34100
  H         0.64022          0.86429        -0.29784
  H         0.36048         -0.90676        -0.49642
6
 step=         478     theta[rad]=           5.0056
  C        -0.00518          0.00680        -0.00950
  C         0.08627          0.00174         1.47035
  O         1.01528         -0.00022         2.21436
  H        -1.04057         -0.08463        -0.34098
  H         0.54500          0.87874        -0.36544
  H         0.45573         -0.89229        -0.42881
6
 step=         479     theta[rad]=           5.0161
  C        -0.00519         -0.01724        -0.00950
  C         0.08627         -0.00442         1.47035
  O         1.01528          0.00057         2.21436
  H        -1.04058          0.21466        -0.34094
  H         0.38718          0.90270        -0.47748
  H         0.61361         -0.86832        -0.31674
6
 step=         480     theta[rad]=           5.0265
  C        -0.00519         -0.01724        -0.00950
  C         0.08627         -0.00442         1.47035
  O         1.01528          0.00057         2.21436
  H        -1.04058          0.21466        -0.34094
  H         0.38718          0.90270        -0.47748
  H         0.61361         -0.86832        -0.31674
6
 step=         481     theta[rad]=           5.0370
  C        -0.00519          0.00637        -0.00950
  C         0.08627          0.00163         1.47035
  O         1.01528         -0.00021         2.21436
  H        -1.04057         -0.07934        -0.34098
  H         0.54222          0.87916        -0.36741
  H         0.45852         -0.89187        -0.42683
6
 step=         482     theta[rad]=           5.0475
  C        -0.00518          0.02130        -0.00949
  C         0.08627          0.00546         1.47035
  O         1.01528         -0.00070         2.21436
  H        -1.04056         -0.26520        -0.34100
  H         0.64022          0.86429        -0.29784
  H         0.36048         -0.90676        -0.49642
6
 step=         483     theta[rad]=           5.0580
  C        -0.00518          0.00784        -0.00950
  C         0.08627          0.00201         1.47035
  O         1.01528         -0.00026         2.21436
  H        -1.04057         -0.09767        -0.34098
  H         0.55188          0.87770        -0.36055
  H         0.44885         -0.89334        -0.43369
6
 step=         484     theta[rad]=           5.0684
  C        -0.00519         -0.01584        -0.00950
  C         0.08627         -0.00406         1.47035
  O         1.01528          0.00052         2.21436
  H        -1.04058          0.19718        -0.34094
  H         0.39640          0.90130        -0.47094
  H         0.60439         -0.86972        -0.32329
6
 step=         485     theta[rad]=           5.0789
  C        -0.00519         -0.01899        -0.00950
  C         0.08627         -0.00486         1.47035
  O         1.01528          0.00062         2.21436
  H        -1.04058          0.23641        -0.34094
  H         0.37571          0.90444        -0.48562
  H         0.62508         -0.86657        -0.30860
6
 step=         486     theta[rad]=           5.0894
  C        -0.00519          0.00201        -0.00950
  C         0.08627          0.00051         1.47035
  O         1.01528         -0.00007         2.21436
  H        -1.04057         -0.02497        -0.34097
  H         0.51354          0.88352        -0.38777
  H         0.48720         -0.88751        -0.40647
6
 step=         487     theta[rad]=           5.0999
  C        -0.00518          0.02040        -0.00949
  C         0.08627          0.00522         1.47035
  O         1.01528         -0.00067         2.21436
  H        -1.04056         -0.25401        -0.34100
  H         0.63432          0.86518        -0.30203
  H         0.36638         -0.90586        -0.49223
6
 step=         488     theta[rad]=           5.1103
  C        -0.00518          0.01358        -0.00950
  C         0.08627          0.00348         1.47035
  O         1.01528         -0.00045         2.21436
  H        -1.04056         -0.16913        -0.34099
  H         0.58956          0.87198        -0.33380
  H         0.41116         -0.89906        -0.46045
6
 step=         489     theta[rad]=           5.1208
  C        -0.00519         -0.00967        -0.00950
  C         0.08627         -0.00248         1.47035
  O         1.01528          0.00032         2.21436
  H        -1.04058          0.12046        -0.34095
  H         0.43685          0.89516        -0.44221
  H         0.56392         -0.87586        -0.35201
6
 step=         490     theta[rad]=           5.1313
  C        -0.00519         -0.02128        -0.00951
  C         0.08627         -0.00545         1.47035
  O         1.01528          0.00070         2.21436
  H        -1.04058          0.26497        -0.34093
  H         0.36065          0.90672        -0.49631
  H         0.64015         -0.86429        -0.29790
6
 step=         491     theta[rad]=           5.1417
  C        -0.00519         -0.00784        -0.00950
  C         0.08627         -0.00201         1.47035
  O         1.01528          0.00026         2.21436
  H        -1.04058          0.09767        -0.34095
  H         0.44887          0.89333        -0.43369
  H         0.55190         -0.87769        -0.36055
6
 step=         492     theta[rad]=           5.1522
  C        -0.00518          0.01459        -0.00950
  C         0.08627          0.00374         1.47035
  O         1.01528         -0.00048         2.21436
  H        -1.04056         -0.18163        -0.34099
  H         0.59616          0.87098        -0.32912
  H         0.40456         -0.90006        -0.46513
6
 step=         493     theta[rad]=           5.1627
  C        -0.00518          0.02033        -0.00949
  C         0.08627          0.00521         1.47035
  O         1.01528         -0.00067         2.21436
  H        -1.04056         -0.25319        -0.34100
  H         0.63389          0.86525        -0.30233
  H         0.36682         -0.90580        -0.49192
6
 step=         494     theta[rad]=           5.1732
  C        -0.00519          0.00333        -0.00950
  C         0.08627          0.00085         1.47035
  O         1.01528         -0.00011         2.21436
  H        -1.04057         -0.04151        -0.34097
  H         0.52226          0.88219        -0.38158
  H         0.47848         -0.88884        -0.41266
6
 step=         495     theta[rad]=           5.1836
  C        -0.00519         -0.01724        -0.00950
  C         0.08627         -0.00442         1.47035
  O         1.01528          0.00057         2.21436
  H        -1.04058          0.21466        -0.34094
  H         0.38718          0.90270        -0.47748
  H         0.61361         -0.86832        -0.31674
6
 step=         496     theta[rad]=           5.1941
  C        -0.00519         -0.01909        -0.00950
  C         0.08627         -0.00489         1.47035
  O         1.01528          0.00063         2.21436
  H        -1.04058          0.23766        -0.34094
  H         0.37505          0.90454        -0.48609
  H         0.62574         -0.86647        -0.30813
6
 step=         497     theta[rad]=           5.2046
  C        -0.00519         -0.00067        -0.00950
  C         0.08627         -0.00017         1.47035
  O         1.01528          0.00002         2.21436
  H        -1.04057          0.00833        -0.34097
  H         0.49598          0.88618        -0.40024
  H         0.50477         -0.88485        -0.39400
6
 step=         498     theta[rad]=           5.2150
  C        -0.00518          0.01834        -0.00950
  C         0.08627          0.00470         1.47035
  O         1.01528         -0.00060         2.21436
  H        -1.04056         -0.22838        -0.34100
  H         0.62081          0.86723        -0.31162
  H         0.37990         -0.90381        -0.48263
6
 step=         499     theta[rad]=           5.2255
  C        -0.00518          0.01845        -0.00950
  C         0.08627          0.00473         1.47035
  O         1.01528         -0.00061         2.21436
  H        -1.04056         -0.22978        -0.34100
  H         0.62155          0.86712        -0.31110
  H         0.37916         -0.90392        -0.48316
6
 step=         500     theta[rad]=           5.2360
  C        -0.00519          0.00000        -0.00950
  C         0.08627          0.00000         1.47035
  O         1.01528         -0.00000         2.21436
  H        -1.04057         -0.00000        -0.34097
  H         0.50038          0.88551        -0.39712
  H         0.50038         -0.88551        -0.39712
6
 step=         501     theta[rad]=           5.2465
  C        -0.00519         -0.01834        -0.00950
  C         0.08627         -0.00470         1.47035
  O         1.01528          0.00060         2.21436
  H        -1.04058          0.22838        -0.34094
  H         0.37994          0.90379        -0.48262
  H         0.62085         -0.86722        -0.31160
6
 step=         502     theta[rad]=           5.2569
  C        -0.00519         -0.01878        -0.00950
  C         0.08627         -0.00481         1.47035
  O         1.01528          0.00062         2.21436
  H        -1.04058          0.23384        -0.34094
  H         0.37707          0.90423        -0.48466
  H         0.62373         -0.86678        -0.30956
6
 step=         503     theta[rad]=           5.2674
  C        -0.00519         -0.00134        -0.00950
  C         0.08627         -0.00034         1.47035
  O         1.01528          0.00004         2.21436
  H        -1.04057          0.01666        -0.34097
  H         0.49159          0.88685        -0.40336
  H         0.50916         -0.88418        -0.39088
6
 step=         504     theta[rad]=           5.2779
  C        -0.00518          0.01724        -0.00950
  C         0.08627          0.00442         1.47035
  O         1.01528         -0.00057         2.21436
  H        -1.04056         -0.21466        -0.34100
  H         0.61357          0.86833        -0.31676
  H         0.38714         -0.90271        -0.47749
6
 step=         505     theta[rad]=           5.2883
  C        -0.00518          0.01989        -0.00950
  C         0.08627          0.00510         1.47035
  O         1.01528         -0.00065         2.21436
  H        -1.04056         -0.24771        -0.34100
  H         0.63100          0.86569        -0.30439
  H         0.36971         -0.90536        -0.48987
6
 step=         506     theta[rad]=           5.2988
  C        -0.00519          0.00465        -0.00950
  C         0.08627          0.00119         1.47035
  O         1.01528         -0.00015         2.21436
  H        -1.04057         -0.05788        -0.34098
  H         0.53090          0.88088        -0.37545
  H         0.46984         -0.89015        -0.41879
6
 step=         507     theta[rad]=           5.3093
  C        -0.00519         -0.01459        -0.00950
  C         0.08627         -0.00374         1.47035
  O         1.01528          0.00048         2.21436
  H        -1.04058          0.18163        -0.34094
  H         0.40459          0.90005        -0.46512
  H         0.59619         -0.87096        -0.32911
6
 step=         508     theta[rad]=           5.3198
  C        -0.00519         -0.02108        -0.00951
  C         0.08627         -0.00540         1.47035
  O         1.01528          0.00069         2.21436
  H        -1.04058          0.26248        -0.34093
  H         0.36196          0.90652        -0.49538
  H         0.63884         -0.86449        -0.29883
6
 step=         509     theta[rad]=           5.3302
  C        -0.00519         -0.00967        -0.00950
  C         0.08627         -0.00248         1.47035
  O         1.01528          0.00032         2.21436
  H        -1.04058          0.12046        -0.34095
  H         0.43685          0.89516        -0.44221
  H         0.56392         -0.87586        -0.35201
6
 step=         510     theta[rad]=           5.3407
  C        -0.00518          0.00967        -0.00950
  C         0.08627          0.00248         1.47035
  O         1.01528         -0.00032         2.21436
  H        -1.04056         -0.12046        -0.34098
  H         0.56390          0.87587        -0.35202
  H         0.43683         -0.89516        -0.44222
6
 step=         511     theta[rad]=           5.3512
  C        -0.00518          0.02101        -0.00949
  C         0.08627          0.00538         1.47035
  O         1.01528         -0.00069         2.21436
  H        -1.04056         -0.26162        -0.34100
  H         0.63833          0.86457        -0.29918
  H         0.36237         -0.90647        -0.49508
6
 step=         512     theta[rad]=           5.3617
  C        -0.00518          0.01553        -0.00950
  C         0.08627          0.00398         1.47035
  O         1.01528         -0.00051         2.21436
  H        -1.04056         -0.19342        -0.34099
  H         0.60237          0.87003        -0.32471
  H         0.39835         -0.90101        -0.46954
6
 step=         513     theta[rad]=           5.3721
  C        -0.00519         -0.00201        -0.00950
  C         0.08627         -0.00051         1.47035
  O         1.01528          0.00007         2.21436
  H        -1.04057          0.02497        -0.34096
  H         0.48721          0.88751        -0.40647
  H         0.51355         -0.88351        -0.38777
6
 step=         514     theta[rad]=           5.3826
  C        -0.00519         -0.01787        -0.00950
  C         0.08627         -0.00458         1.47035
  O         1.01528          0.00059         2.21436
  H        -1.04058          0.22253        -0.34094
  H         0.38303          0.90333        -0.48042
  H         0.61776         -0.86769        -0.31380
6
 step=         515     theta[rad]=           5.3931
  C        -0.00519         -0.02027        -0.00951
  C         0.08627         -0.00519         1.47035
  O         1.01528          0.00067         2.21436
  H        -1.04058          0.25234        -0.34093
  H         0.36731          0.90571        -0.49159
  H         0.63349         -0.86530        -0.30263
6
 step=         516     theta[rad]=           5.4035
  C        -0.00519         -0.00784        -0.00950
  C         0.08627         -0.00201         1.47035
  O         1.01528          0.00026         2.21436
  H        -1.04058          0.09767        -0.34095
  H         0.44887          0.89333        -0.43369
  H         0.55190         -0.87769        -0.36055
6
 step=         517     theta[rad]=           5.4140
  C        -0.00518          0.01007        -0.00950
  C         0.08627          0.00258         1.47035
  O         1.01528         -0.00033         2.21436
  H        -1.04056         -0.12538        -0.34099
  H         0.56649          0.87548        -0.35018
  H         0.43423         -0.89556        -0.44407
6
 step=         518     theta[rad]=           5.4245
  C        -0.00518          0.02080        -0.00949
  C         0.08627          0.00533         1.47035
  O         1.01528         -0.00068         2.21436
  H        -1.04056         -0.25894        -0.34100
  H         0.63692          0.86479        -0.30018
  H         0.36378         -0.90626        -0.49408
6
 step=         519     theta[rad]=           5.4350
  C        -0.00518          0.01724        -0.00950
  C         0.08627          0.00442         1.47035
  O         1.01528         -0.00057         2.21436
  H        -1.04056         -0.21466        -0.34100
  H         0.61357          0.86833        -0.31676
  H         0.38714         -0.90271        -0.47749
6
 step=         520     theta[rad]=           5.4454
  C        -0.00519          0.00223        -0.00950
  C         0.08627          0.00057         1.47035
  O         1.01528         -0.00007         2.21436
  H        -1.04057         -0.02773        -0.34097
  H         0.51500          0.88329        -0.38674
  H         0.48574         -0.88774        -0.40750
6
 step=         521     theta[rad]=           5.4559
  C        -0.00519         -0.01409        -0.00950
  C         0.08627         -0.00361         1.47035
  O         1.01528          0.00046         2.21436
  H        -1.04058          0.17547        -0.34094
  H         0.40785          0.89956        -0.46281
  H         0.59294         -0.87146        -0.33142
6
 step=         522     theta[rad]=           5.4664
  C        -0.00519         -0.02130        -0.00951
  C         0.08627         -0.00545         1.47035
  O         1.01528          0.00070         2.21436
  H        -1.04058          0.26520        -0.34093
  H         0.36053          0.90674        -0.49640
  H         0.64027         -0.86427        -0.29782
6
 step=         523     theta[rad]=           5.4768
  C        -0.00519         -0.01522        -0.00950
  C         0.08627         -0.00390         1.47035
  O         1.01528          0.00050         2.21436
  H        -1.04058          0.18957        -0.34094
  H         0.40041          0.90069        -0.46809
  H         0.60038         -0.87033        -0.32614
6
 step=         524     theta[rad]=           5.4873
  C        -0.00519          0.00000        -0.00950
  C         0.08627          0.00000         1.47035
  O         1.01528         -0.00000         2.21436
  H        -1.04057         -0.00000        -0.34097
  H         0.50038          0.88551        -0.39712
  H         0.50038         -0.88551        -0.39712
6
 step=         525     theta[rad]=           5.4978
  C        -0.00518          0.01507        -0.00950
  C         0.08627          0.00386         1.47035
  O         1.01528         -0.00050         2.21436
  H        -1.04056         -0.18762        -0.34099
  H         0.59931          0.87050        -0.32688
  H         0.40141         -0.90054        -0.46737
6
 step=         526     theta[rad]=           5.5083
  C        -0.00518          0.02131        -0.00949
  C         0.08627          0.00546         1.47035
  O         1.01528         -0.00070         2.21436
  H        -1.04056         -0.26532        -0.34100
  H         0.64029          0.86428        -0.29779
  H         0.36042         -0.90677        -0.49646
6
 step=         527     theta[rad]=           5.5187
  C        -0.00518          0.01553        -0.00950
  C         0.08627          0.00398         1.47035
  O         1.01528         -0.00051         2.21436
  H        -1.04056         -0.19342        -0.34099
  H         0.60237          0.87003        -0.32471
  H         0.39835         -0.90101        -0.46954
6
 step=         528     theta[rad]=           5.5292
  C        -0.00519          0.00134        -0.00950
  C         0.08627          0.00034         1.47035
  O         1.01528         -0.00004         2.21436
  H        -1.04057         -0.01666        -0.34097
  H         0.50916          0.88418        -0.39088
  H         0.49159         -0.88685        -0.40336
6
 step=         529     theta[rad]=           5.5397
  C        -0.00519         -0.01341        -0.00950
  C         0.08627         -0.00343         1.47035
  O         1.01528          0.00044         2.21436
  H        -1.04058          0.16698        -0.34095
  H         0.41232          0.89888        -0.45963
  H         0.58846         -0.87214        -0.33460
6
 step=         530     theta[rad]=           5.5501
  C        -0.00519         -0.02105        -0.00951
  C         0.08627         -0.00539         1.47035
  O         1.01528          0.00069         2.21436
  H        -1.04058          0.26206        -0.34093
  H         0.36218          0.90649        -0.49523
  H         0.63862         -0.86452        -0.29899
6
 step=         531     theta[rad]=           5.5606
  C        -0.00519         -0.01799        -0.00950
  C         0.08627         -0.00461         1.47035
  O         1.01528          0.00059         2.21436
  H        -1.04058          0.22403        -0.34094
  H         0.38224          0.90345        -0.48099
  H         0.61855         -0.86757        -0.31323
6
 step=         532     theta[rad]=           5.5711
  C        -0.00519         -0.00616        -0.00950
  C         0.08627         -0.00158         1.47035
  O         1.01528          0.00020         2.21436
  H        -1.04057          0.07669        -0.34096
  H         0.45993          0.89165        -0.42583
  H         0.54083         -0.87937        -0.36840
6
 step=         533     theta[rad]=           5.5816
  C        -0.00518          0.00846        -0.00950
  C         0.08627          0.00217         1.47035
  O         1.01528         -0.00028         2.21436
  H        -1.04056         -0.10538        -0.34098
  H         0.55594          0.87708        -0.35767
  H         0.44479         -0.89396        -0.43658
6
 step=         534     theta[rad]=           5.5920
  C        -0.00518          0.01899        -0.00950
  C         0.08627          0.00486         1.47035
  O         1.01528         -0.00062         2.21436
  H        -1.04056         -0.23641        -0.34100
  H         0.62504          0.86659        -0.30861
  H         0.37567         -0.90445        -0.48564
6
 step=         535     theta[rad]=           5.6025
  C        -0.00518          0.02084        -0.00949
  C         0.08627          0.00534         1.47035
  O         1.01528         -0.00069         2.21436
  H        -1.04056         -0.25953        -0.34100
  H         0.63724          0.86474        -0.29996
  H         0.36347         -0.90631        -0.49430
6
 step=         536     theta[rad]=           5.6130
  C        -0.00518          0.01358        -0.00950
  C         0.08627          0.00348         1.47035
  O         1.01528         -0.00045         2.21436
  H        -1.04056         -0.16913        -0.34099
  H         0.58956          0.87198        -0.33380
  H         0.41116         -0.89906        -0.46045
6
 step=         537     theta[rad]=           5.6235
  C        -0.00519          0.00067        -0.00950
  C         0.08627          0.00017         1.47035
  O         1.01528         -0.00002         2.21436
  H        -1.04057         -0.00833        -0.34097
  H         0.50477          0.88485        -0.39400
  H         0.49598         -0.88618        -0.40024
6
 step=         538     theta[rad]=           5.6339
  C        -0.00519         -0.01234        -0.00950
  C         0.08627         -0.00316         1.47035
  O         1.01528          0.00041         2.21436
  H        -1.04058          0.15370        -0.34095
  H         0.41932          0.89782        -0.45466
  H         0.58145         -0.87320        -0.33957
6
 step=         539     theta[rad]=           5.6444
  C        -0.00519         -0.02027        -0.00951
  C         0.08627         -0.00519         1.47035
  O         1.01528          0.00067         2.21436
  H        -1.04058          0.25234        -0.34093
  H         0.36731          0.90571        -0.49159
  H         0.63349         -0.86530        -0.30263
6
 step=         540     theta[rad]=           5.6549
  C        -0.00519         -0.02027        -0.00951
  C         0.08627         -0.00519         1.47035
  O         1.01528          0.00067         2.21436
  H        -1.04058          0.25234        -0.34093
  H         0.36731          0.90571        -0.49159
  H         0.63349         -0.86530        -0.30263
6
 step=         541     theta[rad]=           5.6653
  C        -0.00519         -0.01270        -0.00950
  C         0.08627         -0.00325         1.47035
  O         1.01528          0.00042         2.21436
  H        -1.04058          0.15820        -0.34095
  H         0.41695          0.89818        -0.45634
  H         0.58383         -0.87284        -0.33788
6
 step=         542     theta[rad]=           5.6758
  C        -0.00519         -0.00067        -0.00950
  C         0.08627         -0.00017         1.47035
  O         1.01528          0.00002         2.21436
  H        -1.04057          0.00833        -0.34097
  H         0.49598          0.88618        -0.40024
  H         0.50477         -0.88485        -0.39400
6
 step=         543     theta[rad]=           5.6863
  C        -0.00518          0.01142        -0.00950
  C         0.08627          0.00292         1.47035
  O         1.01528         -0.00038         2.21436
  H        -1.04056         -0.14217        -0.34099
  H         0.57535          0.87413        -0.34389
  H         0.42538         -0.89690        -0.45035
6
 step=         544     theta[rad]=           5.6968
  C        -0.00518          0.01947        -0.00950
  C         0.08627          0.00499         1.47035
  O         1.01528         -0.00064         2.21436
  H        -1.04056         -0.24239        -0.34100
  H         0.62820          0.86611        -0.30638
  H         0.37251         -0.90493        -0.48788
6
 step=         545     theta[rad]=           5.7072
  C        -0.00518          0.02105        -0.00949
  C         0.08627          0.00539         1.47035
  O         1.01528         -0.00069         2.21436
  H        -1.04056         -0.26206        -0.34100
  H         0.63857          0.86454        -0.29901
  H         0.36213         -0.90651        -0.49525
6
 step=         546     theta[rad]=           5.7177
  C        -0.00518          0.01598        -0.00950
  C         0.08627          0.00409         1.47035
  O         1.01528         -0.00053         2.21436
  H        -1.04056         -0.19903        -0.34100
  H         0.60533          0.86958        -0.32261
  H         0.39539         -0.90146        -0.47164
6
 step=         547     theta[rad]=           5.7282
  C        -0.00519          0.00616        -0.00950
  C         0.08627          0.00158         1.47035
  O         1.01528         -0.00020         2.21436
  H        -1.04057         -0.07669        -0.34098
  H         0.54082          0.87938        -0.36841
  H         0.45992         -0.89166        -0.42583
6
 step=         548     theta[rad]=           5.7386
  C        -0.00519         -0.00530        -0.00950
  C         0.08627         -0.00136         1.47035
  O         1.01528          0.00017         2.21436
  H        -1.04057          0.06599        -0.34096
  H         0.46558          0.89080        -0.42182
  H         0.53518         -0.88023        -0.37241
6
 step=         549     theta[rad]=           5.7491
  C        -0.00519         -0.01507        -0.00950
  C         0.08627         -0.00386         1.47035
  O         1.01528          0.00050         2.21436
  H        -1.04058          0.18762        -0.34094
  H         0.40144          0.90053        -0.46736
  H         0.59935         -0.87048        -0.32687
6
 step=         550     theta[rad]=           5.7596
  C        -0.00519         -0.02058        -0.00951
  C         0.08627         -0.00527         1.47035
  O         1.01528          0.00068         2.21436
  H        -1.04058          0.25629        -0.34093
  H         0.36523          0.90603        -0.49307
  H         0.63557         -0.86498        -0.30115
6
 step=         551     theta[rad]=           5.7701
  C        -0.00519         -0.02064        -0.00951
  C         0.08627         -0.00529         1.47035
  O         1.01528          0.00068         2.21436
  H        -1.04058          0.25699        -0.34093
  H         0.36485          0.90608        -0.49333
  H         0.63594         -0.86493        -0.30089
6
 step=         552     theta[rad]=           5.7805
  C        -0.00519         -0.01553        -0.00950
  C         0.08627         -0.00398         1.47035
  O         1.01528          0.00051         2.21436
  H        -1.04058          0.19342        -0.34094
  H         0.39838          0.90100        -0.46953
  H         0.60240         -0.87002        -0.32470
6
 step=         553     theta[rad]=           5.7910
  C        -0.00519         -0.00680        -0.00950
  C         0.08627         -0.00174         1.47035
  O         1.01528          0.00022         2.21436
  H        -1.04057          0.08463        -0.34096
  H         0.45575          0.89229        -0.42880
  H         0.54502         -0.87873        -0.36543
6
 step=         554     theta[rad]=           5.8015
  C        -0.00519          0.00333        -0.00950
  C         0.08627          0.00085         1.47035
  O         1.01528         -0.00011         2.21436
  H        -1.04057         -0.04151        -0.34097
  H         0.52226          0.88219        -0.38158
  H         0.47848         -0.88884        -0.41266
6
 step=         555     theta[rad]=           5.8119
  C        -0.00518          0.01253        -0.00950
  C         0.08627          0.00321         1.47035
  O         1.01528         -0.00041         2.21436
  H        -1.04056         -0.15596        -0.34099
  H         0.58262          0.87303        -0.33873
  H         0.41811         -0.89801        -0.45552
6
 step=         556     theta[rad]=           5.8224
  C        -0.00518          0.01888        -0.00950
  C         0.08627          0.00484         1.47035
  O         1.01528         -0.00062         2.21436
  H        -1.04056         -0.23514        -0.34100
  H         0.62437          0.86669        -0.30909
  H         0.37634         -0.90435        -0.48516
6
 step=         557     theta[rad]=           5.8329
  C        -0.00518          0.02130        -0.00949
  C         0.08627          0.00546         1.47035
  O         1.01528         -0.00070         2.21436
  H        -1.04056         -0.26520        -0.34100
  H         0.64022          0.86429        -0.29784
  H         0.36048         -0.90676        -0.49642
6
 step=         558     theta[rad]=           5.8434
  C        -0.00518          0.01956        -0.00950
  C         0.08627          0.00501         1.47035
  O         1.01528         -0.00064         2.21436
  H        -1.04056         -0.24351        -0.34100
  H         0.62879          0.86602        -0.30596
  H         0.37192         -0.90502        -0.48830
6
 step=         559     theta[rad]=           5.8538
  C        -0.00518          0.01426        -0.00950
  C         0.08627          0.00365         1.47035
  O         1.01528         -0.00047         2.21436
  H        -1.04056         -0.17754        -0.34099
  H         0.59400          0.87130        -0.33065
  H         0.40672         -0.89974        -0.46360
6
 step=         560     theta[rad]=           5.8643
  C        -0.00519          0.00658        -0.00950
  C         0.08627          0.00169         1.47035
  O         1.01528         -0.00022         2.21436
  H        -1.04057         -0.08199        -0.34098
  H         0.54361          0.87895        -0.36642
  H         0.45712         -0.89208        -0.42782
6
 step=         561     theta[rad]=           5.8748
  C        -0.00519         -0.00201        -0.00950
  C         0.08627         -0.00051         1.47035
  O         1.01528          0.00007         2.21436
  H        -1.04057          0.02497        -0.34096
  H         0.48721          0.88751        -0.40647
  H         0.51355         -0.88351        -0.38777
6
 step=         562     theta[rad]=           5.8853
  C        -0.00519         -0.01007        -0.00950
  C         0.08627         -0.00258         1.47035
  O         1.01528          0.00033         2.21436
  H        -1.04058          0.12538        -0.34095
  H         0.43426          0.89555        -0.44406
  H         0.56652         -0.87547        -0.35017
6
 step=         563     theta[rad]=           5.8957
  C        -0.00519         -0.01642        -0.00950
  C         0.08627         -0.00421         1.47035
  O         1.01528          0.00054         2.21436
  H        -1.04058          0.20444        -0.34094
  H         0.39257          0.90188        -0.47365
  H         0.60822         -0.86914        -0.32057
6
 step=         564     theta[rad]=           5.9062
  C        -0.00519         -0.02027        -0.00951
  C         0.08627         -0.00519         1.47035
  O         1.01528          0.00067         2.21436
  H        -1.04058          0.25234        -0.34093
  H         0.36731          0.90571        -0.49159
  H         0.63349         -0.86530        -0.30263
6
 step=         565     theta[rad]=           5.9167
  C        -0.00519         -0.02128        -0.00951
  C         0.08627         -0.00545         1.47035
  O         1.01528          0.00070         2.21436
  H        -1.04058          0.26497        -0.34093
  H         0.36065          0.90672        -0.49631
  H         0.64015         -0.86429        -0.29790
6
 step=         566     theta[rad]=           5.9271
  C        -0.00519         -0.01956        -0.00950
  C         0.08627         -0.00501         1.47035
  O         1.01528          0.00064         2.21436
  H        -1.04058          0.24351        -0.34093
  H         0.37197          0.90500        -0.48828
  H         0.62883         -0.86601        -0.30594
6
 step=         567     theta[rad]=           5.9376
  C        -0.00519         -0.01553        -0.00950
  C         0.08627         -0.00398         1.47035
  O         1.01528          0.00051         2.21436
  H        -1.04058          0.19342        -0.34094
  H         0.39838          0.90100        -0.46953
  H         0.60240         -0.87002        -0.32470
6
 step=         568     theta[rad]=           5.9481
  C        -0.00519         -0.00987        -0.00950
  C         0.08627         -0.00253         1.47035
  O         1.01528          0.00032         2.21436
  H        -1.04058          0.12293        -0.34095
  H         0.43555          0.89535        -0.44314
  H         0.56522         -0.87567        -0.35109
6
 step=         569     theta[rad]=           5.9586
  C        -0.00519         -0.00333        -0.00950
  C         0.08627         -0.00085         1.47035
  O         1.01528          0.00011         2.21436
  H        -1.04057          0.04151        -0.34096
  H         0.47849          0.88884        -0.41266
  H         0.52227         -0.88219        -0.38158
6
 step=         570     theta[rad]=           5.9690
  C        -0.00519          0.00333        -0.00950
  C         0.08627          0.00085         1.47035
  O         1.01528         -0.00011         2.21436
  H        -1.04057         -0.04151        -0.34097
  H         0.52226          0.88219        -0.38158
  H         0.47848         -0.88884        -0.41266
6
 step=         571     theta[rad]=           5.9795
  C        -0.00518          0.00947        -0.00950
  C         0.08627          0.00243         1.47035
  O         1.01528         -0.00031         2.21436
  H        -1.04056         -0.11798        -0.34098
  H         0.56259          0.87607        -0.35295
  H         0.43814         -0.89496        -0.44129
6
 step=         572     theta[rad]=           5.9900
  C        -0.00518          0.01459        -0.00950
  C         0.08627          0.00374         1.47035
  O         1.01528         -0.00048         2.21436
  H        -1.04056         -0.18163        -0.34099
  H         0.59616          0.87098        -0.32912
  H         0.40456         -0.90006        -0.46513
6
 step=         573     theta[rad]=           6.0004
  C        -0.00518          0.01834        -0.00950
  C         0.08627          0.00470         1.47035
  O         1.01528         -0.00060         2.21436
  H        -1.04056         -0.22838        -0.34100
  H         0.62081          0.86723        -0.31162
  H         0.37990         -0.90381        -0.48263
6
 step=         574     theta[rad]=           6.0109
  C        -0.00518          0.02058        -0.00949
  C         0.08627          0.00527         1.47035
  O         1.01528         -0.00068         2.21436
  H        -1.04056         -0.25629        -0.34100
  H         0.63553          0.86500        -0.30117
  H         0.36518         -0.90605        -0.49308
6
 step=         575     theta[rad]=           6.0214
  C        -0.00518          0.02131        -0.00949
  C         0.08627          0.00546         1.47035
  O         1.01528         -0.00070         2.21436
  H        -1.04056         -0.26533        -0.34100
  H         0.64029          0.86428        -0.29779
  H         0.36041         -0.90677        -0.49647
6
 step=         576     theta[rad]=           6.0319
  C        -0.00518          0.02064        -0.00949
  C         0.08627          0.00529         1.47035
  O         1.01528         -0.00068         2.21436
  H        -1.04056         -0.25700        -0.34100
  H         0.63590          0.86494        -0.30091
  H         0.36481         -0.90610        -0.49335
6
 step=         577     theta[rad]=           6.0423
  C        -0.00518          0.01878        -0.00950
  C         0.08627          0.00481         1.47035
  O         1.01528         -0.00062         2.21436
  H        -1.04056         -0.23384        -0.34100
  H         0.62369          0.86680        -0.30958
  H         0.37702         -0.90425        -0.48468
6
 step=         578     theta[rad]=           6.0528
  C        -0.00518          0.01598        -0.00950
  C         0.08627          0.00409         1.47035
  O         1.01528         -0.00053         2.21436
  H        -1.04056         -0.19903        -0.34100
  H         0.60533          0.86958        -0.32261
  H         0.39539         -0.90146        -0.47164
6
 step=         579     theta[rad]=           6.0633
  C        -0.00518          0.01253        -0.00950
  C         0.08627          0.00321         1.47035
  O         1.01528         -0.00041         2.21436
  H        -1.04056         -0.15596        -0.34099
  H         0.58262          0.87303        -0.33873
  H         0.41811         -0.89801        -0.45552
6
 step=         580     theta[rad]=           6.0737
  C        -0.00518          0.00867        -0.00950
  C         0.08627          0.00222         1.47035
  O         1.01528         -0.00029         2.21436
  H        -1.04056         -0.10792        -0.34098
  H         0.55728          0.87688        -0.35672
  H         0.44345         -0.89416        -0.43753
6
 step=         581     theta[rad]=           6.0842
  C        -0.00519          0.00465        -0.00950
  C         0.08627          0.00119         1.47035
  O         1.01528         -0.00015         2.21436
  H        -1.04057         -0.05788        -0.34098
  H         0.53090          0.88088        -0.37545
  H         0.46984         -0.89015        -0.41879
6
 step=         582     theta[rad]=           6.0947
  C        -0.00519          0.00067        -0.00950
  C         0.08627          0.00017         1.47035
  O         1.01528         -0.00002         2.21436
  H        -1.04057         -0.00833        -0.34097
  H         0.50477          0.88485        -0.39400
  H         0.49598         -0.88618        -0.40024
6
 step=         583     theta[rad]=           6.1052
  C        -0.00519         -0.00311        -0.00950
  C         0.08627         -0.00080         1.47035
  O         1.01528          0.00010         2.21436
  H        -1.04057          0.03876        -0.34096
  H         0.47994          0.88862        -0.41163
  H         0.52082         -0.88241        -0.38261
6
 step=         584     theta[rad]=           6.1156
  C        -0.00519         -0.00658        -0.00950
  C         0.08627         -0.00169         1.47035
  O         1.01528          0.00022         2.21436
  H        -1.04057          0.08199        -0.34096
  H         0.45714          0.89208        -0.42781
  H         0.54363         -0.87895        -0.36642
6
 step=         585     theta[rad]=           6.1261
  C        -0.00519         -0.00967        -0.00950
  C         0.08627         -0.00248         1.47035
  O         1.01528          0.00032         2.21436
  H        -1.04058          0.12046        -0.34095
  H         0.43685          0.89516        -0.44221
  H         0.56392         -0.87586        -0.35201
6
 step=         586     theta[rad]=           6.1366
  C        -0.00519         -0.01234        -0.00950
  C         0.08627         -0.00316         1.47035
  O         1.01528          0.00041         2.21436
  H        -1.04058          0.15370        -0.34095
  H         0.41932          0.89782        -0.45466
  H         0.58145         -0.87320        -0.33957
6
 step=         587     theta[rad]=           6.1470
  C        -0.00519         -0.01459        -0.00950
  C         0.08627         -0.00374         1.47035
  O         1.01528          0.00048         2.21436
  H        -1.04058          0.18163        -0.34094
  H         0.40459          0.90005        -0.46512
  H         0.59619         -0.87096        -0.32911
6
 step=         588     theta[rad]=           6.1575
  C        -0.00519         -0.01642        -0.00950
  C         0.08627         -0.00421         1.47035
  O         1.01528          0.00054         2.21436
  H        -1.04058          0.20444        -0.34094
  H         0.39257          0.90188        -0.47365
  H         0.60822         -0.86914        -0.32057
6
 step=         589     theta[rad]=           6.1680
  C        -0.00519         -0.01787        -0.00950
  C         0.08627         -0.00458         1.47035
  O         1.01528          0.00059         2.21436
  H        -1.04058          0.22253        -0.34094
  H         0.38303          0.90333        -0.48042
  H         0.61776         -0.86769        -0.31380
6
 step=         590     theta[rad]=           6.1785
  C        -0.00519         -0.01899        -0.00950
  C         0.08627         -0.00486         1.47035
  O         1.01528          0.00062         2.21436
  H        -1.04058          0.23641        -0.34094
  H         0.37571          0.90444        -0.48562
  H         0.62508         -0.86657        -0.30860
6
 step=         591     theta[rad]=           6.1889
  C        -0.00519         -0.01981        -0.00950
  C         0.08627         -0.00507         1.47035
  O         1.01528          0.00065         2.21436
  H        -1.04058          0.24670        -0.34093
  H         0.37028          0.90526        -0.48947
  H         0.63051         -0.86575        -0.30475
6
 step=         592     theta[rad]=           6.1994
  C        -0.00519         -0.02040        -0.00951
  C         0.08627         -0.00522         1.47035
  O         1.01528          0.00067         2.21436
  H        -1.04058          0.25401        -0.34093
  H         0.36643          0.90585        -0.49221
  H         0.63437         -0.86517        -0.30201
6
 step=         593     theta[rad]=           6.2099
  C        -0.00519         -0.02080        -0.00951
  C         0.08627         -0.00533         1.47035
  O         1.01528          0.00068         2.21436
  H        -1.04058          0.25894        -0.34093
  H         0.36383          0.90624        -0.49406
  H         0.63697         -0.86477        -0.30016
6
 step=         594     theta[rad]=           6.2204
  C        -0.00519         -0.02105        -0.00951
  C         0.08627         -0.00539         1.47035
  O         1.01528          0.00069         2.21436
  H        -1.04058          0.26206        -0.34093
  H         0.36218          0.90649        -0.49523
  H         0.63862         -0.86452        -0.29899
6
 step=         595     theta[rad]=           6.2308
  C        -0.00519         -0.02119        -0.00951
  C         0.08627         -0.00543         1.47035
  O         1.01528          0.00070         2.21436
  H        -1.04058          0.26388        -0.34093
  H         0.36122          0.90664        -0.49591
  H         0.63957         -0.86437        -0.29831
6
 step=         596     theta[rad]=           6.2413
  C        -0.00519         -0.02127        -0.00951
  C         0.08627         -0.00545         1.47035
  O         1.01528          0.00070         2.21436
  H        -1.04058          0.26481        -0.34093
  H         0.36073          0.90671        -0.49625
  H         0.64006         -0.86430        -0.29796
6
 step=         597     theta[rad]=           6.2518
  C        -0.00519         -0.02130        -0.00951
  C         0.08627         -0.00545         1.47035
  O         1.01528          0.00070         2.21436
  H        -1.04058          0.26520        -0.34093
  H         0.36053          0.90674        -0.49640
  H         0.64027         -0.86427        -0.29782
6
 step=         598     theta[rad]=           6.2622
  C        -0.00519         -0.02131        -0.00951
  C         0.08627         -0.00546         1.47035
  O         1.01528          0.00070         2.21436
  H        -1.04058          0.26532        -0.34093
  H         0.36047          0.90675        -0.49644
  H         0.64033         -0.86426        -0.29777
6
 step=         599     theta[rad]=           6.2727
  C        -0.00519         -0.02131        -0.00951
  C         0.08627         -0.00546         1.47035
  O         1.01528          0.00070         2.21436
  H        -1.04058          0.26533        -0.34093
  H         0.36046          0.90675        -0.49645
  H         0.64034         -0.86426        -0.29777
6
 step=         600     theta[rad]=           6.2832
  C        -0.00519         -0.02131        -0.00951
  C         0.08627         -0.00546         1.47035
  O         1.01528          0.00070         2.21436
  H        -1.04058          0.26533        -0.34093
  H         0.36046          0.90675        -0.49645
  H         0.64034         -0.86426        -0.29777
