9
This is a temporary strucutre for Sparrow to calculate energy and gradient
  C        -0.02069         -0.00000         0.02976
  C         0.02012          0.00000         1.34904
  H         0.90068         -0.00000        -0.53739
  H         0.94880         -0.00000         1.89367
  H        -0.88027          0.00000         1.94238
  C        -1.28922         -0.00000        -0.76728
  H        -1.08254          0.00000        -1.83378
  H        -1.88829         -0.87855        -0.53094
  H        -1.88829          0.87855        -0.53200
