3
 geom =           0 
  O        -0.07287          0.00000        -0.04555 
  H         0.17780         -0.00000         0.87834 
  H         0.97875         -0.00000        -0.15536 
3
 geom =           1 
  O        -0.04870          0.00000        -0.03641 
  H        -0.01427         -0.00000         0.87198 
  H         0.78730         -0.00000        -0.29406 
3
 geom =           2 
  O        -0.07658          0.00000        -0.04831 
  H         0.27477         -0.00000         0.80579 
  H         0.94067         -0.00000        -0.03908 
3
 geom =           3 
  O        -0.05000         -0.00000        -0.03851 
  H        -0.08651          0.00000         1.01506 
  H         0.88015          0.00000        -0.40390 
3
 geom =           4 
  O        -0.02228         -0.00000        -0.01453 
  H        -0.35934          0.00000         0.86334 
  H         0.71297          0.00000        -0.63276 
3
 geom =           5 
  O        -0.02055         -0.00000        -0.01702 
  H        -0.37851          0.00000         0.92147 
  H         0.70462          0.00000        -0.65138 
3
 geom =           6 
  O        -0.05767         -0.00000        -0.03442 
  H         0.00958          0.00000         0.85419 
  H         0.90578          0.00000        -0.30787 
3
 geom =           7 
  O        -0.06978          0.00000        -0.04438 
  H         0.19340         -0.00000         0.82070 
  H         0.91415         -0.00000        -0.11632 
3
 geom =           8 
  O        -0.07175          0.00000        -0.05428 
  H         0.24304         -0.00000         0.92158 
  H         0.89579         -0.00000        -0.05998 
3
 geom =           9 
  O        -0.05619         -0.00000        -0.03487 
  H        -0.01426          0.00000         0.88718 
  H         0.90615          0.00000        -0.33379 
3
 geom =          10 
  O        -0.04721         -0.00000        -0.02977 
  H        -0.12793          0.00000         0.91704 
  H         0.87720          0.00000        -0.44455 
3
 geom =          11 
  O        -0.04018          0.00000        -0.03535 
  H        -0.09376         -0.00000         0.92137 
  H         0.73152         -0.00000        -0.36031 
3
 geom =          12 
  O        -0.05497          0.00000        -0.04680 
  H         0.03917         -0.00000         0.99839 
  H         0.83326         -0.00000        -0.25559 
3
 geom =          13 
  O        -0.06096          0.00000        -0.04688 
  H         0.13120         -0.00000         0.90176 
  H         0.83639         -0.00000        -0.15770 
3
 geom =          14 
  O        -0.06286          0.00000        -0.03678 
  H         0.10021         -0.00000         0.79208 
  H         0.89744         -0.00000        -0.20836 
3
 geom =          15 
  O        -0.02186         -0.00000        -0.02105 
  H        -0.38997          0.00000         1.01013 
  H         0.73692          0.00000        -0.67598 
3
 geom =          16 
  O        -0.04142         -0.00000        -0.02322 
  H        -0.14932          0.00000         0.81014 
  H         0.80678          0.00000        -0.44154 
3
 geom =          17 
  O        -0.06085         -0.00000        -0.04305 
  H         0.02860          0.00000         0.98423 
  H         0.93719          0.00000        -0.30092 
3
 geom =          18 
  O        -0.06069          0.00000        -0.03826 
  H         0.04902         -0.00000         0.87689 
  H         0.91428         -0.00000        -0.26961 
3
 geom =          19 
  O        -0.07104          0.00000        -0.05851 
  H         0.28669         -0.00000         0.92449 
  H         0.84080         -0.00000         0.00418 
3
 geom =          20 
  O        -0.07750          0.00000        -0.04663 
  H         0.20110         -0.00000         0.88777 
  H         1.02897         -0.00000        -0.14767 
3
 geom =          21 
  O        -0.08139          0.00000        -0.05133 
  H         0.32839         -0.00000         0.80487 
  H         0.96344         -0.00000         0.00987 
3
 geom =          22 
  O        -0.06045         -0.00000        -0.03943 
  H         0.00241          0.00000         0.96040 
  H         0.95698          0.00000        -0.33459 
3
 geom =          23 
  O        -0.02221         -0.00000        -0.02025 
  H        -0.39445          0.00000         1.00541 
  H         0.74695          0.00000        -0.68394 
3
 geom =          24 
  O        -0.05152         -0.00000        -0.03510 
  H        -0.07906          0.00000         0.95747 
  H         0.89676          0.00000        -0.40038 
3
 geom =          25 
  O        -0.04110          0.00000        -0.03544 
  H        -0.10774         -0.00000         0.94750 
  H         0.76010         -0.00000        -0.38506 
3
 geom =          26 
  O        -0.07262          0.00000        -0.04426 
  H         0.20212         -0.00000         0.82170 
  H         0.95046         -0.00000        -0.11919 
3
 geom =          27 
  O        -0.02023         -0.00000        -0.02100 
  H        -0.37542          0.00000         0.98001 
  H         0.69654          0.00000        -0.64664 
3
 geom =          28 
  O        -0.08030          0.00000        -0.04945 
  H         0.31312         -0.00000         0.79010 
  H         0.96142         -0.00000        -0.00524 
3
 geom =          29 
  O        -0.06108          0.00000        -0.04486 
  H         0.04737         -0.00000         0.98822 
  H         0.92212         -0.00000        -0.27622 
3
 geom =          30 
  O        -0.04057         -0.00000        -0.02263 
  H        -0.15920          0.00000         0.80983 
  H         0.80308          0.00000        -0.45072 
3
 geom =          31 
  O        -0.03272         -0.00000        -0.02632 
  H        -0.21184          0.00000         0.90188 
  H         0.73112          0.00000        -0.48418 
3
 geom =          32 
  O        -0.06934          0.00000        -0.05081 
  H         0.16183         -0.00000         0.96711 
  H         0.93867         -0.00000        -0.16070 
3
 geom =          33 
  O        -0.07933          0.00000        -0.06026 
  H         0.29835         -0.00000         0.98098 
  H         0.96079         -0.00000        -0.02449 
3
 geom =          34 
  O        -0.07121          0.00000        -0.05641 
  H         0.18624         -0.00000         1.03339 
  H         0.94404         -0.00000        -0.13811 
3
 geom =          35 
  O        -0.05530          0.00000        -0.04484 
  H         0.07798         -0.00000         0.91348 
  H         0.79967         -0.00000        -0.20183 
3
 geom =          36 
  O        -0.01971         -0.00000        -0.01938 
  H        -0.34763          0.00000         0.91160 
  H         0.66049          0.00000        -0.60400 
3
 geom =          37 
  O        -0.04669         -0.00000        -0.02724 
  H        -0.16753          0.00000         0.92926 
  H         0.90852          0.00000        -0.49691 
3
 geom =          38 
  O        -0.08125          0.00000        -0.06528 
  H         0.31758         -0.00000         1.04534 
  H         0.97198         -0.00000        -0.00926 
3
 geom =          39 
  O        -0.03276         -0.00000        -0.01756 
  H        -0.26842          0.00000         0.84026 
  H         0.78836          0.00000        -0.56151 
3
 geom =          40 
  O        -0.08417          0.00000        -0.05432 
  H         0.32500         -0.00000         0.87305 
  H         1.01090         -0.00000        -0.01083 
3
 geom =          41 
  O        -0.02429         -0.00000        -0.02338 
  H        -0.34733          0.00000         1.00055 
  H         0.73280          0.00000        -0.62950 
3
 geom =          42 
  O        -0.07747          0.00000        -0.05216 
  H         0.29815         -0.00000         0.83990 
  H         0.93146         -0.00000        -0.01209 
3
 geom =          43 
  O        -0.04279         -0.00000        -0.02252 
  H        -0.14710          0.00000         0.80292 
  H         0.82623          0.00000        -0.44551 
3
 geom =          44 
  O        -0.03832         -0.00000        -0.02100 
  H        -0.22997          0.00000         0.87148 
  H         0.83812          0.00000        -0.53816 
3
 geom =          45 
  O        -0.05847          0.00000        -0.04835 
  H         0.12659         -0.00000         0.91873 
  H         0.80149         -0.00000        -0.15133 
3
 geom =          46 
  O        -0.03139         -0.00000        -0.02467 
  H        -0.29394          0.00000         0.98419 
  H         0.79219          0.00000        -0.59262 
3
 geom =          47 
  O        -0.02159         -0.00000        -0.02270 
  H        -0.39192          0.00000         1.03821 
  H         0.73462          0.00000        -0.67785 
3
 geom =          48 
  O        -0.02813         -0.00000        -0.02183 
  H        -0.27145          0.00000         0.88887 
  H         0.71788          0.00000        -0.54233 
3
 geom =          49 
  O        -0.02985         -0.00000        -0.01908 
  H        -0.31951          0.00000         0.92154 
  H         0.79328          0.00000        -0.61863 
3
 geom =          50 
  O        -0.07166          0.00000        -0.05421 
  H         0.18315         -0.00000         1.00458 
  H         0.95426         -0.00000        -0.14417 
3
 geom =          51 
  O        -0.07643          0.00000        -0.05112 
  H         0.24453         -0.00000         0.89331 
  H         0.96850         -0.00000        -0.08195 
3
 geom =          52 
  O        -0.07813          0.00000        -0.06109 
  H         0.27424         -0.00000         1.02203 
  H         0.96585         -0.00000        -0.05241 
3
 geom =          53 
  O        -0.03883         -0.00000        -0.02055 
  H        -0.20140          0.00000         0.82658 
  H         0.81769          0.00000        -0.50036 
3
 geom =          54 
  O        -0.08364          0.00000        -0.05134 
  H         0.30822         -0.00000         0.84569 
  H         1.01934         -0.00000        -0.03075 
3
 geom =          55 
  O        -0.02102         -0.00000        -0.00957 
  H        -0.38864          0.00000         0.81774 
  H         0.72230          0.00000        -0.66580 
3
 geom =          56 
  O        -0.07340          0.00000        -0.05129 
  H         0.17656         -0.00000         0.97593 
  H         0.98850         -0.00000        -0.16189 
3
 geom =          57 
  O        -0.08135          0.00000        -0.06519 
  H         0.31741         -0.00000         1.04472 
  H         0.97383         -0.00000        -0.01004 
3
 geom =          58 
  O        -0.08112          0.00000        -0.06082 
  H         0.32159         -0.00000         0.96670 
  H         0.96595         -0.00000        -0.00143 
3
 geom =          59 
  O        -0.04549         -0.00000        -0.02716 
  H        -0.09282          0.00000         0.81592 
  H         0.81481          0.00000        -0.38480 
3
 geom =          60 
  O        -0.06518          0.00000        -0.04145 
  H         0.09619         -0.00000         0.88601 
  H         0.93842         -0.00000        -0.22810 
3
 geom =          61 
  O        -0.08466          0.00000        -0.05172 
  H         0.29094         -0.00000         0.88178 
  H         1.05285         -0.00000        -0.06081 
3
 geom =          62 
  O        -0.02553         -0.00000        -0.02324 
  H        -0.33683          0.00000         0.99013 
  H         0.74210          0.00000        -0.62131 
3
 geom =          63 
  O        -0.08787          0.00000        -0.05423 
  H         0.30959         -0.00000         0.91322 
  H         1.08512         -0.00000        -0.05251 
3
 geom =          64 
  O        -0.03336         -0.00000        -0.02875 
  H        -0.20516          0.00000         0.93538 
  H         0.73463          0.00000        -0.47899 
3
 geom =          65 
  O        -0.02754         -0.00000        -0.02682 
  H        -0.32412          0.00000         1.04103 
  H         0.76125          0.00000        -0.61531 
3
 geom =          66 
  O        -0.06925          0.00000        -0.04597 
  H         0.13304         -0.00000         0.92896 
  H         0.96609         -0.00000        -0.19935 
3
 geom =          67 
  O        -0.03347         -0.00000        -0.01559 
  H        -0.31005          0.00000         0.87104 
  H         0.84133          0.00000        -0.62358 
3
 geom =          68 
  O        -0.08410          0.00000        -0.05269 
  H         0.32301         -0.00000         0.84900 
  H         1.01191         -0.00000        -0.01277 
3
 geom =          69 
  O        -0.03222         -0.00000        -0.03091 
  H        -0.20797          0.00000         0.96818 
  H         0.71935          0.00000        -0.47755 
3
 geom =          70 
  O        -0.07063          0.00000        -0.04204 
  H         0.17527         -0.00000         0.81299 
  H         0.94575         -0.00000        -0.14574 
3
 geom =          71 
  O        -0.06230          0.00000        -0.04814 
  H         0.16134         -0.00000         0.88685 
  H         0.82752         -0.00000        -0.12270 
3
 geom =          72 
  O        -0.06313         -0.00000        -0.03645 
  H         0.00749          0.00000         0.91940 
  H         0.99452          0.00000        -0.34085 
3
 geom =          73 
  O        -0.01855         -0.00000        -0.01649 
  H        -0.38979          0.00000         0.91810 
  H         0.68421          0.00000        -0.65642 
3
 geom =          74 
  O        -0.02144         -0.00000        -0.00997 
  H        -0.38541          0.00000         0.82185 
  H         0.72578          0.00000        -0.66363 
3
 geom =          75 
  O        -0.07027          0.00000        -0.04888 
  H         0.19262         -0.00000         0.89732 
  H         0.92275         -0.00000        -0.12155 
3
 geom =          76 
  O        -0.03215         -0.00000        -0.02877 
  H        -0.28526          0.00000         1.04236 
  H         0.79553          0.00000        -0.58578 
3
 geom =          77 
  O        -0.05305         -0.00000        -0.03185 
  H        -0.09922          0.00000         0.94154 
  H         0.94121          0.00000        -0.43604 
3
 geom =          78 
  O        -0.03001         -0.00000        -0.02701 
  H        -0.26657          0.00000         0.97591 
  H         0.74294          0.00000        -0.54728 
3
 geom =          79 
  O        -0.07192          0.00000        -0.05375 
  H         0.18037         -0.00000         1.00245 
  H         0.96118         -0.00000        -0.14935 
3
 geom =          80 
  O        -0.08192          0.00000        -0.06141 
  H         0.30301         -0.00000         1.00690 
  H         0.99723         -0.00000        -0.03220 
3
 geom =          81 
  O        -0.06036          0.00000        -0.03487 
  H         0.06883         -0.00000         0.79216 
  H         0.88923         -0.00000        -0.23870 
3
 geom =          82 
  O        -0.03573         -0.00000        -0.03323 
  H        -0.18700          0.00000         0.99494 
  H         0.75407          0.00000        -0.46753 
3
 geom =          83 
  O        -0.03825          0.00000        -0.03428 
  H        -0.12525         -0.00000         0.93825 
  H         0.73238         -0.00000        -0.39412 
3
 geom =          84 
  O        -0.06391          0.00000        -0.05049 
  H         0.11609         -0.00000         0.99745 
  H         0.89837         -0.00000        -0.19614 
3
 geom =          85 
  O        -0.07601          0.00000        -0.05620 
  H         0.26817         -0.00000         0.93998 
  H         0.93820         -0.00000        -0.04796 
3
 geom =          86 
  O        -0.06951         -0.00000        -0.04195 
  H         0.09214          0.00000         0.92310 
  H         1.01112          0.00000        -0.25726 
3
 geom =          87 
  O        -0.02966         -0.00000        -0.02882 
  H        -0.29153          0.00000         1.03867 
  H         0.76233          0.00000        -0.58129 
3
 geom =          88 
  O        -0.07669          0.00000        -0.05203 
  H         0.24226         -0.00000         0.91270 
  H         0.97500         -0.00000        -0.08690 
3
 geom =          89 
  O        -0.05855         -0.00000        -0.03762 
  H        -0.00400          0.00000         0.92999 
  H         0.93337          0.00000        -0.33288 
3
 geom =          90 
  O        -0.02973         -0.00000        -0.01551 
  H        -0.34364          0.00000         0.89711 
  H         0.81554          0.00000        -0.65095 
3
 geom =          91 
  O        -0.07743          0.00000        -0.04919 
  H         0.19979         -0.00000         0.93076 
  H         1.02916         -0.00000        -0.14998 
3
 geom =          92 
  O        -0.05739          0.00000        -0.03968 
  H         0.04080         -0.00000         0.89370 
  H         0.87011         -0.00000        -0.26396 
3
 geom =          93 
  O        -0.03502         -0.00000        -0.02710 
  H        -0.21265          0.00000         0.92816 
  H         0.76851          0.00000        -0.49797 
3
 geom =          94 
  O        -0.04478          0.00000        -0.03090 
  H        -0.07776         -0.00000         0.85144 
  H         0.78853         -0.00000        -0.36094 
3
 geom =          95 
  O        -0.02012         -0.00000        -0.02035 
  H        -0.38634          0.00000         0.98432 
  H         0.70576          0.00000        -0.66129 
3
 geom =          96 
  O        -0.01894         -0.00000        -0.01948 
  H        -0.34943          0.00000         0.91159 
  H         0.65006          0.00000        -0.60245 
3
 geom =          97 
  O        -0.06133         -0.00000        -0.04220 
  H         0.02557          0.00000         0.97733 
  H         0.94787          0.00000        -0.30751 
3
 geom =          98 
  O        -0.08474          0.00000        -0.05289 
  H         0.27803         -0.00000         0.91939 
  H         1.06699         -0.00000        -0.07987 
3
 geom =          99 
  O        -0.04032         -0.00000        -0.03630 
  H        -0.13659          0.00000         0.99809 
  H         0.77662          0.00000        -0.42196 
