14
 geom =           0 
  C        -1.14365          1.43081        -0.12185 
  C         0.09169          1.53269         0.25303 
  C         1.19690          0.64507        -0.18053 
  C         1.18732         -0.67651        -0.05459 
  C         0.07097         -1.42290         0.23618 
  C        -1.21699         -1.44424        -0.20322 
  H         0.31579          2.07500         1.12112 
  H         2.09025          1.18503        -0.09331 
  H         2.11596         -1.16898         0.06910 
  H         0.00531         -2.05435         1.12534 
  H        -1.95980         -2.13891         0.30388 
  H        -1.35623         -1.17436        -1.08532 
  H        -1.82579          1.92362         0.31231 
  H        -1.60462          0.57923        -0.90730 
14
 geom =           1 
  C        -1.19132          1.50273        -0.20065 
  C         0.04904          1.50334         0.26734 
  C         1.27019          0.64690        -0.13847 
  C         1.20981         -0.64453        -0.09560 
  C         0.08014         -1.47974         0.28810 
  C        -1.23356         -1.54620        -0.15005 
  H        -0.05281          2.10136         1.33617 
  H         2.26775          1.16629        -0.00274 
  H         2.10340         -1.01406        -0.13656 
  H         0.37601         -2.40803         0.94029 
  H        -1.97900         -2.04745         0.25141 
  H        -1.54302         -0.47029        -1.15987 
  H        -1.92259          1.96345         0.17658 
  H        -1.44572          0.91724        -1.05571 
14
 geom =           2 
  C        -1.09109          1.54483        -0.23072 
  C         0.05202          1.50257         0.30013 
  C         1.23493          0.68006        -0.08005 
  C         1.10082         -0.62585        -0.14164 
  C         0.06906         -1.53951         0.28669 
  C        -1.17103         -1.62792        -0.15928 
  H         0.21160          2.22459         1.24695 
  H         2.20775          1.39201        -0.21740 
  H         2.09763         -1.17104         0.00767 
  H         0.38755         -2.14075         0.97942 
  H        -2.02660         -2.04725         0.31107 
  H        -1.80528         -0.42202        -1.08923 
  H        -2.00860          1.93848         0.33711 
  H        -1.38417          1.01037        -1.27925 
14
 geom =           3 
  C        -1.15800          1.56380        -0.20534 
  C         0.09772          1.62887         0.27149 
  C         1.14872          0.69151        -0.08786 
  C         1.14101         -0.69095        -0.09394 
  C         0.05418         -1.63147         0.28951 
  C        -1.12121         -1.54407        -0.16837 
  H         0.13986          2.09017         1.19639 
  H         2.25558          0.98196        -0.49532 
  H         2.05372         -1.05105        -0.20059 
  H         0.21370         -2.22550         1.01920 
  H        -1.78559         -2.23558         0.06124 
  H        -1.37275         -0.92345        -1.04231 
  H        -1.99582          2.07689         0.36101 
  H        -1.44415          1.07571        -0.96486 
14
 geom =           4 
  C        -1.17570          1.51761        -0.21204 
  C         0.08247          1.54056         0.29109 
  C         1.23316          0.65045        -0.07495 
  C         1.16315         -0.68227        -0.11607 
  C         0.05791         -1.48380         0.28955 
  C        -1.18778         -1.57090        -0.21309 
  H         0.45924          2.14738         1.07828 
  H         2.10229          1.21728        -0.18891 
  H         2.13659         -1.05149        -0.38184 
  H         0.28665         -2.09349         1.11315 
  H        -2.02574         -2.07036         0.45127 
  H        -1.46958         -1.08366        -0.99329 
  H        -2.13751          1.93809         0.22387 
  H        -1.41580          1.33397        -0.87931 
14
 geom =           5 
  C        -1.17524          1.42049        -0.19062 
  C         0.06160          1.47646         0.29156 
  C         1.27474          0.65605        -0.06401 
  C         1.15258         -0.64756        -0.10865 
  C         0.08063         -1.46851         0.26269 
  C        -1.21306         -1.43232        -0.16869 
  H         0.16419          2.16592         1.00998 
  H         2.15848          1.28509        -0.11773 
  H         2.09365         -1.32804        -0.50235 
  H         0.35557         -1.94512         1.20939 
  H        -1.87179         -1.92153         0.38165 
  H        -1.69645         -0.99177        -1.36992 
  H        -1.76639          2.00489         0.33105 
  H        -1.59693          0.67560        -1.20751 
14
 geom =           6 
  C        -1.13736          1.56711        -0.27306 
  C         0.06737          1.50348         0.31753 
  C         1.17570          0.70423        -0.08807 
  C         1.08830         -0.61199        -0.09906 
  C         0.14611         -1.62369         0.31619 
  C        -1.18329         -1.48334        -0.18923 
  H         0.45235          2.17292         1.18429 
  H         2.04986          1.23171        -0.10898 
  H         1.99036         -1.22128        -0.27438 
  H         0.46211         -2.49054         0.81291 
  H        -1.94400         -2.22033         0.21746 
  H        -1.49419         -1.08253        -0.68858 
  H        -2.07572          1.91878         0.23982 
  H        -1.30935          1.02630        -1.19535 
14
 geom =           7 
  C        -1.16027          1.45954        -0.18265 
  C         0.07204          1.53845         0.30077 
  C         1.19708          0.70190        -0.13455 
  C         1.23647         -0.70564        -0.04179 
  C         0.06363         -1.51358         0.25352 
  C        -1.22068         -1.44333        -0.15456 
  H         0.26284          2.02884         1.19552 
  H         2.09642          1.35649        -0.32344 
  H         2.08410         -1.08392        -0.24521 
  H         0.25842         -2.33736         1.00229 
  H        -1.86253         -2.17132         0.20557 
  H        -1.56354         -1.09240        -1.17096 
  H        -1.99180          2.00619         0.19772 
  H        -1.52715          0.84841        -1.34691 
14
 geom =           8 
  C        -1.13692          1.48370        -0.22454 
  C         0.02780          1.51844         0.34700 
  C         1.14719          0.63737        -0.10346 
  C         1.23153         -0.68339        -0.07759 
  C         0.07682         -1.49098         0.20812 
  C        -1.16865         -1.47062        -0.12745 
  H         0.33895          2.05520         1.18069 
  H         2.05359          1.30052        -0.26007 
  H         2.21731         -1.28878        -0.44605 
  H         0.29144         -1.87372         1.20980 
  H        -1.91575         -1.95320         0.29167 
  H        -1.51328         -1.00053        -1.12886 
  H        -2.09113          1.95048         0.13882 
  H        -1.49935          0.87537        -1.24922 
14
 geom =           9 
  C        -1.16119          1.48257        -0.15988 
  C         0.05685          1.47691         0.25870 
  C         1.23110          0.64339        -0.10253 
  C         1.19956         -0.65682        -0.15410 
  C         0.04686         -1.45525         0.33028 
  C        -1.17182         -1.48679        -0.24917 
  H         0.33164          2.25608         0.93438 
  H         2.02291          1.27018        -0.27447 
  H         2.11080         -1.24524        -0.08300 
  H         0.01067         -2.09041         1.26364 
  H        -2.02951         -2.15015         0.31950 
  H        -1.51257         -1.31867        -1.09456 
  H        -1.79286          2.24773         0.42969 
  H        -1.54042          0.98268        -0.58127 
14
 geom =          10 
  C        -1.19209          1.60584        -0.21855 
  C         0.05249          1.54949         0.30250 
  C         1.23881          0.72435        -0.03143 
  C         1.20274         -0.69362        -0.16440 
  C         0.06570         -1.57363         0.22547 
  C        -1.19816         -1.53676        -0.11044 
  H         0.35591          2.02484         1.13923 
  H         2.16593          1.13681        -0.02777 
  H         2.37848         -1.02862        -0.02198 
  H         0.28254         -2.26059         0.92646 
  H        -1.89274         -2.22676         0.34720 
  H        -1.80302         -1.07593        -1.01456 
  H        -2.00279          1.76015         0.11910 
  H        -1.50396          0.76838        -1.50521 
14
 geom =          11 
  C        -1.16520          1.53280        -0.14527 
  C         0.04121          1.55669         0.24443 
  C         1.19868          0.68643        -0.12414 
  C         1.17177         -0.65296        -0.06196 
  C         0.08813         -1.61344         0.30349 
  C        -1.15948         -1.48012        -0.22569 
  H         0.39664          2.30012         1.02180 
  H         2.17569          1.21746        -0.30721 
  H         2.03461         -1.22441        -0.18843 
  H         0.19019         -2.50389         1.00329 
  H        -1.97551         -2.24195         0.05706 
  H        -1.49519         -1.28017        -0.81094 
  H        -1.88955          2.41436         0.14961 
  H        -1.52340          0.96825        -0.81619 
14
 geom =          12 
  C        -1.17422          1.45617        -0.25865 
  C         0.08336          1.43488         0.37057 
  C         1.14392          0.71491        -0.16300 
  C         1.22766         -0.65104        -0.07999 
  C         0.05899         -1.50840         0.24822 
  C        -1.23051         -1.46868        -0.09694 
  H         0.29871          1.94598         1.31318 
  H         2.17110          1.27417        -0.31960 
  H         2.31240         -0.91030        -0.01252 
  H         0.32121         -2.17830         1.02336 
  H        -1.90622         -2.17131         0.21346 
  H        -1.45768         -0.68944        -1.28175 
  H        -1.94987          1.92644         0.10403 
  H        -1.09090          1.06679        -1.28104 
14
 geom =          13 
  C        -1.20578          1.51702        -0.21800 
  C         0.02042          1.52298         0.29089 
  C         1.08586          0.62462        -0.11313 
  C         1.24867         -0.70270        -0.10262 
  C         0.13233         -1.50906         0.26003 
  C        -1.14225         -1.45532        -0.17003 
  H         0.17768          2.25009         1.17042 
  H         2.10413          0.98988        -0.03126 
  H         2.14173         -1.01061        -0.21127 
  H         0.38202         -2.47347         0.97634 
  H        -2.08449         -1.98772         0.44835 
  H        -0.99686         -0.79958        -0.73131 
  H        -1.98306          2.00032         0.23709 
  H        -1.40044          1.06035        -1.22852 
14
 geom =          14 
  C        -1.17563          1.63766        -0.19766 
  C         0.01636          1.54361         0.23998 
  C         1.16504          0.68928        -0.07538 
  C         1.20060         -0.70342        -0.06002 
  C         0.08865         -1.55147         0.25252 
  C        -1.16636         -1.60608        -0.14406 
  H         0.23032          1.98960         1.12697 
  H         2.11886          0.96016        -0.35084 
  H         2.23346         -1.17659        -0.04286 
  H         0.50667         -2.29919         0.80026 
  H        -1.69351         -2.18890         0.28401 
  H        -1.55334         -0.58993        -1.23165 
  H        -2.02328          2.05981         0.30431 
  H        -1.35228          1.13083        -1.07344 
14
 geom =          15 
  C        -1.20116          1.54441        -0.12054 
  C         0.08700          1.56543         0.20325 
  C         1.16397          0.62366        -0.10730 
  C         1.24175         -0.66958        -0.05660 
  C         0.08189         -1.54424         0.24859 
  C        -1.19417         -1.55895        -0.16893 
  H         0.36399          2.23120         0.85991 
  H         1.92504          1.27399         0.18503 
  H         2.20076         -1.18123        -0.09807 
  H         0.50423         -2.33460         0.92607 
  H        -1.79626         -1.96839         0.23602 
  H        -1.72808         -0.82206        -1.44471 
  H        -1.96605          2.38106         0.19533 
  H        -1.63983          0.88789        -0.84139 
14
 geom =          16 
  C        -1.15935          1.39545        -0.12704 
  C         0.15261          1.61587         0.22739 
  C         1.19800          0.68076        -0.00585 
  C         1.16657         -0.61656        -0.13002 
  C         0.00072         -1.57146         0.27779 
  C        -1.22922         -1.46617        -0.23761 
  H         0.39021          2.50239         0.69258 
  H         2.10185          1.05816        -0.28091 
  H         2.13779         -1.15760        -0.27404 
  H         0.39983         -2.23080         1.03454 
  H        -1.91458         -2.24004         0.21618 
  H        -1.47350         -1.26374        -0.74663 
  H        -1.77104          2.11187         0.39947 
  H        -1.41159          0.76826        -1.09664 
14
 geom =          17 
  C        -1.15192          1.49311        -0.14625 
  C         0.09587          1.58480         0.27507 
  C         1.22174          0.65013        -0.16523 
  C         1.17140         -0.62717        -0.01915 
  C         0.04790         -1.54905         0.28177 
  C        -1.25639         -1.51598        -0.27652 
  H         0.33903          2.24147         1.24666 
  H         2.22943          1.26088        -0.29544 
  H         2.23096         -0.97089        -0.38612 
  H         0.18587         -2.23156         1.10170 
  H        -2.03148         -2.19335         0.38519 
  H        -1.50867         -1.17634        -0.62773 
  H        -1.84602          1.96088         0.14730 
  H        -1.13150          0.68196        -0.97201 
14
 geom =          18 
  C        -1.23938          1.49751        -0.20429 
  C         0.00322          1.46069         0.27073 
  C         1.13698          0.67730        -0.05386 
  C         1.26160         -0.70018        -0.14875 
  C         0.15763         -1.56517         0.27295 
  C        -1.16595         -1.37496        -0.17743 
  H         0.13903          2.34544         0.95699 
  H         2.20225          1.24612        -0.26592 
  H         2.18083         -1.34503        -0.00888 
  H         0.27012         -2.39610         1.10033 
  H        -1.94816         -2.21110         0.30540 
  H        -1.36432         -0.91803        -0.77313 
  H        -1.93330          2.30202         0.21670 
  H        -1.38263          1.03403        -1.04711 
14
 geom =          19 
  C        -1.16501          1.45449        -0.27047 
  C        -0.02168          1.45431         0.31292 
  C         1.26414          0.68022        -0.05533 
  C         1.16167         -0.68520        -0.12506 
  C         0.08855         -1.48887         0.25168 
  C        -1.17785         -1.45211        -0.15273 
  H         0.35511          2.04471         1.26361 
  H         2.21299          1.43322        -0.28880 
  H         2.22102         -1.08060        -0.20548 
  H         0.33964         -2.21580         0.93380 
  H        -2.02375         -1.86705         0.69432 
  H        -1.52114         -0.80650        -1.03921 
  H        -2.10066          1.83053         0.28121 
  H        -1.26836          1.10438        -1.17496 
14
 geom =          20 
  C        -1.17823          1.46326        -0.09475 
  C         0.08410          1.61441         0.22429 
  C         1.14314          0.68275        -0.13768 
  C         1.19987         -0.71580        -0.06795 
  C         0.05681         -1.56909         0.33100 
  C        -1.14700         -1.52167        -0.20888 
  H         0.49602          2.26272         0.87970 
  H         2.07829          1.27789        -0.36074 
  H         2.28933         -1.14677        -0.11299 
  H         0.21139         -2.38035         1.12205 
  H        -2.07983         -2.11241        -0.06146 
  H        -1.44480         -0.48025        -1.36169 
  H        -1.78209          2.35509         0.29390 
  H        -1.65919          0.77374        -0.94730 
14
 geom =          21 
  C        -1.19347          1.58694        -0.21257 
  C        -0.00244          1.56120         0.32710 
  C         1.23392          0.65085        -0.09261 
  C         1.19244         -0.65834        -0.10820 
  C         0.07918         -1.61848         0.30148 
  C        -1.16652         -1.50631        -0.17792 
  H         0.21276          2.19115         1.00487 
  H         2.20906          1.18202        -0.34696 
  H         2.08482         -1.07183        -0.30017 
  H         0.47751         -2.29965         0.93414 
  H        -2.14212         -2.08331         0.27926 
  H        -1.28739         -1.09150        -0.94986 
  H        -1.83664          2.03797         0.33274 
  H        -1.42338          0.94640        -1.39826 
14
 geom =          22 
  C        -1.15776          1.45635        -0.16639 
  C         0.04675          1.54343         0.29893 
  C         1.22855          0.66412        -0.07059 
  C         1.21464         -0.67665        -0.18224 
  C         0.02659         -1.47279         0.28116 
  C        -1.18234         -1.53115        -0.17942 
  H         0.28561          2.09043         1.31986 
  H         2.09659          1.05478        -0.13378 
  H         2.16378         -1.18596        -0.31725 
  H         0.25389         -1.82558         1.42399 
  H        -1.87511         -1.92274         0.34850 
  H        -1.66136         -0.92254        -1.08628 
  H        -1.86986          1.99394         0.19300 
  H        -1.49579          0.91652        -1.52696 
14
 geom =          23 
  C        -1.11554          1.53400        -0.29328 
  C         0.04453          1.49997         0.32050 
  C         1.22691          0.69496        -0.05377 
  C         1.19748         -0.64796        -0.13671 
  C         0.09206         -1.51215         0.21203 
  C        -1.26028         -1.56405        -0.11467 
  H         0.24427          2.05086         1.40601 
  H         2.04798          1.25081        -0.26369 
  H         2.12773         -1.00595        -0.21576 
  H         0.12269         -2.17318         1.17445 
  H        -1.85301         -1.93585         0.46703 
  H        -1.53370         -1.05094        -1.27936 
  H        -2.02173          1.90548         0.40657 
  H        -1.34065          0.90201        -0.90995 
14
 geom =          24 
  C        -1.12921          1.49515        -0.26700 
  C         0.03551          1.49010         0.36560 
  C         1.17571          0.66264        -0.08387 
  C         1.25076         -0.68669        -0.13051 
  C         0.10946         -1.48109         0.22786 
  C        -1.23741         -1.48467        -0.12374 
  H         0.04666          2.08986         1.41076 
  H         2.07736          1.25794        -0.22847 
  H         2.10038         -1.14374        -0.26326 
  H         0.41547         -1.97441         1.30226 
  H        -1.87382         -2.14016         0.41153 
  H        -1.61993         -0.91422        -1.23264 
  H        -1.89239          1.88887         0.18896 
  H        -1.69425          0.99036        -1.45046 
14
 geom =          25 
  C        -1.23696          1.57652        -0.16679 
  C         0.12167          1.56603         0.26385 
  C         1.17323          0.65865        -0.19863 
  C         1.25336         -0.73621        -0.05364 
  C         0.00511         -1.48830         0.35406 
  C        -1.18730         -1.56161        -0.25443 
  H         0.36697          2.07885         1.10972 
  H         2.10267          1.22529        -0.27488 
  H         2.08447         -1.20181        -0.24980 
  H         0.42956         -2.11175         1.28523 
  H        -1.98735         -2.23687         0.12745 
  H        -1.22456         -1.07680        -1.28856 
  H        -2.01063          2.01295         0.56493 
  H        -1.29951          1.13052        -0.61192 
14
 geom =          26 
  C        -1.15036          1.42136        -0.09883 
  C         0.10804          1.47936         0.20002 
  C         1.21436          0.68763        -0.10142 
  C         1.20910         -0.67259        -0.11611 
  C        -0.02601         -1.45312         0.30394 
  C        -1.19195         -1.46898        -0.18210 
  H         0.32836          2.36519         0.94077 
  H         2.01270          1.19524        -0.20230 
  H         2.20245         -1.05695        -0.17232 
  H         0.26476         -2.06668         1.19054 
  H        -2.10847         -2.06954         0.14985 
  H        -1.37635         -0.76212        -1.38649 
  H        -1.92696          1.77356         0.54232 
  H        -1.34083          0.69674        -1.12789 
14
 geom =          27 
  C        -1.18086          1.50469        -0.18229 
  C        -0.01846          1.46365         0.25693 
  C         1.16044          0.66198        -0.08973 
  C         1.24149         -0.66347        -0.14272 
  C         0.07577         -1.53168         0.33979 
  C        -1.13216         -1.43287        -0.15853 
  H         0.10143          2.11860         1.24660 
  H         2.27207          0.99651        -0.15601 
  H         2.22210         -1.17799        -0.31051 
  H         0.31962         -2.37056         0.99955 
  H        -1.75213         -1.98446         0.29844 
  H        -1.39652         -0.64575        -1.20597 
  H        -1.91677          2.13111         0.24133 
  H        -1.59218          0.90504        -1.39290 
14
 geom =          28 
  C        -1.07976          1.51761        -0.20457 
  C         0.06398          1.55091         0.30143 
  C         1.21080          0.71312        -0.02446 
  C         1.12989         -0.62155        -0.16824 
  C         0.06315         -1.55497         0.25985 
  C        -1.19420         -1.51786        -0.16602 
  H         0.42148          2.24616         0.87435 
  H         2.12633          1.13325        -0.10009 
  H         2.14253         -1.13494        -0.17556 
  H         0.24465         -2.43031         0.96060 
  H        -2.08274         -2.20480         0.36532 
  H        -1.61591         -1.04498        -1.03617 
  H        -1.84115          1.99222         0.18039 
  H        -1.70495          0.40358        -1.04503 
14
 geom =          29 
  C        -1.12586          1.44674        -0.26652 
  C         0.01598          1.43073         0.33452 
  C         1.28003          0.71409        -0.12148 
  C         1.15783         -0.67623        -0.11943 
  C         0.05755         -1.51580         0.27461 
  C        -1.20796         -1.46835        -0.14351 
  H        -0.00718          2.15684         1.22299 
  H         2.29301          1.26212        -0.20680 
  H         2.11736         -0.93530        -0.26054 
  H         0.27443         -2.09176         1.16383 
  H        -1.83088         -2.20359         0.22070 
  H        -1.51009         -0.81008        -0.93154 
  H        -2.10450          2.06737         0.21217 
  H        -1.34812          1.37447        -0.92256 
14
 geom =          30 
  C        -1.11425          1.50536        -0.25121 
  C         0.07814          1.50297         0.38788 
  C         1.08588          0.71863        -0.10510 
  C         1.20929         -0.64335        -0.12064 
  C         0.09378         -1.53583         0.23309 
  C        -1.19326         -1.51559        -0.14248 
  H         0.28879          2.07715         1.26925 
  H         2.03862          1.13246        -0.26499 
  H         2.32625         -1.20870        -0.01246 
  H         0.28447         -2.19796         0.97091 
  H        -1.95814         -2.13829         0.46156 
  H        -1.60567         -0.97696        -0.93602 
  H        -1.82113          2.02806        -0.00726 
  H        -1.45447          0.90066        -1.49928 
14
 geom =          31 
  C        -1.19949          1.48836        -0.23568 
  C         0.05548          1.47362         0.32033 
  C         1.17049          0.69168        -0.11653 
  C         1.19254         -0.67513        -0.07319 
  C         0.11716         -1.51767         0.19816 
  C        -1.17894         -1.46074        -0.10784 
  H         0.29454          2.02861         1.11412 
  H         2.13889          1.26174        -0.13055 
  H         2.29857         -0.99642         0.05639 
  H         0.10345         -2.28865         0.93923 
  H        -1.90121         -2.11041         0.42452 
  H        -1.69563         -0.78676        -1.13612 
  H        -1.89077          1.95295         0.26714 
  H        -1.22144          0.93765        -1.35909 
14
 geom =          32 
  C        -1.18019          1.47645        -0.18756 
  C         0.08582          1.54460         0.25051 
  C         1.23087          0.65670        -0.09708 
  C         1.16182         -0.61728        -0.03856 
  C         0.07759         -1.53586         0.24169 
  C        -1.22175         -1.51653        -0.17076 
  H         0.31513          2.44965         0.99053 
  H         2.28287          1.00515        -0.44507 
  H         2.01011         -1.12711        -0.11660 
  H         0.18767         -2.41113         0.92569 
  H        -1.92410         -2.37891         0.28122 
  H        -1.32824         -0.84436        -1.29754 
  H        -1.91449          2.14044         0.41967 
  H        -1.46584          1.07005        -0.73705 
14
 geom =          33 
  C        -1.14116          1.41952        -0.16540 
  C         0.11846          1.55140         0.27095 
  C         1.22975          0.70128        -0.13804 
  C         1.09902         -0.62321        -0.06337 
  C         0.00341         -1.53790         0.26260 
  C        -1.16964         -1.48444        -0.18944 
  H         0.31639          2.43076         0.81685 
  H         2.10715          1.09353        -0.14375 
  H         1.96289         -1.32864        -0.20000 
  H         0.35152         -2.28372         0.98902 
  H        -1.98508         -2.30989         0.07153 
  H        -1.32135         -1.16237        -1.03217 
  H        -1.84918          2.27963         0.34187 
  H        -1.24868          0.96309        -0.57299 
14
 geom =          34 
  C        -1.15580          1.52065        -0.34446 
  C         0.01836          1.54285         0.37126 
  C         1.20971          0.67876        -0.02792 
  C         1.17700         -0.63348        -0.13656 
  C         0.08025         -1.59279         0.21954 
  C        -1.15387         -1.55982        -0.11940 
  H         0.31185          2.30505         1.22936 
  H         2.21290          1.00393        -0.23278 
  H         2.02346         -1.02604        -0.43760 
  H         0.36753         -2.27673         1.10590 
  H        -1.90529         -1.98226         0.34719 
  H        -1.70185         -0.93396        -0.93395 
  H        -1.96194          2.19016         0.32152 
  H        -1.43976          1.24203        -0.95232 
14
 geom =          35 
  C        -1.21812          1.49717        -0.17709 
  C         0.02303          1.54105         0.26927 
  C         1.15339          0.61838        -0.08101 
  C         1.25276         -0.69268        -0.12103 
  C         0.12253         -1.51942         0.32159 
  C        -1.16647         -1.42974        -0.22026 
  H         0.50997          2.25661         0.94213 
  H         2.09346          1.09317        -0.22895 
  H         2.25250         -1.32546        -0.48407 
  H         0.12156         -2.07883         1.24693 
  H        -1.93426         -2.05823         0.03276 
  H        -1.46909         -0.94832        -0.87234 
  H        -2.05790          2.12481         0.23616 
  H        -1.50757          0.76042        -0.77098 
14
 geom =          36 
  C        -1.18792          1.46838        -0.10380 
  C         0.12416          1.57277         0.22615 
  C         1.23663          0.69600        -0.11181 
  C         1.24235         -0.64833        -0.03168 
  C         0.05807         -1.55318         0.23929 
  C        -1.27848         -1.50958        -0.26105 
  H         0.39131          2.41219         0.77857 
  H         2.26565          1.13393        -0.11272 
  H         2.11769         -1.05887        -0.29457 
  H         0.19665         -2.19796         1.20571 
  H        -2.24680         -2.29412         0.24016 
  H        -1.60329         -1.17470        -0.64480 
  H        -1.95811          2.14944         0.25467 
  H        -1.48447          0.71963        -0.91579 
14
 geom =          37 
  C        -1.22673          1.45944        -0.18913 
  C         0.09594          1.48557         0.26669 
  C         1.20932          0.68177        -0.16325 
  C         1.18723         -0.71445        -0.04476 
  C         0.07785         -1.56662         0.26872 
  C        -1.15804         -1.40991        -0.19191 
  H         0.09304          2.34004         1.01451 
  H         2.09320          1.31407        -0.18742 
  H         2.02799         -1.09408        -0.35265 
  H         0.20607         -2.09472         1.36974 
  H        -2.05291         -1.97109         0.29995 
  H        -1.10741         -1.05423        -1.17423 
  H        -2.06034          1.93094         0.45978 
  H        -1.41078          1.39403        -0.79053 
14
 geom =          38 
  C        -1.19383          1.58781        -0.22115 
  C         0.08715          1.52273         0.26113 
  C         1.20786          0.70513        -0.08651 
  C         1.11591         -0.67429        -0.08109 
  C         0.10994         -1.59029         0.25623 
  C        -1.17890         -1.54295        -0.15663 
  H         0.24733          2.09580         1.11767 
  H         2.14018          1.02883        -0.16255 
  H         2.10421         -1.06398         0.08846 
  H         0.64040         -2.41471         0.94305 
  H        -1.78844         -2.19652         0.22266 
  H        -1.48510         -0.62826        -1.01554 
  H        -2.14302          2.02050         0.33773 
  H        -1.48073          1.06123        -1.19762 
14
 geom =          39 
  C        -1.16816          1.46346        -0.20500 
  C         0.03211          1.46670         0.23626 
  C         1.21424          0.72296        -0.08619 
  C         1.16547         -0.68021        -0.08338 
  C         0.06371         -1.52349         0.21047 
  C        -1.17255         -1.45381        -0.15153 
  H         0.07122          2.11106         1.32762 
  H         2.16343          1.27618        -0.19074 
  H         2.20947         -1.25896        -0.03146 
  H         0.52884         -2.36867         1.02332 
  H        -2.04493         -2.18210         0.39275 
  H        -1.22783         -0.83419        -0.62691 
  H        -2.03442          2.09562         0.17566 
  H        -1.27234          1.21335        -1.12431 
14
 geom =          40 
  C        -1.21217          1.55288        -0.23485 
  C         0.02873          1.51965         0.33350 
  C         1.15492          0.64576        -0.11877 
  C         1.19383         -0.67693        -0.14007 
  C         0.10371         -1.59035         0.32156 
  C        -1.16195         -1.43212        -0.20317 
  H         0.26812          2.11980         1.10814 
  H         2.05689          1.38363         0.00061 
  H         2.27003         -1.12703        -0.21329 
  H         0.54296         -2.49599         1.01163 
  H        -1.90037         -1.99302         0.36765 
  H        -1.32914         -1.11033        -0.65640 
  H        -2.04430          2.07029         0.19095 
  H        -1.14014          0.92749        -1.31123 
14
 geom =          41 
  C        -1.18034          1.60728        -0.11890 
  C         0.13485          1.61849         0.21956 
  C         1.15678          0.63977        -0.07988 
  C         1.09958         -0.72360        -0.07842 
  C         0.11410         -1.56751         0.30231 
  C        -1.15134         -1.59293        -0.21493 
  H         0.26921          2.21245         0.99135 
  H         2.15780          1.12030        -0.24645 
  H         2.00230         -1.05288        -0.45677 
  H         0.35279         -2.06317         1.21723 
  H        -1.97097         -2.14015         0.14682 
  H        -1.28340         -0.99834        -1.24987 
  H        -2.08407          2.11352         0.36014 
  H        -1.51263          1.02871        -1.11693 
14
 geom =          42 
  C        -1.20086          1.46901        -0.16670 
  C         0.08743          1.44957         0.23858 
  C         1.22005          0.71218        -0.13242 
  C         1.23868         -0.68254        -0.06768 
  C         0.04367         -1.51280         0.26037 
  C        -1.19620         -1.46490        -0.11843 
  H         0.16871          2.07394         1.05769 
  H         2.26814          1.23904        -0.25819 
  H         2.29968         -0.98504         0.00325 
  H         0.12808         -2.21967         1.07992 
  H        -1.88335         -1.99567        -0.02486 
  H        -1.63736         -0.60873        -1.41536 
  H        -2.07254          2.00421         0.34779 
  H        -1.56848          0.84303        -0.95383 
14
 geom =          43 
  C        -1.23086          1.56292        -0.18667 
  C         0.06998          1.48091         0.25881 
  C         1.16705          0.63347        -0.17104 
  C         1.22768         -0.64396        -0.04494 
  C         0.10300         -1.57098         0.28445 
  C        -1.17021         -1.48693        -0.17046 
  H         0.29835          2.15399         1.06535 
  H         2.22222          1.31817        -0.12628 
  H         2.19613         -1.20762         0.00771 
  H         0.32580         -2.22322         1.04216 
  H        -1.98517         -2.16861         0.10500 
  H        -1.61507         -0.78831        -1.19195 
  H        -2.19035          2.05615         0.34727 
  H        -1.23750          1.15217        -0.89371 
14
 geom =          44 
  C        -1.23071          1.48062        -0.21060 
  C         0.05834          1.43394         0.31637 
  C         1.22011          0.63959        -0.17908 
  C         1.21512         -0.64839        -0.07171 
  C         0.07726         -1.51203         0.29034 
  C        -1.14021         -1.40201        -0.17968 
  H        -0.01829          2.17837         1.27028 
  H         2.23742          1.29806         0.03544 
  H         2.13009         -1.11722        -0.17035 
  H         0.34599         -2.43666         0.98105 
  H        -1.94180         -2.10990         0.39149 
  H        -1.50284         -0.76347        -0.87843 
  H        -1.98190          2.15491         0.09052 
  H        -1.65055          0.89452        -1.31051 
14
 geom =          45 
  C        -1.19301          1.49352        -0.15714 
  C         0.11867          1.65916         0.29391 
  C         1.27218          0.68973        -0.08823 
  C         1.12404         -0.70320        -0.15575 
  C         0.02873         -1.55451         0.32138 
  C        -1.17909         -1.54709        -0.22353 
  H         0.40489          2.40140         1.11949 
  H         2.09790          1.06727        -0.31732 
  H         2.10503         -1.14194        -0.12846 
  H         0.31807         -2.31113         1.16382 
  H        -2.06221         -2.11876         0.11556 
  H        -1.50282         -1.12956        -1.02275 
  H        -1.86677          2.01204         0.26109 
  H        -1.53786          0.77252        -1.07994 
14
 geom =          46 
  C        -1.12288          1.46415        -0.18230 
  C         0.04533          1.48874         0.31904 
  C         1.24295          0.69533        -0.04736 
  C         1.17067         -0.65057        -0.16469 
  C         0.02966         -1.53716         0.29698 
  C        -1.21105         -1.51468        -0.18806 
  H         0.30520          2.55851         0.90349 
  H         2.00448          1.20657        -0.34678 
  H         2.17201         -0.98291        -0.29387 
  H         0.35117         -2.28229         1.09169 
  H        -1.92975         -1.92393         0.56533 
  H        -1.53381         -0.80583        -1.36575 
  H        -1.90213          2.05216         0.11266 
  H        -1.31021          0.82335        -1.06715 
14
 geom =          47 
  C        -1.21553          1.63013        -0.18392 
  C         0.01792          1.56798         0.28915 
  C         1.21820          0.65877        -0.11098 
  C         1.21209         -0.70879        -0.06459 
  C         0.05307         -1.61193         0.28283 
  C        -1.12337         -1.57334        -0.15706 
  H         0.25021          2.27635         1.02132 
  H         2.03855          1.36407        -0.35048 
  H         2.12703         -1.11183        -0.07370 
  H         0.49903         -2.36750         0.83816 
  H        -1.94549         -2.22610         0.17891 
  H        -1.64170         -0.65268        -1.10092 
  H        -1.89644          2.04833         0.34904 
  H        -1.36604          1.11237        -1.52280 
14
 geom =          48 
  C        -1.16328          1.43021        -0.19176 
  C         0.01112          1.48968         0.26044 
  C         1.22919          0.70291        -0.07136 
  C         1.23010         -0.70912        -0.14240 
  C         0.04384         -1.49570         0.29543 
  C        -1.19745         -1.43211        -0.19502 
  H         0.29769          2.25839         1.01800 
  H         2.26975          1.28085         0.07953 
  H         2.21877         -1.06102        -0.20017 
  H         0.37659         -2.22471         0.89816 
  H        -1.88479         -2.09762         0.54499 
  H        -1.78334         -0.78345        -1.06434 
  H        -1.93373          2.04873         0.26259 
  H        -1.39009          0.74709        -1.00652 
14
 geom =          49 
  C        -1.19644          1.55081        -0.14680 
  C         0.14006          1.54835         0.24602 
  C         1.25070          0.64469        -0.08320 
  C         1.12524         -0.62396        -0.07657 
  C        -0.00097         -1.53718         0.29824 
  C        -1.17472         -1.53520        -0.27529 
  H         0.32943          2.44079         0.98472 
  H         2.22543          0.97993        -0.26973 
  H         1.93043         -1.09056        -0.49683 
  H         0.42432         -2.15086         1.26805 
  H        -1.95240         -2.42234         0.34168 
  H        -1.33576         -1.30099        -0.78575 
  H        -1.83678          2.08843         0.39631 
  H        -1.49897          0.88961        -0.99045 
14
 geom =          50 
  C        -1.12455          1.53392        -0.19022 
  C         0.03352          1.55503         0.25889 
  C         1.15446          0.63983        -0.10786 
  C         1.18807         -0.66584        -0.09880 
  C         0.04989         -1.54603         0.35728 
  C        -1.15689         -1.54597        -0.22699 
  H         0.28077          2.26820         1.22343 
  H         2.02914          1.28881        -0.33109 
  H         2.24244         -1.23394        -0.50196 
  H         0.35413         -2.33808         0.93583 
  H        -1.97084         -2.14599         0.29225 
  H        -1.35479         -0.77465        -0.94334 
  H        -2.25161          2.09793         0.19987 
  H        -1.05113          1.18410        -0.78319 
14
 geom =          51 
  C        -1.22942          1.54653        -0.20924 
  C         0.03506          1.49395         0.27168 
  C         1.17069          0.65845        -0.09305 
  C         1.23516         -0.68645        -0.08340 
  C         0.10401         -1.50894         0.28084 
  C        -1.20819         -1.46574        -0.20449 
  H         0.29746          2.26779         1.03795 
  H         2.14414          1.20227        -0.00551 
  H         2.38343         -1.08704        -0.16693 
  H         0.54843         -2.64066         0.78815 
  H        -1.93350         -2.14439         0.38655 
  H        -1.36061         -0.95674        -0.69178 
  H        -1.79159          2.13632         0.21490 
  H        -1.56633          0.77207        -1.11458 
14
 geom =          52 
  C        -1.17769          1.59436        -0.17302 
  C         0.08937          1.50198         0.27392 
  C         1.12994          0.65808        -0.04290 
  C         1.15814         -0.67820        -0.14692 
  C         0.12909         -1.49970         0.28567 
  C        -1.18522         -1.58209        -0.17609 
  H         0.57921          2.19783         1.05496 
  H         2.19789          1.19450        -0.36134 
  H         2.04515         -1.36033        -0.10070 
  H         0.32987         -1.95487         1.26439 
  H        -1.85095         -2.08118         0.22964 
  H        -1.44615         -0.97099        -1.47822 
  H        -1.87434          2.08829         0.29195 
  H        -1.69208          0.95303        -1.14674 
14
 geom =          53 
  C        -1.07500          1.55428        -0.28805 
  C         0.01741          1.53565         0.36202 
  C         1.20627          0.66334        -0.01453 
  C         1.13183         -0.62696        -0.12736 
  C         0.09239         -1.56551         0.19908 
  C        -1.19380         -1.59043        -0.10590 
  H         0.17906          2.42693         1.16168 
  H         1.98203          1.37645        -0.35177 
  H         2.17622         -1.20702        -0.37300 
  H         0.54018         -2.20961         0.86605 
  H        -2.19470         -2.08816         0.36825 
  H        -1.58112         -0.83923        -0.93947 
  H        -1.96662          2.00774         0.13217 
  H        -1.26925          0.88586        -1.16493 
14
 geom =          54 
  C        -1.11488          1.47118        -0.22001 
  C         0.03535          1.47953         0.36111 
  C         1.14523          0.69838        -0.14976 
  C         1.22713         -0.61513        -0.13064 
  C         0.01745         -1.51912         0.33102 
  C        -1.17510         -1.48981        -0.16805 
  H         0.23899          1.98944         1.20769 
  H         2.12092          1.21340        -0.16168 
  H         2.09535         -1.28373        -0.13493 
  H         0.51744         -2.32797         0.98138 
  H        -1.95391         -1.91474         0.43512 
  H        -1.36945         -0.71443        -1.04910 
  H        -1.94258          1.73993         0.28848 
  H        -1.31750          1.00000        -1.84896 
14
 geom =          55 
  C        -1.28421          1.48208        -0.14432 
  C         0.04201          1.53196         0.23562 
  C         1.21592          0.61795        -0.06648 
  C         1.22501         -0.69457        -0.17397 
  C         0.07793         -1.55058         0.35524 
  C        -1.10788         -1.39614        -0.21554 
  H         0.18932          2.18538         1.08930 
  H         2.05064          1.21265        -0.08013 
  H         2.13204         -1.19218        -0.44005 
  H         0.03913         -2.26299         1.08255 
  H        -1.87379         -1.97664         0.41012 
  H        -1.15058         -0.93811        -0.90390 
  H        -1.87683          2.15000         0.15080 
  H        -1.52108          0.93261        -1.19607 
14
 geom =          56 
  C        -1.14143          1.48070        -0.20783 
  C         0.05404          1.60470         0.32614 
  C         1.21330          0.66822        -0.14396 
  C         1.24282         -0.67532        -0.12755 
  C         0.01632         -1.47785         0.24791 
  C        -1.19404         -1.56785        -0.18571 
  H         0.25273          2.13691         1.13349 
  H         2.25695          1.12671         0.14455 
  H         2.02329         -1.22947        -0.12285 
  H         0.25458         -2.24778         1.03848 
  H        -2.05861         -2.08990         0.44498 
  H        -1.56576         -1.24546        -0.95121 
  H        -1.97678          2.21443         0.22856 
  H        -1.46253          0.94599        -0.83156 
14
 geom =          57 
  C        -1.17955          1.53071        -0.18474 
  C         0.08230          1.54410         0.30949 
  C         1.22704          0.63486        -0.17596 
  C         1.20934         -0.64756        -0.06963 
  C         0.02943         -1.49502         0.35488 
  C        -1.22607         -1.57321        -0.28200 
  H         0.19886          2.34081         1.08031 
  H         2.33855          1.16034        -0.25521 
  H         2.13114         -1.13124        -0.34496 
  H         0.32595         -2.38379         1.08526 
  H        -1.88533         -2.21233         0.30824 
  H        -1.38492         -1.03327        -0.85828 
  H        -1.97242          2.24954         0.25155 
  H        -1.44974          1.08290        -0.69544 
14
 geom =          58 
  C        -1.17187          1.54837        -0.11872 
  C         0.07041          1.55777         0.21691 
  C         1.26272          0.68280        -0.05014 
  C         1.19441         -0.64741        -0.08237 
  C         0.07744         -1.54163         0.22420 
  C        -1.23047         -1.58010        -0.17512 
  H         0.27106          2.36358         1.00489 
  H         2.11043          1.30998        -0.07701 
  H         2.03211         -1.18701        -0.29638 
  H         0.20470         -2.38439         0.94598 
  H        -2.11420         -1.88279         0.45155 
  H        -1.59406         -0.98387        -1.20473 
  H        -1.71718          2.07173         0.19362 
  H        -1.60758          0.45692        -1.19373 
14
 geom =          59 
  C        -1.21995          1.56165        -0.12506 
  C         0.07946          1.56660         0.22187 
  C         1.21929          0.66901        -0.09835 
  C         1.22507         -0.71409        -0.06246 
  C         0.08300         -1.52624         0.27689 
  C        -1.18651         -1.59433        -0.18035 
  H         0.30830          2.38632         1.05291 
  H         2.02232          1.18895        -0.12710 
  H         2.12274         -1.33473        -0.31653 
  H         0.19304         -2.26402         0.91763 
  H        -1.85703         -2.17156         0.39664 
  H        -1.52268         -0.81287        -1.56039 
  H        -2.02544          2.38592         0.19701 
  H        -1.62871          1.06764        -0.94784 
14
 geom =          60 
  C        -1.18195          1.36216        -0.11407 
  C         0.10615          1.52535         0.23282 
  C         1.15505          0.68295        -0.07803 
  C         1.23825         -0.68850        -0.06902 
  C         0.10486         -1.44853         0.24298 
  C        -1.23584         -1.41608        -0.26383 
  H         0.61865          2.28578         0.95635 
  H         1.95945          1.14538        -0.43065 
  H         2.16547         -1.26918        -0.12133 
  H         0.13141         -1.96737         1.22552 
  H        -2.30734         -1.85245         0.51052 
  H        -1.45916         -1.28360        -0.88196 
  H        -1.97092          1.94003         0.31287 
  H        -1.36015          0.79472        -0.98562 
14
 geom =          61 
  C        -1.17367          1.53374        -0.15473 
  C         0.08896          1.44867         0.32136 
  C         1.15382          0.70099        -0.12560 
  C         1.15500         -0.66802        -0.14308 
  C         0.04960         -1.49330         0.38691 
  C        -1.13790         -1.48348        -0.23288 
  H         0.56839          2.25454         1.05474 
  H         2.20193          1.05524        -0.29965 
  H         2.20342         -1.19842        -0.39820 
  H         0.27347         -2.17528         1.17684 
  H        -2.08422         -1.93839         0.30461 
  H        -1.24123         -1.21533        -1.41698 
  H        -1.74360          2.11200         0.21206 
  H        -1.79634          0.64569        -1.25279 
14
 geom =          62 
  C        -1.13665          1.43796        -0.11165 
  C         0.10666          1.57757         0.23300 
  C         1.19498          0.67311        -0.11289 
  C         1.14584         -0.62445        -0.04993 
  C         0.04300         -1.57616         0.32564 
  C        -1.19615         -1.51376        -0.24769 
  H         0.54418          2.49654         0.83822 
  H         1.97105          1.22866        -0.35875 
  H         2.12064         -1.21899        -0.10372 
  H         0.28436         -2.38809         0.83456 
  H        -1.82556         -2.10831         0.36964 
  H        -1.61767         -0.49430        -1.31431 
  H        -1.90417          2.06833         0.26019 
  H        -1.45166          0.72273        -0.96036 
14
 geom =          63 
  C        -1.16027          1.57561        -0.23554 
  C        -0.03689          1.45394         0.36758 
  C         1.13710          0.63740        -0.08290 
  C         1.23058         -0.70632        -0.10677 
  C         0.13048         -1.49973         0.32591 
  C        -1.13552         -1.49057        -0.16816 
  H         0.22265          2.04248         1.09774 
  H         2.04439          1.24766        -0.52347 
  H         2.13639         -1.08355        -0.52184 
  H         0.51420         -2.19218         0.93808 
  H        -2.09777         -1.83361         0.31313 
  H        -1.33818         -0.72171        -1.10674 
  H        -1.89311          2.14058         0.15303 
  H        -1.56036          0.75381        -1.54284 
14
 geom =          64 
  C        -1.19793          1.53537        -0.22094 
  C         0.03028          1.46786         0.23918 
  C         1.14775          0.69548        -0.06967 
  C         1.17464         -0.67413        -0.05453 
  C         0.14596         -1.63028         0.28348 
  C        -1.14045         -1.43250        -0.19619 
  H         0.27527          2.18950         1.18222 
  H         2.15909          1.16263        -0.26658 
  H         2.23823         -1.01757        -0.51473 
  H         0.37636         -2.37034         1.08012 
  H        -2.11143         -2.00029         0.32137 
  H        -1.23840         -0.82151        -0.68150 
  H        -2.06438          2.04155         0.17370 
  H        -1.54427          1.27133        -1.07214 
14
 geom =          65 
  C        -1.25800          1.40601        -0.19816 
  C         0.09139          1.53389         0.26372 
  C         1.19504          0.62398        -0.11836 
  C         1.22391         -0.66911        -0.06683 
  C         0.08310         -1.46440         0.24800 
  C        -1.15872         -1.43758        -0.20929 
  H         0.38861          2.18726         1.09448 
  H         2.15887          1.10669        -0.01525 
  H         1.98982         -1.25622        -0.20957 
  H         0.32550         -2.25204         1.11099 
  H        -2.02701         -1.94817         0.53031 
  H        -1.53365         -1.18598        -1.06795 
  H        -1.99746          2.15186         0.32921 
  H        -1.41026          1.28253        -0.80789 
14
 geom =          66 
  C        -1.20300          1.51498        -0.24609 
  C        -0.00776          1.51634         0.23148 
  C         1.17820          0.64265        -0.03492 
  C         1.23516         -0.67397        -0.11147 
  C         0.08451         -1.56220         0.20284 
  C        -1.15378         -1.49326        -0.15990 
  H         0.30971          2.16590         1.23222 
  H         2.21997          1.29664         0.01303 
  H         2.22125         -1.11293        -0.18567 
  H         0.36822         -2.27990         1.14250 
  H        -1.82154         -2.00743         0.59101 
  H        -1.43245         -0.81770        -0.73539 
  H        -1.91902          2.04119         0.33458 
  H        -1.53502          1.37506        -0.98555 
14
 geom =          67 
  C        -1.17796          1.63585        -0.23943 
  C        -0.02003          1.53203         0.34516 
  C         1.18981          0.67247        -0.12372 
  C         1.17006         -0.71666        -0.09613 
  C         0.11894         -1.59884         0.28022 
  C        -1.14783         -1.54524        -0.18791 
  H         0.25787          2.17355         1.26738 
  H         2.11816          1.16742        -0.17385 
  H         2.36620         -1.01305        -0.31602 
  H         0.54355         -2.24797         1.00719 
  H        -2.06881         -2.03886         0.20986 
  H        -1.38913         -0.87914        -0.57913 
  H        -1.92351          2.20376        -0.02890 
  H        -1.48885          0.87724        -1.12668 
14
 geom =          68 
  C        -1.13829          1.51228        -0.28625 
  C         0.05232          1.55382         0.28832 
  C         1.18095          0.72431        -0.04275 
  C         1.14289         -0.64066        -0.13823 
  C         0.04568         -1.56711         0.25114 
  C        -1.15617         -1.56899        -0.14489 
  H         0.37712          2.00058         1.41675 
  H         2.16173          1.16506        -0.01712 
  H         1.95144         -1.17880        -0.31110 
  H         0.45253         -2.34458         0.86102 
  H        -1.93374         -1.93706         0.48036 
  H        -1.50235         -0.94676        -0.76421 
  H        -1.96663          1.93323         0.28218 
  H        -1.05809          1.14574        -1.08194 
14
 geom =          69 
  C        -1.22882          1.54849        -0.21863 
  C         0.03142          1.49520         0.28568 
  C         1.19931          0.68033        -0.11438 
  C         1.16905         -0.69373        -0.10191 
  C         0.12685         -1.56920         0.28225 
  C        -1.15651         -1.48299        -0.14670 
  H         0.21027          2.08502         1.12044 
  H         2.14572          1.04643        -0.01946 
  H         2.29945         -1.00916        -0.08249 
  H         0.28743         -2.25165         0.98685 
  H        -1.74051         -2.13983         0.27053 
  H        -1.56730         -0.60155        -1.16693 
  H        -1.83887          2.16843         0.34892 
  H        -1.47996          0.96315        -1.29480 
14
 geom =          70 
  C        -1.13797          1.47292        -0.17994 
  C         0.10991          1.63106         0.30603 
  C         1.21766          0.68125        -0.14013 
  C         1.19986         -0.72781        -0.14718 
  C         0.04578         -1.45267         0.33780 
  C        -1.24550         -1.60898        -0.24257 
  H         0.24351          2.29636         1.28129 
  H         2.18217          1.15157        -0.26122 
  H         2.13060         -1.21314        -0.02117 
  H         0.36461         -2.16712         1.21593 
  H        -2.08471         -2.09805         0.32038 
  H        -1.68198         -1.00224        -1.35830 
  H        -2.02705          2.08411         0.38577 
  H        -1.38804          0.99897        -0.77632 
14
 geom =          71 
  C        -1.18484          1.62445        -0.22902 
  C         0.05897          1.55492         0.28726 
  C         1.15984          0.69783        -0.08400 
  C         1.24040         -0.70176        -0.14429 
  C         0.09874         -1.57064         0.28969 
  C        -1.22124         -1.59381        -0.20517 
  H         0.26256          2.12123         1.11156 
  H         2.12568          1.15692         0.05569 
  H         2.14676         -1.27787        -0.23452 
  H         0.30790         -2.07335         1.14909 
  H        -1.85282         -2.10549         0.43598 
  H        -1.33578         -1.11253        -1.00137 
  H        -1.86164          2.17274         0.44584 
  H        -1.60231          0.98737        -0.94323 
14
 geom =          72 
  C        -1.18971          1.54528        -0.14050 
  C         0.05798          1.55753         0.26519 
  C         1.18046          0.58879        -0.10115 
  C         1.17213         -0.68634        -0.14023 
  C         0.10167         -1.46673         0.31784 
  C        -1.14989         -1.53611        -0.20943 
  H         0.26639          2.14203         1.02497 
  H         2.14235          1.12318        -0.13580 
  H         2.24619         -1.22569        -0.43370 
  H         0.15717         -2.14075         1.29396 
  H        -2.07753         -1.76055         0.25237 
  H        -1.09489         -1.08170        -1.15511 
  H        -1.98725          2.02857         0.26727 
  H        -1.70964          0.88629        -1.01528 
14
 geom =          73 
  C        -1.17163          1.49923        -0.21770 
  C         0.10774          1.54992         0.29877 
  C         1.21139          0.66360        -0.05995 
  C         1.11722         -0.64775        -0.18672 
  C         0.04264         -1.53678         0.29962 
  C        -1.12575         -1.52319        -0.13653 
  H         0.14146          2.17993         1.08651 
  H         2.30804          1.02529        -0.07356 
  H         1.96779         -1.16896        -0.32451 
  H         0.26011         -2.24417         1.17206 
  H        -1.77470         -2.16925         0.10320 
  H        -1.50126         -0.81823        -1.20158 
  H        -2.12173          2.11194         0.12578 
  H        -1.44372          1.02359        -0.85797 
14
 geom =          74 
  C        -1.22595          1.54985        -0.12137 
  C         0.09070          1.52000         0.21723 
  C         1.16738          0.62998        -0.08674 
  C         1.20764         -0.65308        -0.12172 
  C         0.05159         -1.54415         0.28246 
  C        -1.17443         -1.52199        -0.17692 
  H         0.51612          2.38735         0.96909 
  H         2.20682          1.17340         0.01591 
  H         2.20531         -1.12530        -0.23877 
  H         0.40307         -2.10638         1.17087 
  H        -2.02809         -2.13619         0.09077 
  H        -1.33073         -1.14819        -1.35250 
  H        -1.82768          2.52374         0.37314 
  H        -1.53817          0.66270        -0.94431 
14
 geom =          75 
  C        -1.20157          1.53474        -0.18404 
  C         0.09706          1.55190         0.24810 
  C         1.15746          0.68708        -0.07461 
  C         1.16531         -0.68783        -0.09566 
  C         0.05231         -1.60693         0.30787 
  C        -1.13171         -1.53211        -0.21402 
  H         0.49842          2.39951         0.82306 
  H         2.17479          1.11664        -0.11245 
  H         2.08884         -0.92742        -0.32100 
  H         0.39809         -2.40376         0.94023 
  H        -1.93107         -1.97042         0.35204 
  H        -1.36695         -0.86518        -1.23132 
  H        -1.91483          2.41975         0.33097 
  H        -1.60185          0.86423        -0.63411 
14
 geom =          76 
  C        -1.11921          1.50809        -0.24112 
  C         0.06352          1.54142         0.33483 
  C         1.17890          0.74040        -0.08013 
  C         1.13814         -0.65416        -0.14465 
  C         0.02854         -1.56196         0.26527 
  C        -1.16685         -1.53063        -0.11631 
  H         0.22960          2.01721         1.33325 
  H         2.25837          1.03076        -0.09568 
  H         2.26482         -1.08141        -0.41674 
  H         0.38569         -2.32808         1.05904 
  H        -1.97130         -2.04964         0.33774 
  H        -1.27679         -0.81628        -0.96689 
  H        -2.03863          1.84516         0.22780 
  H        -1.31779          0.86799        -1.69179 
14
 geom =          77 
  C        -1.12587          1.49969        -0.26167 
  C         0.08135          1.51845         0.28751 
  C         1.15875          0.72642        -0.08932 
  C         1.14078         -0.63743        -0.08078 
  C         0.07954         -1.59953         0.19668 
  C        -1.18044         -1.54250        -0.16577 
  H         0.34023          2.10547         1.31410 
  H         2.20843          1.45624         0.02917 
  H         2.18765         -1.00627        -0.01620 
  H         0.19833         -2.31265         0.93513 
  H        -1.92361         -2.08460         0.45472 
  H        -1.64207         -1.07195        -0.43297 
  H        -1.82894          2.15199         0.30494 
  H        -1.37636          1.17772        -1.23839 
14
 geom =          78 
  C        -1.15001          1.47308        -0.21271 
  C         0.04601          1.48778         0.30052 
  C         1.20651          0.67223        -0.09046 
  C         1.19813         -0.67350        -0.08657 
  C         0.06182         -1.46289         0.28316 
  C        -1.21413         -1.47682        -0.14068 
  H         0.26726          2.21307         1.22679 
  H         2.20232          1.19342        -0.55144 
  H         2.15055         -1.14615        -0.32484 
  H         0.19372         -2.21850         0.91840 
  H        -1.85621         -2.03733         0.15479 
  H        -1.32207         -0.71576        -1.15514 
  H        -2.11432          1.68545         0.32119 
  H        -1.28855          0.78886        -1.22452 
14
 geom =          79 
  C        -1.12957          1.46488        -0.12047 
  C         0.11806          1.56899         0.23643 
  C         1.22935          0.71813        -0.06537 
  C         1.13700         -0.68730        -0.08463 
  C        -0.00320         -1.56317         0.25477 
  C        -1.18574         -1.54255        -0.23051 
  H         0.31897          2.45562         0.99070 
  H         2.06000          1.34111        -0.47581 
  H         2.07505         -1.00178        -0.26324 
  H         0.26730         -2.18023         1.23187 
  H        -1.99080         -2.03642         0.29327 
  H        -1.50510         -0.85050        -0.94980 
  H        -1.76140          2.08837         0.15261 
  H        -1.44084          0.67259        -0.86303 
14
 geom =          80 
  C        -1.20595          1.43108        -0.10877 
  C         0.13370          1.56786         0.24201 
  C         1.27232          0.68598        -0.06385 
  C         1.11728         -0.65396        -0.13077 
  C         0.05044         -1.50052         0.21308 
  C        -1.19403         -1.52300        -0.15305 
  H         0.38994          2.27498         0.87833 
  H         2.34226          0.99841        -0.00727 
  H         2.19028         -1.14431         0.04331 
  H         0.24740         -2.03779         1.05858 
  H        -2.06859         -2.07179         0.27541 
  H        -1.72222         -0.89998        -1.33251 
  H        -1.90990          2.25574         0.13202 
  H        -1.53967          0.53618        -1.03184 
14
 geom =          81 
  C        -1.17358          1.34461        -0.17678 
  C         0.00616          1.49444         0.23965 
  C         1.24197          0.67744        -0.06478 
  C         1.29283         -0.63501        -0.11818 
  C         0.03983         -1.46910         0.24474 
  C        -1.24050         -1.42117        -0.18018 
  H         0.29199          2.23495         0.99727 
  H         2.08024          1.18200        -0.00658 
  H         2.16265         -1.38076        -0.26709 
  H         0.38545         -2.12970         1.09305 
  H        -2.14399         -2.06219         0.41821 
  H        -1.57335         -1.10154        -0.90335 
  H        -1.89153          2.14528         0.29956 
  H        -1.29793          1.21665        -0.96943 
14
 geom =          82 
  C        -1.21833          1.57272        -0.10101 
  C         0.09927          1.52656         0.23059 
  C         1.16300          0.60842        -0.13850 
  C         1.20858         -0.65768        -0.00761 
  C         0.06120         -1.52271         0.24953 
  C        -1.16798         -1.55998        -0.25659 
  H         0.36584          2.35344         0.92939 
  H         2.06601          1.30807        -0.29709 
  H         2.16321         -1.25537        -0.26856 
  H         0.23534         -2.08343         1.20767 
  H        -1.92687         -2.08890         0.39828 
  H        -1.35433         -1.08866        -0.91070 
  H        -1.86147          2.31158         0.40743 
  H        -1.42425          0.93243        -1.18544 
14
 geom =          83 
  C        -1.15123          1.48439        -0.10782 
  C         0.10431          1.63675         0.27268 
  C         1.25585          0.66989        -0.14077 
  C         1.08541         -0.64600        -0.12692 
  C         0.03529         -1.58626         0.37170 
  C        -1.16727         -1.54752        -0.28747 
  H         0.42408          2.23113         0.96028 
  H         2.14271          1.08184        -0.10271 
  H         1.95309         -1.28150        -0.29527 
  H         0.28368         -2.20898         1.29050 
  H        -1.87618         -2.27244         0.26592 
  H        -1.30423         -0.93637        -0.96587 
  H        -1.91284          2.36883         0.25723 
  H        -1.64494          0.88355        -1.18845 
14
 geom =          84 
  C        -1.22470          1.49908        -0.16633 
  C         0.07918          1.58747         0.25385 
  C         1.21065          0.62144        -0.05060 
  C         1.19974         -0.66934        -0.11189 
  C         0.08926         -1.56119         0.24227 
  C        -1.22475         -1.50184        -0.19937 
  H         0.46758          2.55892         0.64008 
  H         2.10800          1.08416        -0.31549 
  H         2.27396         -1.08059        -0.09587 
  H         0.23652         -2.25088         1.15031 
  H        -2.00559         -2.02459         0.33396 
  H        -1.05458         -1.14544        -1.22307 
  H        -1.87140          2.13246         0.43621 
  H        -1.69613          1.01644        -0.54414 
14
 geom =          85 
  C        -1.12631          1.56945        -0.10732 
  C         0.07683          1.63268         0.24348 
  C         1.19138          0.65577        -0.08909 
  C         1.16683         -0.65455        -0.11912 
  C         0.02702         -1.56483         0.33258 
  C        -1.18182         -1.55566        -0.25194 
  H         0.39296          2.38314         0.91884 
  H         2.26371          1.06056        -0.23326 
  H         2.05943         -1.31078        -0.42721 
  H         0.24489         -2.20950         1.07219 
  H        -2.02660         -2.20275         0.18684 
  H        -1.43252         -1.35523        -0.89975 
  H        -2.10131          1.93176         0.33704 
  H        -1.23478          0.71538        -1.05702 
14
 geom =          86 
  C        -1.19629          1.56442        -0.21855 
  C         0.05594          1.59120         0.25066 
  C         1.12709          0.64458        -0.09454 
  C         1.23448         -0.68644        -0.05245 
  C         0.10770         -1.51013         0.21050 
  C        -1.19460         -1.58716        -0.19743 
  H         0.26769          2.07154         1.16495 
  H         2.25230          0.98085        -0.13673 
  H         2.30888         -1.17568        -0.18886 
  H         0.29876         -2.40292         1.05835 
  H        -1.93467         -2.25593         0.47153 
  H        -1.35719         -0.88026        -0.78786 
  H        -2.03989          2.34219         0.29984 
  H        -1.39643          1.12391        -0.66826 
14
 geom =          87 
  C        -1.15077          1.52508        -0.22658 
  C        -0.00060          1.54764         0.32662 
  C         1.18745          0.68304        -0.14381 
  C         1.11941         -0.71623        -0.12950 
  C         0.12063         -1.53108         0.33521 
  C        -1.09932         -1.48398        -0.19227 
  H         0.28347          1.90878         1.46307 
  H         2.12978          0.94844        -0.23729 
  H         2.16691         -1.06334        -0.22873 
  H         0.25813         -2.22277         1.04277 
  H        -2.12035         -1.98599         0.24497 
  H        -1.36001         -0.93177        -0.77917 
  H        -2.09838          2.01917         0.20545 
  H        -1.36619          1.03605        -1.34976 
14
 geom =          88 
  C        -1.14830          1.44362        -0.19891 
  C         0.15342          1.59483         0.29202 
  C         1.23397          0.65843        -0.10379 
  C         1.10787         -0.65637        -0.12480 
  C         0.00949         -1.50054         0.35335 
  C        -1.19091         -1.55882        -0.27976 
  H         0.36624          2.42222         1.14052 
  H         2.20942          1.22515        -0.20010 
  H         1.88086         -1.22456        -0.39025 
  H         0.46780         -2.17515         1.05431 
  H        -1.93136         -2.14454         0.32484 
  H        -1.54197         -0.82412        -0.84159 
  H        -2.14830          2.00653         0.14468 
  H        -1.27517          0.93908        -0.49475 
14
 geom =          89 
  C        -1.23488          1.52315        -0.18843 
  C        -0.00299          1.48476         0.23732 
  C         1.17696          0.64716        -0.10996 
  C         1.26436         -0.70955        -0.09794 
  C         0.11634         -1.55091         0.24625 
  C        -1.17065         -1.42208        -0.19120 
  H         0.31463          2.22767         1.12135 
  H         2.17029          1.28495         0.17134 
  H         2.27549         -1.07735        -0.16889 
  H         0.30317         -2.15423         1.24638 
  H        -1.96946         -1.94994         0.51148 
  H        -1.53872         -1.03762        -1.07054 
  H        -1.78007          2.17980         0.43820 
  H        -1.55243          0.85414        -1.01059 
14
 geom =          90 
  C        -1.22940          1.49689        -0.23752 
  C        -0.05129          1.51444         0.28199 
  C         1.16515          0.67052        -0.07960 
  C         1.24446         -0.75251        -0.14482 
  C         0.15494         -1.60134         0.27912 
  C        -1.11476         -1.35267        -0.14044 
  H         0.27848          2.14110         1.14659 
  H         2.11698          1.17144         0.03538 
  H         2.24578         -1.04876        -0.26198 
  H         0.24072         -2.26467         1.07967 
  H        -1.91276         -1.95699         0.33765 
  H        -1.50541         -0.91344        -1.03471 
  H        -2.00877          2.08077         0.18835 
  H        -1.46991          1.08439        -0.99917 
14
 geom =          91 
  C        -1.11154          1.49581        -0.16101 
  C         0.05280          1.57936         0.29945 
  C         1.26321          0.70491        -0.17422 
  C         1.11141         -0.67457        -0.07847 
  C         0.03087         -1.57287         0.30920 
  C        -1.18286         -1.61052        -0.20457 
  H         0.48428          2.23303         1.18465 
  H         2.18544          1.32558        -0.13175 
  H         1.91777         -1.10859        -0.35707 
  H         0.31802         -2.04804         1.29770 
  H        -2.01020         -1.93506         0.18898 
  H        -1.56591         -0.62999        -1.38187 
  H        -1.94388          2.25399         0.25054 
  H        -1.33846          0.83701        -0.93650 
14
 geom =          92 
  C        -1.23909          1.54004        -0.09819 
  C         0.08299          1.55323         0.20743 
  C         1.19958          0.60796        -0.09566 
  C         1.13721         -0.71819        -0.07412 
  C         0.05611         -1.50938         0.33618 
  C        -1.10637         -1.48752        -0.25360 
  H         0.25641          2.26029         1.13005 
  H         2.07536          1.12179        -0.39147 
  H         2.09558         -1.04203        -0.45802 
  H         0.34040         -2.14092         1.04771 
  H        -1.89496         -2.06050         0.25628 
  H        -1.16099         -1.04025        -0.90373 
  H        -1.85478          2.13611         0.25219 
  H        -1.41124          0.93067        -1.19561 
14
 geom =          93 
  C        -1.14054          1.39836        -0.18340 
  C         0.09578          1.55194         0.29648 
  C         1.23841          0.68697        -0.12117 
  C         1.11655         -0.71224        -0.12583 
  C         0.03041         -1.48944         0.34803 
  C        -1.15662         -1.49008        -0.22810 
  H         0.36343          2.25722         0.97966 
  H         2.22801          1.35190        -0.37297 
  H         2.09186         -1.17075        -0.24091 
  H         0.11556         -2.11087         1.22940 
  H        -1.88976         -1.93502         0.16634 
  H        -1.41431         -0.71465        -1.10838 
  H        -2.07783          1.85689         0.39423 
  H        -1.60926          1.11473        -0.88068 
14
 geom =          94 
  C        -1.15616          1.44451        -0.11566 
  C         0.10342          1.56596         0.30721 
  C         1.21024          0.68920        -0.06184 
  C         1.12876         -0.69864        -0.16262 
  C         0.07443         -1.44152         0.31907 
  C        -1.19774         -1.55522        -0.22039 
  H         0.34284          2.38265         0.98432 
  H         2.30240          1.13891        -0.30674 
  H         2.00330         -1.39937        -0.51159 
  H         0.03003         -1.96160         1.23112 
  H        -1.95513         -1.89155         0.36749 
  H        -1.47055         -1.08582        -1.22655 
  H        -1.77900          2.02831         0.21516 
  H        -1.41548          0.73740        -1.53688 
14
 geom =          95 
  C        -1.18571          1.37522        -0.13917 
  C         0.08950          1.51544         0.20991 
  C         1.26680          0.68515        -0.13481 
  C         1.21759         -0.64586        -0.06858 
  C        -0.00596         -1.51811         0.26751 
  C        -1.21424         -1.46448        -0.21319 
  H         0.37518          2.30493         1.05995 
  H         2.23651          1.32280        -0.01247 
  H         2.27771         -1.00673        -0.21682 
  H         0.25755         -2.18448         1.26973 
  H        -2.18795         -2.08492         0.18438 
  H        -1.59282         -1.09625        -1.04084 
  H        -1.80965          2.30647         0.37665 
  H        -1.55806          1.06533        -0.68721 
14
 geom =          96 
  C        -1.19536          1.43201        -0.17126 
  C         0.04548          1.50004         0.27363 
  C         1.31061          0.68041        -0.14015 
  C         1.21160         -0.63256        -0.11612 
  C        -0.02549         -1.52592         0.31216 
  C        -1.20828         -1.46345        -0.20732 
  H         0.26875          2.12791         1.04149 
  H         2.27903          1.17382        -0.31136 
  H         2.37710         -1.10075        -0.07034 
  H         0.29703         -2.06674         1.29072 
  H        -2.09703         -1.94255         0.31278 
  H        -1.55884         -1.10606        -1.16857 
  H        -2.06735          1.80319         0.57922 
  H        -1.14979          1.22409        -1.08927 
14
 geom =          97 
  C        -1.17584          1.41179        -0.12104 
  C         0.09953          1.50573         0.22801 
  C         1.27383          0.66569        -0.09602 
  C         1.18099         -0.63512        -0.14495 
  C         0.00069         -1.46276         0.39587 
  C        -1.22199         -1.50901        -0.24536 
  H         0.46761          2.24168         1.07765 
  H         2.09994          1.13886        -0.17182 
  H         2.06566         -1.20527        -0.49829 
  H         0.35011         -2.11647         1.17547 
  H        -1.95380         -1.91170         0.32334 
  H        -1.49314         -0.68858        -1.45713 
  H        -2.19284          2.02675         0.32647 
  H        -1.21683          0.79700        -0.97251 
14
 geom =          98 
  C        -1.14049          1.41295        -0.17290 
  C         0.05647          1.51400         0.25418 
  C         1.25042          0.61379        -0.06846 
  C         1.15703         -0.67284        -0.17081 
  C         0.03554         -1.41519         0.32856 
  C        -1.21290         -1.44049        -0.24163 
  H         0.32895          2.37498         1.05585 
  H         2.28604          1.14919        -0.04177 
  H         2.12976         -1.00174        -0.44692 
  H         0.36429         -2.05863         1.31273 
  H        -1.97054         -2.04251         0.29267 
  H        -1.49879         -1.08312        -1.00313 
  H        -1.96792          1.95691         0.48735 
  H        -1.41229          0.55936        -0.81002 
14
 geom =          99 
  C        -1.13570          1.44261        -0.12931 
  C         0.10410          1.55926         0.31453 
  C         1.14726          0.71113        -0.10817 
  C         1.21053         -0.70143        -0.15330 
  C         0.04517         -1.47221         0.34473 
  C        -1.21203         -1.50948        -0.27809 
  H         0.46440          2.39184         0.87886 
  H         2.05525          1.13030        -0.36392 
  H         2.11108         -1.38071        -0.16093 
  H         0.22903         -2.04671         1.21388 
  H        -2.10140         -1.88041         0.37874 
  H        -1.49933         -1.26695        -0.96104 
  H        -1.91156          1.83867         0.25930 
  H        -1.24587          0.85799        -1.13045 
