14
This is a temporary strucutre for Sparrow to calculate energy and gradient
  C        -1.18539          1.50036        -0.17480
  C         0.05710          1.52564         0.29049
  C         1.18242          0.67131        -0.09028
  C         1.18242         -0.67131        -0.09028
  C         0.05710         -1.52564         0.29048
  C        -1.18539         -1.50036        -0.17480
  H         0.28535          2.22615         1.09034
  H         2.14403          1.16481        -0.19926
  H         2.14403         -1.16482        -0.19926
  H         0.28535         -2.22615         1.09033
  H        -1.97202         -2.07648         0.29439
  H        -1.46211         -0.92408        -1.04266
  H        -1.97202          2.07648         0.29438
  H        -1.46210          0.92408        -1.04372
